!	AVX Thin Film Operation 	Date: April 2014		
!	Description: Accu-P® Series, Thin Film  SMD RF Capacitor
!	Part Number: 02015J1R2PBSTR					
!								
# MHZ S MA R 50

50 0.999 -2.159 0.038 87.831 0.038 87.831 0.999 -2.159
74.958 0.998 -3.235 0.056 86.75 0.056 86.75 0.998 -3.235
99.917 0.997 -4.309 0.075 85.672 0.075 85.672 0.997 -4.309
124.875 0.996 -5.38 0.094 84.596 0.094 84.596 0.996 -5.38
149.833 0.994 -6.448 0.112 83.523 0.112 83.523 0.994 -6.448
174.792 0.991 -7.511 0.131 82.455 0.131 82.455 0.991 -7.511
199.75 0.989 -8.57 0.149 81.391 0.149 81.391 0.989 -8.57
224.708 0.986 -9.623 0.167 80.333 0.167 80.333 0.986 -9.623
249.667 0.983 -10.67 0.185 79.281 0.185 79.281 0.983 -10.67
274.625 0.979 -11.711 0.203 78.235 0.203 78.235 0.979 -11.711
299.583 0.975 -12.745 0.221 77.197 0.221 77.197 0.975 -12.745
324.542 0.971 -13.771 0.238 76.166 0.238 76.166 0.971 -13.771
349.5 0.967 -14.788 0.255 75.143 0.255 75.143 0.967 -14.788
374.458 0.962 -15.797 0.272 74.129 0.272 74.129 0.962 -15.797
399.417 0.957 -16.797 0.289 73.125 0.289 73.125 0.957 -16.797
424.375 0.952 -17.788 0.305 72.129 0.305 72.129 0.952 -17.788
449.333 0.946 -18.768 0.322 71.144 0.322 71.144 0.946 -18.768
474.292 0.941 -19.738 0.338 70.169 0.338 70.169 0.941 -19.738
499.25 0.935 -20.697 0.353 69.205 0.353 69.205 0.935 -20.697
524.208 0.929 -21.646 0.369 68.251 0.369 68.251 0.929 -21.646
549.167 0.923 -22.583 0.384 67.309 0.384 67.309 0.923 -22.583
574.125 0.916 -23.509 0.399 66.378 0.399 66.378 0.916 -23.509
599.083 0.91 -24.423 0.413 65.459 0.413 65.459 0.91 -24.423
624.042 0.903 -25.325 0.428 64.552 0.428 64.552 0.903 -25.325
649 0.896 -26.215 0.442 63.657 0.442 63.657 0.896 -26.215
673.958 0.889 -27.093 0.455 62.774 0.455 62.774 0.889 -27.093
698.917 0.882 -27.959 0.469 61.903 0.469 61.903 0.882 -27.959
723.875 0.875 -28.813 0.482 61.045 0.482 61.045 0.875 -28.813
748.833 0.868 -29.654 0.495 60.199 0.495 60.199 0.868 -29.654
773.792 0.86 -30.482 0.507 59.365 0.507 59.365 0.86 -30.482
798.75 0.853 -31.298 0.519 58.544 0.519 58.544 0.853 -31.298
823.708 0.846 -32.102 0.531 57.736 0.531 57.736 0.846 -32.102
848.667 0.838 -32.893 0.543 56.939 0.543 56.939 0.838 -32.893
873.625 0.831 -33.671 0.554 56.156 0.554 56.156 0.831 -33.671
898.583 0.823 -34.438 0.566 55.384 0.566 55.384 0.823 -34.438
923.542 0.815 -35.191 0.576 54.625 0.576 54.625 0.815 -35.191
948.5 0.808 -35.933 0.587 53.879 0.587 53.879 0.808 -35.933
973.458 0.8 -36.663 0.597 53.144 0.597 53.144 0.8 -36.663
998.417 0.793 -37.38 0.607 52.421 0.607 52.421 0.793 -37.38
1023.375 0.785 -38.086 0.617 51.711 0.617 51.711 0.785 -38.086
1048.333 0.777 -38.779 0.626 51.012 0.626 51.012 0.777 -38.779
1073.292 0.77 -39.461 0.636 50.325 0.636 50.325 0.77 -39.461
1098.25 0.762 -40.132 0.645 49.649 0.645 49.649 0.762 -40.132
1123.208 0.755 -40.791 0.653 48.985 0.653 48.985 0.755 -40.791
1148.167 0.747 -41.439 0.662 48.332 0.662 48.332 0.747 -41.439
1173.125 0.74 -42.076 0.67 47.69 0.67 47.69 0.74 -42.076
1198.083 0.732 -42.701 0.678 47.059 0.678 47.059 0.732 -42.701
1223.042 0.725 -43.317 0.686 46.438 0.686 46.438 0.725 -43.317
1248 0.717 -43.921 0.694 45.828 0.694 45.828 0.717 -43.921
1272.958 0.71 -44.515 0.701 45.229 0.701 45.229 0.71 -44.515
1297.917 0.703 -45.099 0.708 44.64 0.708 44.64 0.703 -45.099
1322.875 0.695 -45.673 0.715 44.061 0.715 44.061 0.695 -45.673
1347.833 0.688 -46.236 0.722 43.492 0.722 43.492 0.688 -46.236
1372.792 0.681 -46.79 0.729 42.932 0.729 42.932 0.681 -46.79
1397.75 0.674 -47.335 0.735 42.383 0.735 42.383 0.674 -47.335
1422.708 0.667 -47.87 0.742 41.842 0.742 41.842 0.667 -47.87
1447.667 0.66 -48.396 0.748 41.311 0.748 41.311 0.66 -48.396
1472.625 0.653 -48.913 0.754 40.788 0.754 40.788 0.653 -48.913
1497.583 0.646 -49.421 0.76 40.275 0.76 40.275 0.646 -49.421
1522.542 0.64 -49.92 0.765 39.77 0.765 39.77 0.64 -49.92
1547.5 0.633 -50.411 0.771 39.274 0.771 39.274 0.633 -50.411
1572.458 0.626 -50.893 0.776 38.786 0.776 38.786 0.626 -50.893
1597.417 0.62 -51.368 0.781 38.306 0.781 38.306 0.62 -51.368
1622.375 0.613 -51.834 0.786 37.834 0.786 37.834 0.613 -51.834
1647.333 0.607 -52.292 0.791 37.37 0.791 37.37 0.607 -52.292
1672.292 0.601 -52.743 0.796 36.914 0.796 36.914 0.601 -52.743
1697.25 0.594 -53.186 0.801 36.465 0.801 36.465 0.594 -53.186
1722.208 0.588 -53.622 0.805 36.024 0.805 36.024 0.588 -53.622
1747.167 0.582 -54.05 0.81 35.589 0.81 35.589 0.582 -54.05
1772.125 0.576 -54.472 0.814 35.162 0.814 35.162 0.576 -54.472
1797.083 0.57 -54.886 0.818 34.742 0.818 34.742 0.57 -54.886
1822.042 0.564 -55.294 0.822 34.328 0.822 34.328 0.564 -55.294
1847 0.558 -55.695 0.826 33.921 0.826 33.921 0.558 -55.695
1871.958 0.552 -56.09 0.83 33.521 0.83 33.521 0.552 -56.09
1896.917 0.547 -56.478 0.834 33.127 0.834 33.127 0.547 -56.478
1921.875 0.541 -56.86 0.837 32.739 0.837 32.739 0.541 -56.86
1946.833 0.535 -57.236 0.841 32.357 0.841 32.357 0.535 -57.236
1971.792 0.53 -57.606 0.844 31.981 0.844 31.981 0.53 -57.606
1996.75 0.524 -57.97 0.848 31.611 0.848 31.611 0.524 -57.97
2021.708 0.519 -58.328 0.851 31.247 0.851 31.247 0.519 -58.328
2046.667 0.513 -58.681 0.854 30.888 0.854 30.888 0.513 -58.681
2071.625 0.508 -59.029 0.857 30.534 0.857 30.534 0.508 -59.029
2096.583 0.503 -59.37 0.861 30.186 0.861 30.186 0.503 -59.37
2121.542 0.498 -59.707 0.863 29.843 0.863 29.843 0.498 -59.707
2146.5 0.493 -60.039 0.866 29.506 0.866 29.506 0.493 -60.039
2171.458 0.487 -60.365 0.869 29.173 0.869 29.173 0.487 -60.365
2196.417 0.482 -60.687 0.872 28.845 0.872 28.845 0.482 -60.687
2221.375 0.478 -61.003 0.875 28.522 0.875 28.522 0.478 -61.003
2246.333 0.473 -61.315 0.877 28.204 0.877 28.204 0.473 -61.315
2271.292 0.468 -61.623 0.88 27.89 0.88 27.89 0.468 -61.623
2296.25 0.463 -61.926 0.882 27.581 0.882 27.581 0.463 -61.926
2321.208 0.458 -62.224 0.885 27.276 0.885 27.276 0.458 -62.224
2346.167 0.454 -62.518 0.887 26.975 0.887 26.975 0.454 -62.518
2371.125 0.449 -62.808 0.89 26.679 0.89 26.679 0.449 -62.808
2396.083 0.444 -63.094 0.892 26.387 0.892 26.387 0.444 -63.094
2421.042 0.44 -63.375 0.894 26.098 0.894 26.098 0.44 -63.375
2446 0.435 -63.653 0.896 25.814 0.896 25.814 0.435 -63.653
2470.958 0.431 -63.926 0.898 25.534 0.898 25.534 0.431 -63.926
2495.917 0.427 -64.196 0.9 25.257 0.9 25.257 0.427 -64.196
2520.875 0.422 -64.462 0.902 24.984 0.902 24.984 0.422 -64.462
2545.833 0.418 -64.725 0.904 24.715 0.904 24.715 0.418 -64.725
2570.792 0.414 -64.983 0.906 24.449 0.906 24.449 0.414 -64.983
2595.75 0.41 -65.239 0.908 24.187 0.908 24.187 0.41 -65.239
2620.708 0.406 -65.49 0.91 23.929 0.91 23.929 0.406 -65.49
2645.667 0.402 -65.739 0.912 23.673 0.912 23.673 0.402 -65.739
2670.625 0.398 -65.984 0.913 23.421 0.913 23.421 0.398 -65.984
2695.583 0.394 -66.226 0.915 23.172 0.915 23.172 0.394 -66.226
2720.542 0.39 -66.464 0.917 22.926 0.917 22.926 0.39 -66.464
2745.5 0.386 -66.699 0.918 22.684 0.918 22.684 0.386 -66.699
2770.458 0.382 -66.932 0.92 22.444 0.92 22.444 0.382 -66.932
2795.417 0.378 -67.161 0.922 22.207 0.922 22.207 0.378 -67.161
2820.375 0.374 -67.387 0.923 21.974 0.923 21.974 0.374 -67.387
2845.333 0.37 -67.611 0.925 21.743 0.925 21.743 0.37 -67.611
2870.292 0.367 -67.831 0.926 21.515 0.926 21.515 0.367 -67.831
2895.25 0.363 -68.049 0.928 21.289 0.928 21.289 0.363 -68.049
2920.208 0.359 -68.264 0.929 21.067 0.929 21.067 0.359 -68.264
2945.167 0.356 -68.476 0.93 20.847 0.93 20.847 0.356 -68.476
2970.125 0.352 -68.686 0.932 20.629 0.932 20.629 0.352 -68.686
2995.083 0.349 -68.893 0.933 20.414 0.933 20.414 0.349 -68.893
3020.042 0.345 -69.097 0.934 20.202 0.934 20.202 0.345 -69.097
3045 0.342 -69.299 0.936 19.992 0.936 19.992 0.342 -69.299
3069.958 0.339 -69.499 0.937 19.784 0.937 19.784 0.339 -69.499
3094.917 0.335 -69.696 0.938 19.579 0.938 19.579 0.335 -69.696
3119.875 0.332 -69.891 0.939 19.376 0.939 19.376 0.332 -69.891
3144.833 0.328 -70.083 0.94 19.175 0.94 19.175 0.328 -70.083
3169.792 0.325 -70.273 0.941 18.977 0.941 18.977 0.325 -70.273
3194.75 0.322 -70.461 0.942 18.781 0.942 18.781 0.322 -70.461
3219.708 0.319 -70.647 0.944 18.587 0.944 18.587 0.319 -70.647
3244.667 0.316 -70.83 0.945 18.395 0.945 18.395 0.316 -70.83
3269.625 0.312 -71.011 0.946 18.205 0.946 18.205 0.312 -71.011
3294.583 0.309 -71.191 0.947 18.017 0.947 18.017 0.309 -71.191
3319.542 0.306 -71.368 0.948 17.831 0.948 17.831 0.306 -71.368
3344.5 0.303 -71.543 0.949 17.647 0.949 17.647 0.303 -71.543
3369.458 0.3 -71.716 0.95 17.465 0.95 17.465 0.3 -71.716
3394.417 0.297 -71.887 0.951 17.284 0.951 17.284 0.297 -71.887
3419.375 0.294 -72.056 0.951 17.106 0.951 17.106 0.294 -72.056
3444.333 0.291 -72.224 0.952 16.929 0.952 16.929 0.291 -72.224
3469.292 0.288 -72.389 0.953 16.755 0.953 16.755 0.288 -72.389
3494.25 0.285 -72.553 0.954 16.582 0.954 16.582 0.285 -72.553
3519.208 0.283 -72.714 0.955 16.41 0.955 16.41 0.283 -72.714
3544.167 0.28 -72.874 0.956 16.241 0.956 16.241 0.28 -72.874
3569.125 0.277 -73.032 0.957 16.073 0.957 16.073 0.277 -73.032
3594.083 0.274 -73.189 0.957 15.906 0.957 15.906 0.274 -73.189
3619.042 0.271 -73.344 0.958 15.742 0.958 15.742 0.271 -73.344
3644 0.269 -73.497 0.959 15.579 0.959 15.579 0.269 -73.497
3668.958 0.266 -73.648 0.96 15.417 0.96 15.417 0.266 -73.648
3693.917 0.263 -73.798 0.96 15.257 0.96 15.257 0.263 -73.798
3718.875 0.261 -73.946 0.961 15.098 0.961 15.098 0.261 -73.946
3743.833 0.258 -74.092 0.962 14.941 0.962 14.941 0.258 -74.092
3768.792 0.255 -74.237 0.963 14.786 0.963 14.786 0.255 -74.237
3793.75 0.253 -74.381 0.963 14.632 0.963 14.632 0.253 -74.381
3818.708 0.25 -74.523 0.964 14.479 0.964 14.479 0.25 -74.523
3843.667 0.247 -74.663 0.965 14.327 0.965 14.327 0.247 -74.663
3868.625 0.245 -74.802 0.965 14.177 0.965 14.177 0.245 -74.802
3893.583 0.242 -74.94 0.966 14.029 0.966 14.029 0.242 -74.94
3918.542 0.24 -75.076 0.966 13.881 0.966 13.881 0.24 -75.076
3943.5 0.237 -75.21 0.967 13.735 0.967 13.735 0.237 -75.21
3968.458 0.235 -75.343 0.968 13.59 0.968 13.59 0.235 -75.343
3993.417 0.233 -75.475 0.968 13.447 0.968 13.447 0.233 -75.475
4018.375 0.23 -75.606 0.969 13.304 0.969 13.304 0.23 -75.606
4043.333 0.228 -75.735 0.969 13.163 0.969 13.163 0.228 -75.735
4068.292 0.225 -75.862 0.97 13.023 0.97 13.023 0.225 -75.862
4093.25 0.223 -75.989 0.97 12.884 0.97 12.884 0.223 -75.989
4118.208 0.221 -76.114 0.971 12.746 0.971 12.746 0.221 -76.114
4143.167 0.218 -76.238 0.971 12.61 0.971 12.61 0.218 -76.238
4168.125 0.216 -76.36 0.972 12.475 0.972 12.475 0.216 -76.36
4193.083 0.214 -76.481 0.972 12.34 0.972 12.34 0.214 -76.481
4218.042 0.211 -76.601 0.973 12.207 0.973 12.207 0.211 -76.601
4243 0.209 -76.72 0.973 12.075 0.973 12.075 0.209 -76.72
4267.958 0.207 -76.838 0.974 11.944 0.974 11.944 0.207 -76.838
4292.917 0.205 -76.954 0.974 11.814 0.974 11.814 0.205 -76.954
4317.875 0.203 -77.069 0.975 11.685 0.975 11.685 0.203 -77.069
4342.833 0.2 -77.183 0.975 11.557 0.975 11.557 0.2 -77.183
4367.792 0.198 -77.295 0.976 11.43 0.976 11.43 0.198 -77.295
4392.75 0.196 -77.407 0.976 11.303 0.976 11.303 0.196 -77.407
4417.708 0.194 -77.517 0.977 11.178 0.977 11.178 0.194 -77.517
4442.667 0.192 -77.626 0.977 11.054 0.977 11.054 0.192 -77.626
4467.625 0.19 -77.734 0.977 10.931 0.977 10.931 0.19 -77.734
4492.583 0.188 -77.841 0.978 10.809 0.978 10.809 0.188 -77.841
4517.542 0.185 -77.947 0.978 10.687 0.978 10.687 0.185 -77.947
4542.5 0.183 -78.052 0.979 10.567 0.979 10.567 0.183 -78.052
4567.458 0.181 -78.155 0.979 10.447 0.979 10.447 0.181 -78.155
4592.417 0.179 -78.257 0.979 10.328 0.979 10.328 0.179 -78.257
4617.375 0.177 -78.359 0.98 10.21 0.98 10.21 0.177 -78.359
4642.333 0.175 -78.459 0.98 10.093 0.98 10.093 0.175 -78.459
4667.292 0.173 -78.558 0.98 9.977 0.98 9.977 0.173 -78.558
4692.25 0.171 -78.656 0.981 9.861 0.981 9.861 0.171 -78.656
4717.208 0.169 -78.753 0.981 9.747 0.981 9.747 0.169 -78.753
4742.167 0.167 -78.848 0.981 9.633 0.981 9.633 0.167 -78.848
4767.125 0.165 -78.943 0.982 9.52 0.982 9.52 0.165 -78.943
4792.083 0.164 -79.037 0.982 9.407 0.982 9.407 0.164 -79.037
4817.042 0.162 -79.129 0.982 9.296 0.982 9.296 0.162 -79.129
4842 0.16 -79.221 0.983 9.185 0.983 9.185 0.16 -79.221
4866.958 0.158 -79.311 0.983 9.075 0.983 9.075 0.158 -79.311
4891.917 0.156 -79.401 0.983 8.966 0.983 8.966 0.156 -79.401
4916.875 0.154 -79.489 0.984 8.857 0.984 8.857 0.154 -79.489
4941.833 0.152 -79.576 0.984 8.749 0.984 8.749 0.152 -79.576
4966.792 0.15 -79.662 0.984 8.642 0.984 8.642 0.15 -79.662
4991.75 0.148 -79.747 0.984 8.536 0.984 8.536 0.148 -79.747
5016.708 0.147 -79.831 0.985 8.43 0.985 8.43 0.147 -79.831
5041.667 0.145 -79.914 0.985 8.325 0.985 8.325 0.145 -79.914
5066.625 0.143 -79.996 0.985 8.22 0.985 8.22 0.143 -79.996
5091.583 0.141 -80.076 0.986 8.116 0.986 8.116 0.141 -80.076
5116.542 0.139 -80.156 0.986 8.013 0.986 8.013 0.139 -80.156
5141.5 0.138 -80.235 0.986 7.911 0.986 7.911 0.138 -80.235
5166.458 0.136 -80.312 0.986 7.809 0.986 7.809 0.136 -80.312
5191.417 0.134 -80.388 0.987 7.707 0.987 7.707 0.134 -80.388
5216.375 0.132 -80.463 0.987 7.607 0.987 7.607 0.132 -80.463
5241.333 0.131 -80.537 0.987 7.507 0.987 7.507 0.131 -80.537
5266.292 0.129 -80.61 0.987 7.407 0.987 7.407 0.129 -80.61
5291.25 0.127 -80.682 0.987 7.308 0.987 7.308 0.127 -80.682
5316.208 0.126 -80.753 0.988 7.21 0.988 7.21 0.126 -80.753
5341.167 0.124 -80.822 0.988 7.112 0.988 7.112 0.124 -80.822
5366.125 0.122 -80.891 0.988 7.015 0.988 7.015 0.122 -80.891
5391.083 0.121 -80.958 0.988 6.918 0.988 6.918 0.121 -80.958
5416.042 0.119 -81.024 0.988 6.822 0.988 6.822 0.119 -81.024
5441 0.117 -81.088 0.989 6.727 0.989 6.727 0.117 -81.088
5465.958 0.116 -81.152 0.989 6.632 0.989 6.632 0.116 -81.152
5490.917 0.114 -81.214 0.989 6.537 0.989 6.537 0.114 -81.214
5515.875 0.112 -81.275 0.989 6.444 0.989 6.444 0.112 -81.275
5540.833 0.111 -81.334 0.989 6.35 0.989 6.35 0.111 -81.334
5565.792 0.109 -81.393 0.99 6.257 0.99 6.257 0.109 -81.393
5590.75 0.107 -81.449 0.99 6.165 0.99 6.165 0.107 -81.449
5615.708 0.106 -81.505 0.99 6.073 0.99 6.073 0.106 -81.505
5640.667 0.104 -81.559 0.99 5.982 0.99 5.982 0.104 -81.559
5665.625 0.103 -81.612 0.99 5.891 0.99 5.891 0.103 -81.612
5690.583 0.101 -81.663 0.99 5.8 0.99 5.8 0.101 -81.663
5715.542 0.1 -81.713 0.991 5.711 0.991 5.711 0.1 -81.713
5740.5 0.098 -81.761 0.991 5.621 0.991 5.621 0.098 -81.761
5765.458 0.097 -81.808 0.991 5.532 0.991 5.532 0.097 -81.808
5790.417 0.095 -81.853 0.991 5.444 0.991 5.444 0.095 -81.853
5815.375 0.093 -81.896 0.991 5.356 0.991 5.356 0.093 -81.896
5840.333 0.092 -81.938 0.991 5.268 0.991 5.268 0.092 -81.938
5865.292 0.09 -81.978 0.991 5.181 0.991 5.181 0.09 -81.978
5890.25 0.089 -82.016 0.992 5.094 0.992 5.094 0.089 -82.016
5915.208 0.087 -82.052 0.992 5.008 0.992 5.008 0.087 -82.052
5940.167 0.086 -82.087 0.992 4.922 0.992 4.922 0.086 -82.087
5965.125 0.084 -82.119 0.992 4.836 0.992 4.836 0.084 -82.119
5990.083 0.083 -82.15 0.992 4.751 0.992 4.751 0.083 -82.15
6015.042 0.081 -82.178 0.992 4.667 0.992 4.667 0.081 -82.178
6040 0.08 -82.204 0.992 4.583 0.992 4.583 0.08 -82.204
6064.958 0.079 -82.228 0.992 4.499 0.992 4.499 0.079 -82.228
6089.917 0.077 -82.249 0.993 4.415 0.993 4.415 0.077 -82.249
6114.875 0.076 -82.268 0.993 4.332 0.993 4.332 0.076 -82.268
6139.833 0.074 -82.285 0.993 4.25 0.993 4.25 0.074 -82.285
6164.792 0.073 -82.298 0.993 4.168 0.993 4.168 0.073 -82.298
6189.75 0.071 -82.309 0.993 4.086 0.993 4.086 0.071 -82.309
6214.708 0.07 -82.318 0.993 4.004 0.993 4.004 0.07 -82.318
6239.667 0.069 -82.323 0.993 3.923 0.993 3.923 0.069 -82.323
6264.625 0.067 -82.324 0.993 3.843 0.993 3.843 0.067 -82.324
6289.583 0.066 -82.323 0.993 3.762 0.993 3.762 0.066 -82.323
6314.542 0.064 -82.318 0.993 3.682 0.993 3.682 0.064 -82.318
6339.5 0.063 -82.309 0.994 3.603 0.994 3.603 0.063 -82.309
6364.458 0.062 -82.297 0.994 3.523 0.994 3.523 0.062 -82.297
6389.417 0.06 -82.28 0.994 3.444 0.994 3.444 0.06 -82.28
6414.375 0.059 -82.259 0.994 3.366 0.994 3.366 0.059 -82.259
6439.333 0.058 -82.233 0.994 3.288 0.994 3.288 0.058 -82.233
6464.292 0.056 -82.202 0.994 3.21 0.994 3.21 0.056 -82.202
6489.25 0.055 -82.167 0.994 3.132 0.994 3.132 0.055 -82.167
6514.208 0.053 -82.125 0.994 3.055 0.994 3.055 0.053 -82.125
6539.167 0.052 -82.078 0.994 2.978 0.994 2.978 0.052 -82.078
6564.125 0.051 -82.025 0.994 2.902 0.994 2.902 0.051 -82.025
6589.083 0.049 -81.965 0.994 2.825 0.994 2.825 0.049 -81.965
6614.042 0.048 -81.897 0.994 2.749 0.994 2.749 0.048 -81.897
6639 0.047 -81.822 0.994 2.674 0.994 2.674 0.047 -81.822
6663.958 0.046 -81.739 0.994 2.599 0.994 2.599 0.046 -81.739
6688.917 0.044 -81.647 0.995 2.524 0.995 2.524 0.044 -81.647
6713.875 0.043 -81.544 0.995 2.449 0.995 2.449 0.043 -81.544
6738.833 0.042 -81.432 0.995 2.374 0.995 2.374 0.042 -81.432
6763.792 0.04 -81.308 0.995 2.3 0.995 2.3 0.04 -81.308
6788.75 0.039 -81.172 0.995 2.227 0.995 2.227 0.039 -81.172
6813.708 0.038 -81.022 0.995 2.153 0.995 2.153 0.038 -81.022
6838.667 0.037 -80.857 0.995 2.08 0.995 2.08 0.037 -80.857
6863.625 0.035 -80.676 0.995 2.007 0.995 2.007 0.035 -80.676
6888.583 0.034 -80.476 0.995 1.934 0.995 1.934 0.034 -80.476
6913.542 0.033 -80.257 0.995 1.862 0.995 1.862 0.033 -80.257
6938.5 0.032 -80.016 0.995 1.79 0.995 1.79 0.032 -80.016
6963.458 0.03 -79.75 0.995 1.718 0.995 1.718 0.03 -79.75
6988.417 0.029 -79.457 0.995 1.647 0.995 1.647 0.029 -79.457
7013.375 0.028 -79.133 0.995 1.575 0.995 1.575 0.028 -79.133
7038.333 0.027 -78.773 0.995 1.504 0.995 1.504 0.027 -78.773
7063.292 0.025 -78.374 0.995 1.434 0.995 1.434 0.025 -78.374
7088.25 0.024 -77.929 0.995 1.363 0.995 1.363 0.024 -77.929
7113.208 0.023 -77.433 0.995 1.293 0.995 1.293 0.023 -77.433
7138.167 0.022 -76.876 0.995 1.223 0.995 1.223 0.022 -76.876
7163.125 0.021 -76.249 0.995 1.154 0.995 1.154 0.021 -76.249
7188.083 0.019 -75.54 0.995 1.084 0.995 1.084 0.019 -75.54
7213.042 0.018 -74.733 0.995 1.015 0.995 1.015 0.018 -74.733
7238 0.017 -73.81 0.995 0.946 0.995 0.946 0.017 -73.81
7262.958 0.016 -72.747 0.995 0.877 0.995 0.877 0.016 -72.747
7287.917 0.015 -71.513 0.995 0.809 0.995 0.809 0.015 -71.513
7312.875 0.014 -70.069 0.995 0.741 0.995 0.741 0.014 -70.069
7337.833 0.013 -68.36 0.995 0.673 0.995 0.673 0.013 -68.36
7362.792 0.011 -66.316 0.995 0.605 0.995 0.605 0.011 -66.316
7387.75 0.01 -63.84 0.995 0.538 0.995 0.538 0.01 -63.84
7412.708 9.361e-3 -60.8 0.995 0.47 0.995 0.47 9.361e-3 -60.8
7437.667 8.355e-3 -57.008 0.995 0.403 0.995 0.403 8.355e-3 -57.008
7462.625 7.399e-3 -52.207 0.995 0.337 0.995 0.337 7.399e-3 -52.207
7487.583 6.515e-3 -46.047 0.995 0.27 0.995 0.27 6.515e-3 -46.047
7512.542 5.734e-3 -38.097 0.995 0.204 0.995 0.204 5.734e-3 -38.097
7537.5 5.1e-3 -27.934 0.995 0.138 0.995 0.138 5.1e-3 -27.934
7562.458 4.67e-3 -15.45 0.995 0.072 0.995 0.072 4.67e-3 -15.45
7587.417 4.501e-3 -1.31 0.995 5.925e-3 0.995 5.925e-3 4.501e-3 -1.31
7612.375 4.618e-3 12.944 0.995 -0.06 0.995 -0.06 4.618e-3 12.944
7637.333 4.999e-3 25.703 0.995 -0.125 0.995 -0.125 4.999e-3 25.703
7662.292 5.588e-3 36.174 0.995 -0.19 0.995 -0.19 5.588e-3 36.174
7687.25 6.325e-3 44.392 0.995 -0.255 0.995 -0.255 6.325e-3 44.392
7712.208 7.163e-3 50.759 0.995 -0.319 0.995 -0.319 7.163e-3 50.759
7737.167 8.068e-3 55.717 0.995 -0.384 0.995 -0.384 8.068e-3 55.717
7762.125 9.02e-3 59.627 0.995 -0.448 0.995 -0.448 9.02e-3 59.627
7787.083 0.01 62.757 0.995 -0.512 0.995 -0.512 0.01 62.757
7812.042 0.011 65.301 0.995 -0.576 0.995 -0.576 0.011 65.301
7837 0.012 67.398 0.995 -0.639 0.995 -0.639 0.012 67.398
7861.958 0.013 69.151 0.995 -0.703 0.995 -0.703 0.013 69.151
7886.917 0.014 70.631 0.995 -0.766 0.995 -0.766 0.014 70.631
7911.875 0.015 71.896 0.995 -0.829 0.995 -0.829 0.015 71.896
7936.833 0.016 72.985 0.995 -0.892 0.995 -0.892 0.016 72.985
7961.792 0.017 73.93 0.995 -0.954 0.995 -0.954 0.017 73.93
7986.75 0.018 74.757 0.995 -1.017 0.995 -1.017 0.018 74.757
8011.708 0.019 75.485 0.995 -1.079 0.995 -1.079 0.019 75.485
8036.667 0.02 76.13 0.995 -1.141 0.995 -1.141 0.02 76.13
8061.625 0.021 76.703 0.995 -1.203 0.995 -1.203 0.021 76.703
8086.583 0.023 77.216 0.995 -1.265 0.995 -1.265 0.023 77.216
8111.542 0.024 77.675 0.995 -1.326 0.995 -1.326 0.024 77.675
8136.5 0.025 78.089 0.995 -1.388 0.995 -1.388 0.025 78.089
8161.458 0.026 78.463 0.995 -1.449 0.995 -1.449 0.026 78.463
8186.417 0.027 78.802 0.995 -1.51 0.995 -1.51 0.027 78.802
8211.375 0.028 79.11 0.995 -1.571 0.995 -1.571 0.028 79.11
8236.333 0.029 79.39 0.995 -1.631 0.995 -1.631 0.029 79.39
8261.292 0.03 79.646 0.995 -1.692 0.995 -1.692 0.03 79.646
8286.25 0.031 79.879 0.995 -1.752 0.995 -1.752 0.031 79.879
8311.208 0.032 80.093 0.995 -1.812 0.995 -1.812 0.032 80.093
8336.167 0.033 80.29 0.995 -1.872 0.995 -1.872 0.033 80.29
8361.125 0.034 80.47 0.995 -1.932 0.995 -1.932 0.034 80.47
8386.083 0.035 80.635 0.995 -1.992 0.995 -1.992 0.035 80.635
8411.042 0.036 80.787 0.995 -2.051 0.995 -2.051 0.036 80.787
8436 0.037 80.927 0.995 -2.11 0.995 -2.11 0.037 80.927
8460.958 0.038 81.056 0.995 -2.17 0.995 -2.17 0.038 81.056
8485.917 0.039 81.175 0.995 -2.229 0.995 -2.229 0.039 81.175
8510.875 0.04 81.285 0.995 -2.287 0.995 -2.287 0.04 81.285
8535.833 0.041 81.386 0.995 -2.346 0.995 -2.346 0.041 81.386
8560.792 0.042 81.479 0.995 -2.405 0.995 -2.405 0.042 81.479
8585.75 0.043 81.565 0.995 -2.463 0.995 -2.463 0.043 81.565
8610.708 0.044 81.643 0.995 -2.521 0.995 -2.521 0.044 81.643
8635.667 0.045 81.716 0.994 -2.579 0.994 -2.579 0.045 81.716
8660.625 0.046 81.783 0.994 -2.637 0.994 -2.637 0.046 81.783
8685.583 0.047 81.844 0.994 -2.695 0.994 -2.695 0.047 81.844
8710.542 0.048 81.9 0.994 -2.752 0.994 -2.752 0.048 81.9
8735.5 0.049 81.952 0.994 -2.81 0.994 -2.81 0.049 81.952
8760.458 0.05 81.999 0.994 -2.867 0.994 -2.867 0.05 81.999
8785.417 0.051 82.041 0.994 -2.924 0.994 -2.924 0.051 82.041
8810.375 0.052 82.08 0.994 -2.981 0.994 -2.981 0.052 82.08
8835.333 0.053 82.116 0.994 -3.038 0.994 -3.038 0.053 82.116
8860.292 0.054 82.148 0.994 -3.095 0.994 -3.095 0.054 82.148
8885.25 0.055 82.176 0.994 -3.152 0.994 -3.152 0.055 82.176
8910.208 0.056 82.202 0.994 -3.208 0.994 -3.208 0.056 82.202
8935.167 0.057 82.224 0.994 -3.264 0.994 -3.264 0.057 82.224
8960.125 0.058 82.244 0.994 -3.321 0.994 -3.321 0.058 82.244
8985.083 0.059 82.262 0.994 -3.377 0.994 -3.377 0.059 82.262
9010.042 0.06 82.277 0.994 -3.433 0.994 -3.433 0.06 82.277
9035 0.061 82.29 0.994 -3.488 0.994 -3.488 0.061 82.29
9059.958 0.062 82.3 0.994 -3.544 0.994 -3.544 0.062 82.3
9084.917 0.063 82.309 0.994 -3.599 0.994 -3.599 0.063 82.309
9109.875 0.064 82.315 0.993 -3.655 0.993 -3.655 0.064 82.315
9134.833 0.065 82.32 0.993 -3.71 0.993 -3.71 0.065 82.32
9159.792 0.066 82.323 0.993 -3.765 0.993 -3.765 0.066 82.323
9184.75 0.067 82.324 0.993 -3.82 0.993 -3.82 0.067 82.324
9209.708 0.068 82.324 0.993 -3.875 0.993 -3.875 0.068 82.324
9234.667 0.069 82.322 0.993 -3.93 0.993 -3.93 0.069 82.322
9259.625 0.07 82.319 0.993 -3.984 0.993 -3.984 0.07 82.319
9284.583 0.071 82.315 0.993 -4.039 0.993 -4.039 0.071 82.315
9309.542 0.072 82.309 0.993 -4.093 0.993 -4.093 0.072 82.309
9334.5 0.072 82.301 0.993 -4.147 0.993 -4.147 0.072 82.301
9359.458 0.073 82.293 0.993 -4.201 0.993 -4.201 0.073 82.293
9384.417 0.074 82.284 0.993 -4.255 0.993 -4.255 0.074 82.284
9409.375 0.075 82.273 0.993 -4.309 0.993 -4.309 0.075 82.273
9434.333 0.076 82.262 0.993 -4.363 0.993 -4.363 0.076 82.262
9459.292 0.077 82.249 0.993 -4.417 0.993 -4.417 0.077 82.249
9484.25 0.078 82.235 0.992 -4.47 0.992 -4.47 0.078 82.235
9509.208 0.079 82.221 0.992 -4.523 0.992 -4.523 0.079 82.221
9534.167 0.08 82.206 0.992 -4.577 0.992 -4.577 0.08 82.206
9559.125 0.081 82.19 0.992 -4.63 0.992 -4.63 0.081 82.19
9584.083 0.082 82.173 0.992 -4.683 0.992 -4.683 0.082 82.173
9609.042 0.083 82.155 0.992 -4.736 0.992 -4.736 0.083 82.155
9634 0.084 82.137 0.992 -4.789 0.992 -4.789 0.084 82.137
9658.958 0.085 82.117 0.992 -4.841 0.992 -4.841 0.085 82.117
9683.917 0.085 82.098 0.992 -4.894 0.992 -4.894 0.085 82.098
9708.875 0.086 82.077 0.992 -4.946 0.992 -4.946 0.086 82.077
9733.833 0.087 82.056 0.992 -4.999 0.992 -4.999 0.087 82.056
9758.792 0.088 82.034 0.992 -5.051 0.992 -5.051 0.088 82.034
9783.75 0.089 82.012 0.992 -5.103 0.992 -5.103 0.089 82.012
9808.708 0.09 81.989 0.991 -5.155 0.991 -5.155 0.09 81.989
9833.667 0.091 81.966 0.991 -5.207 0.991 -5.207 0.091 81.966
9858.625 0.092 81.942 0.991 -5.259 0.991 -5.259 0.092 81.942
9883.583 0.093 81.918 0.991 -5.311 0.991 -5.311 0.093 81.918
9908.542 0.094 81.893 0.991 -5.362 0.991 -5.362 0.094 81.893
9933.5 0.094 81.868 0.991 -5.414 0.991 -5.414 0.094 81.868
9958.458 0.095 81.842 0.991 -5.465 0.991 -5.465 0.095 81.842
9983.417 0.096 81.816 0.991 -5.516 0.991 -5.516 0.096 81.816
10008.375 0.097 81.789 0.991 -5.568 0.991 -5.568 0.097 81.789
10033.333 0.098 81.762 0.991 -5.619 0.991 -5.619 0.098 81.762
10058.292 0.099 81.735 0.991 -5.67 0.991 -5.67 0.099 81.735
10083.25 0.1 81.707 0.991 -5.721 0.991 -5.721 0.1 81.707
10108.208 0.101 81.679 0.99 -5.771 0.99 -5.771 0.101 81.679
10133.167 0.102 81.651 0.99 -5.822 0.99 -5.822 0.102 81.651
10158.125 0.102 81.622 0.99 -5.873 0.99 -5.873 0.102 81.622
10183.083 0.103 81.593 0.99 -5.923 0.99 -5.923 0.103 81.593
10208.042 0.104 81.564 0.99 -5.974 0.99 -5.974 0.104 81.564
10233 0.105 81.534 0.99 -6.024 0.99 -6.024 0.105 81.534
10257.958 0.106 81.504 0.99 -6.074 0.99 -6.074 0.106 81.504
10282.917 0.107 81.474 0.99 -6.124 0.99 -6.124 0.107 81.474
10307.875 0.108 81.444 0.99 -6.174 0.99 -6.174 0.108 81.444
10332.833 0.109 81.413 0.99 -6.224 0.99 -6.224 0.109 81.413
10357.792 0.109 81.382 0.99 -6.274 0.99 -6.274 0.109 81.382
10382.75 0.11 81.351 0.989 -6.324 0.989 -6.324 0.11 81.351
10407.708 0.111 81.32 0.989 -6.373 0.989 -6.373 0.111 81.32
10432.667 0.112 81.288 0.989 -6.423 0.989 -6.423 0.112 81.288
10457.625 0.113 81.256 0.989 -6.472 0.989 -6.472 0.113 81.256
10482.583 0.114 81.224 0.989 -6.522 0.989 -6.522 0.114 81.224
10507.542 0.115 81.192 0.989 -6.571 0.989 -6.571 0.115 81.192
10532.5 0.115 81.159 0.989 -6.62 0.989 -6.62 0.115 81.159
10557.458 0.116 81.127 0.989 -6.669 0.989 -6.669 0.116 81.127
10582.417 0.117 81.094 0.989 -6.718 0.989 -6.718 0.117 81.094
10607.375 0.118 81.061 0.989 -6.767 0.989 -6.767 0.118 81.061
10632.333 0.119 81.028 0.988 -6.816 0.988 -6.816 0.119 81.028
10657.292 0.12 80.995 0.988 -6.865 0.988 -6.865 0.12 80.995
10682.25 0.12 80.961 0.988 -6.913 0.988 -6.913 0.12 80.961
10707.208 0.121 80.928 0.988 -6.962 0.988 -6.962 0.121 80.928
10732.167 0.122 80.894 0.988 -7.01 0.988 -7.01 0.122 80.894
10757.125 0.123 80.86 0.988 -7.059 0.988 -7.059 0.123 80.86
10782.083 0.124 80.826 0.988 -7.107 0.988 -7.107 0.124 80.826
10807.042 0.125 80.792 0.988 -7.155 0.988 -7.155 0.125 80.792
10832 0.125 80.757 0.988 -7.203 0.988 -7.203 0.125 80.757
10856.958 0.126 80.723 0.988 -7.251 0.988 -7.251 0.126 80.723
10881.917 0.127 80.689 0.987 -7.299 0.987 -7.299 0.127 80.689
10906.875 0.128 80.654 0.987 -7.347 0.987 -7.347 0.128 80.654
10931.833 0.129 80.619 0.987 -7.395 0.987 -7.395 0.129 80.619
10956.792 0.13 80.584 0.987 -7.443 0.987 -7.443 0.13 80.584
10981.75 0.13 80.549 0.987 -7.491 0.987 -7.491 0.13 80.549
11006.708 0.131 80.514 0.987 -7.538 0.987 -7.538 0.131 80.514
11031.667 0.132 80.479 0.987 -7.586 0.987 -7.586 0.132 80.479
11056.625 0.133 80.444 0.987 -7.633 0.987 -7.633 0.133 80.444
11081.583 0.134 80.408 0.987 -7.68 0.987 -7.68 0.134 80.408
11106.542 0.135 80.373 0.986 -7.728 0.986 -7.728 0.135 80.373
11131.5 0.135 80.338 0.986 -7.775 0.986 -7.775 0.135 80.338
11156.458 0.136 80.302 0.986 -7.822 0.986 -7.822 0.136 80.302
11181.417 0.137 80.266 0.986 -7.869 0.986 -7.869 0.137 80.266
11206.375 0.138 80.23 0.986 -7.916 0.986 -7.916 0.138 80.23
11231.333 0.139 80.195 0.986 -7.963 0.986 -7.963 0.139 80.195
11256.292 0.139 80.159 0.986 -8.009 0.986 -8.009 0.139 80.159
11281.25 0.14 80.123 0.986 -8.056 0.986 -8.056 0.14 80.123
11306.208 0.141 80.087 0.986 -8.103 0.986 -8.103 0.141 80.087
11331.167 0.142 80.051 0.985 -8.149 0.985 -8.149 0.142 80.051
11356.125 0.143 80.015 0.985 -8.196 0.985 -8.196 0.143 80.015
11381.083 0.143 79.978 0.985 -8.242 0.985 -8.242 0.143 79.978
11406.042 0.144 79.942 0.985 -8.289 0.985 -8.289 0.144 79.942
11431 0.145 79.906 0.985 -8.335 0.985 -8.335 0.145 79.906
11455.958 0.146 79.869 0.985 -8.381 0.985 -8.381 0.146 79.869
11480.917 0.147 79.833 0.985 -8.427 0.985 -8.427 0.147 79.833
11505.875 0.147 79.797 0.985 -8.473 0.985 -8.473 0.147 79.797
11530.833 0.148 79.76 0.985 -8.519 0.985 -8.519 0.148 79.76
11555.792 0.149 79.723 0.984 -8.565 0.984 -8.565 0.149 79.723
11580.75 0.15 79.687 0.984 -8.611 0.984 -8.611 0.15 79.687
11605.708 0.151 79.65 0.984 -8.657 0.984 -8.657 0.151 79.65
11630.667 0.151 79.614 0.984 -8.702 0.984 -8.702 0.151 79.614
11655.625 0.152 79.577 0.984 -8.748 0.984 -8.748 0.152 79.577
11680.583 0.153 79.54 0.984 -8.794 0.984 -8.794 0.153 79.54
11705.542 0.154 79.503 0.984 -8.839 0.984 -8.839 0.154 79.503
11730.5 0.155 79.466 0.984 -8.885 0.984 -8.885 0.155 79.466
11755.458 0.155 79.43 0.983 -8.93 0.983 -8.93 0.155 79.43
11780.417 0.156 79.393 0.983 -8.975 0.983 -8.975 0.156 79.393
11805.375 0.157 79.356 0.983 -9.02 0.983 -9.02 0.157 79.356
11830.333 0.158 79.319 0.983 -9.066 0.983 -9.066 0.158 79.319
11855.292 0.158 79.282 0.983 -9.111 0.983 -9.111 0.158 79.282
11880.25 0.159 79.245 0.983 -9.156 0.983 -9.156 0.159 79.245
11905.208 0.16 79.208 0.983 -9.201 0.983 -9.201 0.16 79.208
11930.167 0.161 79.171 0.983 -9.246 0.983 -9.246 0.161 79.171
11955.125 0.161 79.134 0.982 -9.29 0.982 -9.29 0.161 79.134
11980.083 0.162 79.097 0.982 -9.335 0.982 -9.335 0.162 79.097
12005.042 0.163 79.06 0.982 -9.38 0.982 -9.38 0.163 79.06
12030 0.164 79.023 0.982 -9.424 0.982 -9.424 0.164 79.023
12054.958 0.165 78.985 0.982 -9.469 0.982 -9.469 0.165 78.985
12079.917 0.165 78.948 0.982 -9.514 0.982 -9.514 0.165 78.948
12104.875 0.166 78.911 0.982 -9.558 0.982 -9.558 0.166 78.911
12129.833 0.167 78.874 0.982 -9.602 0.982 -9.602 0.167 78.874
12154.792 0.168 78.837 0.981 -9.647 0.981 -9.647 0.168 78.837
12179.75 0.168 78.8 0.981 -9.691 0.981 -9.691 0.168 78.8
12204.708 0.169 78.762 0.981 -9.735 0.981 -9.735 0.169 78.762
12229.667 0.17 78.725 0.981 -9.779 0.981 -9.779 0.17 78.725
12254.625 0.171 78.688 0.981 -9.823 0.981 -9.823 0.171 78.688
12279.583 0.171 78.651 0.981 -9.867 0.981 -9.867 0.171 78.651
12304.542 0.172 78.614 0.981 -9.911 0.981 -9.911 0.172 78.614
12329.5 0.173 78.576 0.981 -9.955 0.981 -9.955 0.173 78.576
12354.458 0.174 78.539 0.98 -9.999 0.98 -9.999 0.174 78.539
12379.417 0.174 78.502 0.98 -10.043 0.98 -10.043 0.174 78.502
12404.375 0.175 78.465 0.98 -10.086 0.98 -10.086 0.175 78.465
12429.333 0.176 78.427 0.98 -10.13 0.98 -10.13 0.176 78.427
12454.292 0.177 78.39 0.98 -10.174 0.98 -10.174 0.177 78.39
12479.25 0.177 78.353 0.98 -10.217 0.98 -10.217 0.177 78.353
12504.208 0.178 78.315 0.98 -10.261 0.98 -10.261 0.178 78.315
12529.167 0.179 78.278 0.979 -10.304 0.979 -10.304 0.179 78.278
12554.125 0.18 78.241 0.979 -10.347 0.979 -10.347 0.18 78.241
12579.083 0.18 78.204 0.979 -10.391 0.979 -10.391 0.18 78.204
12604.042 0.181 78.166 0.979 -10.434 0.979 -10.434 0.181 78.166
12629 0.182 78.129 0.979 -10.477 0.979 -10.477 0.182 78.129
12653.958 0.183 78.092 0.979 -10.52 0.979 -10.52 0.183 78.092
12678.917 0.183 78.055 0.979 -10.563 0.979 -10.563 0.183 78.055
12703.875 0.184 78.017 0.978 -10.606 0.978 -10.606 0.184 78.017
12728.833 0.185 77.98 0.978 -10.649 0.978 -10.649 0.185 77.98
12753.792 0.186 77.943 0.978 -10.692 0.978 -10.692 0.186 77.943
12778.75 0.186 77.905 0.978 -10.735 0.978 -10.735 0.186 77.905
12803.708 0.187 77.868 0.978 -10.778 0.978 -10.778 0.187 77.868
12828.667 0.188 77.831 0.978 -10.82 0.978 -10.82 0.188 77.831
12853.625 0.189 77.794 0.978 -10.863 0.978 -10.863 0.189 77.794
12878.583 0.189 77.757 0.978 -10.906 0.978 -10.906 0.189 77.757
12903.542 0.19 77.719 0.977 -10.948 0.977 -10.948 0.19 77.719
12928.5 0.191 77.682 0.977 -10.991 0.977 -10.991 0.191 77.682
12953.458 0.191 77.645 0.977 -11.033 0.977 -11.033 0.191 77.645
12978.417 0.192 77.608 0.977 -11.075 0.977 -11.075 0.192 77.608
13003.375 0.193 77.57 0.977 -11.118 0.977 -11.118 0.193 77.57
13028.333 0.194 77.533 0.977 -11.16 0.977 -11.16 0.194 77.533
13053.292 0.194 77.496 0.977 -11.202 0.977 -11.202 0.194 77.496
13078.25 0.195 77.459 0.976 -11.244 0.976 -11.244 0.195 77.459
13103.208 0.196 77.422 0.976 -11.287 0.976 -11.287 0.196 77.422
13128.167 0.196 77.385 0.976 -11.329 0.976 -11.329 0.196 77.385
13153.125 0.197 77.347 0.976 -11.371 0.976 -11.371 0.197 77.347
13178.083 0.198 77.31 0.976 -11.413 0.976 -11.413 0.198 77.31
13203.042 0.199 77.273 0.976 -11.455 0.976 -11.455 0.199 77.273
13228 0.199 77.236 0.976 -11.496 0.976 -11.496 0.199 77.236
13252.958 0.2 77.199 0.975 -11.538 0.975 -11.538 0.2 77.199
13277.917 0.201 77.162 0.975 -11.58 0.975 -11.58 0.201 77.162
13302.875 0.201 77.125 0.975 -11.622 0.975 -11.622 0.201 77.125
13327.833 0.202 77.088 0.975 -11.663 0.975 -11.663 0.202 77.088
13352.792 0.203 77.051 0.975 -11.705 0.975 -11.705 0.203 77.051
13377.75 0.204 77.014 0.975 -11.746 0.975 -11.746 0.204 77.014
13402.708 0.204 76.977 0.975 -11.788 0.975 -11.788 0.204 76.977
13427.667 0.205 76.94 0.974 -11.829 0.974 -11.829 0.205 76.94
13452.625 0.206 76.903 0.974 -11.871 0.974 -11.871 0.206 76.903
13477.583 0.206 76.866 0.974 -11.912 0.974 -11.912 0.206 76.866
13502.542 0.207 76.829 0.974 -11.954 0.974 -11.954 0.207 76.829
13527.5 0.208 76.792 0.974 -11.995 0.974 -11.995 0.208 76.792
13552.458 0.209 76.755 0.974 -12.036 0.974 -12.036 0.209 76.755
13577.417 0.209 76.718 0.973 -12.077 0.973 -12.077 0.209 76.718
13602.375 0.21 76.681 0.973 -12.118 0.973 -12.118 0.21 76.681
13627.333 0.211 76.644 0.973 -12.159 0.973 -12.159 0.211 76.644
13652.292 0.211 76.607 0.973 -12.2 0.973 -12.2 0.211 76.607
13677.25 0.212 76.57 0.973 -12.241 0.973 -12.241 0.212 76.57
13702.208 0.213 76.534 0.973 -12.282 0.973 -12.282 0.213 76.534
13727.167 0.213 76.497 0.973 -12.323 0.973 -12.323 0.213 76.497
13752.125 0.214 76.46 0.972 -12.364 0.972 -12.364 0.214 76.46
13777.083 0.215 76.423 0.972 -12.405 0.972 -12.405 0.215 76.423
13802.042 0.216 76.386 0.972 -12.445 0.972 -12.445 0.216 76.386
13827 0.216 76.35 0.972 -12.486 0.972 -12.486 0.216 76.35
13851.958 0.217 76.313 0.972 -12.527 0.972 -12.527 0.217 76.313
13876.917 0.218 76.276 0.972 -12.567 0.972 -12.567 0.218 76.276
13901.875 0.218 76.24 0.971 -12.608 0.971 -12.608 0.218 76.24
13926.833 0.219 76.203 0.971 -12.648 0.971 -12.648 0.219 76.203
13951.792 0.22 76.166 0.971 -12.689 0.971 -12.689 0.22 76.166
13976.75 0.22 76.13 0.971 -12.729 0.971 -12.729 0.22 76.13
14001.708 0.221 76.093 0.971 -12.77 0.971 -12.77 0.221 76.093
14026.667 0.222 76.056 0.971 -12.81 0.971 -12.81 0.222 76.056
14051.625 0.222 76.02 0.971 -12.85 0.971 -12.85 0.222 76.02
14076.583 0.223 75.983 0.97 -12.89 0.97 -12.89 0.223 75.983
14101.542 0.224 75.947 0.97 -12.931 0.97 -12.931 0.224 75.947
14126.5 0.224 75.91 0.97 -12.971 0.97 -12.971 0.224 75.91
14151.458 0.225 75.874 0.97 -13.011 0.97 -13.011 0.225 75.874
14176.417 0.226 75.837 0.97 -13.051 0.97 -13.051 0.226 75.837
14201.375 0.227 75.801 0.97 -13.091 0.97 -13.091 0.227 75.801
14226.333 0.227 75.764 0.969 -13.131 0.969 -13.131 0.227 75.764
14251.292 0.228 75.728 0.969 -13.171 0.969 -13.171 0.228 75.728
14276.25 0.229 75.691 0.969 -13.211 0.969 -13.211 0.229 75.691
14301.208 0.229 75.655 0.969 -13.25 0.969 -13.25 0.229 75.655
14326.167 0.23 75.618 0.969 -13.29 0.969 -13.29 0.23 75.618
14351.125 0.231 75.582 0.969 -13.33 0.969 -13.33 0.231 75.582
14376.083 0.231 75.546 0.969 -13.37 0.969 -13.37 0.231 75.546
14401.042 0.232 75.509 0.968 -13.409 0.968 -13.409 0.232 75.509
14426 0.233 75.473 0.968 -13.449 0.968 -13.449 0.233 75.473
14450.958 0.233 75.437 0.968 -13.488 0.968 -13.488 0.233 75.437
14475.917 0.234 75.401 0.968 -13.528 0.968 -13.528 0.234 75.401
14500.875 0.235 75.364 0.968 -13.567 0.968 -13.567 0.235 75.364
14525.833 0.235 75.328 0.968 -13.607 0.968 -13.607 0.235 75.328
14550.792 0.236 75.292 0.967 -13.646 0.967 -13.646 0.236 75.292
14575.75 0.237 75.256 0.967 -13.686 0.967 -13.686 0.237 75.256
14600.708 0.237 75.22 0.967 -13.725 0.967 -13.725 0.237 75.22
14625.667 0.238 75.183 0.967 -13.764 0.967 -13.764 0.238 75.183
14650.625 0.239 75.147 0.967 -13.803 0.967 -13.803 0.239 75.147
14675.583 0.239 75.111 0.967 -13.843 0.967 -13.843 0.239 75.111
14700.542 0.24 75.075 0.966 -13.882 0.966 -13.882 0.24 75.075
14725.5 0.241 75.039 0.966 -13.921 0.966 -13.921 0.241 75.039
14750.458 0.241 75.003 0.966 -13.96 0.966 -13.96 0.241 75.003
14775.417 0.242 74.967 0.966 -13.999 0.966 -13.999 0.242 74.967
14800.375 0.243 74.931 0.966 -14.038 0.966 -14.038 0.243 74.931
14825.333 0.243 74.895 0.966 -14.077 0.966 -14.077 0.243 74.895
14850.292 0.244 74.859 0.965 -14.116 0.965 -14.116 0.244 74.859
14875.25 0.245 74.823 0.965 -14.155 0.965 -14.155 0.245 74.823
14900.208 0.245 74.787 0.965 -14.193 0.965 -14.193 0.245 74.787
14925.167 0.246 74.751 0.965 -14.232 0.965 -14.232 0.246 74.751
14950.125 0.247 74.715 0.965 -14.271 0.965 -14.271 0.247 74.715
14975.083 0.247 74.68 0.965 -14.31 0.965 -14.31 0.247 74.68
15000.042 0.248 74.644 0.964 -14.348 0.964 -14.348 0.248 74.644
15025 0.249 74.608 0.964 -14.387 0.964 -14.387 0.249 74.608
15049.958 0.249 74.572 0.964 -14.426 0.964 -14.426 0.249 74.572
15074.917 0.25 74.536 0.964 -14.464 0.964 -14.464 0.25 74.536
15099.875 0.25 74.501 0.964 -14.503 0.964 -14.503 0.25 74.501
15124.833 0.251 74.465 0.964 -14.541 0.964 -14.541 0.251 74.465
15149.792 0.252 74.429 0.963 -14.579 0.963 -14.579 0.252 74.429
15174.75 0.252 74.394 0.963 -14.618 0.963 -14.618 0.252 74.394
15199.708 0.253 74.358 0.963 -14.656 0.963 -14.656 0.253 74.358
15224.667 0.254 74.322 0.963 -14.694 0.963 -14.694 0.254 74.322
15249.625 0.254 74.287 0.963 -14.733 0.963 -14.733 0.254 74.287
15274.583 0.255 74.251 0.963 -14.771 0.963 -14.771 0.255 74.251
15299.542 0.256 74.216 0.962 -14.809 0.962 -14.809 0.256 74.216
15324.5 0.256 74.18 0.962 -14.847 0.962 -14.847 0.256 74.18
15349.458 0.257 74.145 0.962 -14.885 0.962 -14.885 0.257 74.145
15374.417 0.258 74.109 0.962 -14.924 0.962 -14.924 0.258 74.109
15399.375 0.258 74.074 0.962 -14.962 0.962 -14.962 0.258 74.074
15424.333 0.259 74.038 0.962 -15 0.962 -15 0.259 74.038
15449.292 0.259 74.003 0.961 -15.038 0.961 -15.038 0.259 74.003
15474.25 0.26 73.967 0.961 -15.075 0.961 -15.075 0.26 73.967
15499.208 0.261 73.932 0.961 -15.113 0.961 -15.113 0.261 73.932
15524.167 0.261 73.897 0.961 -15.151 0.961 -15.151 0.261 73.897
15549.125 0.262 73.861 0.961 -15.189 0.961 -15.189 0.262 73.861
15574.083 0.263 73.826 0.961 -15.227 0.961 -15.227 0.263 73.826
15599.042 0.263 73.791 0.96 -15.265 0.96 -15.265 0.263 73.791
15624 0.264 73.755 0.96 -15.302 0.96 -15.302 0.264 73.755
15648.958 0.265 73.72 0.96 -15.34 0.96 -15.34 0.265 73.72
15673.917 0.265 73.685 0.96 -15.378 0.96 -15.378 0.265 73.685
15698.875 0.266 73.65 0.96 -15.415 0.96 -15.415 0.266 73.65
15723.833 0.266 73.615 0.96 -15.453 0.96 -15.453 0.266 73.615
15748.792 0.267 73.579 0.959 -15.49 0.959 -15.49 0.267 73.579
15773.75 0.268 73.544 0.959 -15.528 0.959 -15.528 0.268 73.544
15798.708 0.268 73.509 0.959 -15.565 0.959 -15.565 0.268 73.509
15823.667 0.269 73.474 0.959 -15.603 0.959 -15.603 0.269 73.474
15848.625 0.27 73.439 0.959 -15.64 0.959 -15.64 0.27 73.439
15873.583 0.27 73.404 0.958 -15.677 0.958 -15.677 0.27 73.404
15898.542 0.271 73.369 0.958 -15.715 0.958 -15.715 0.271 73.369
15923.5 0.272 73.334 0.958 -15.752 0.958 -15.752 0.272 73.334
15948.458 0.272 73.299 0.958 -15.789 0.958 -15.789 0.272 73.299
15973.417 0.273 73.264 0.958 -15.826 0.958 -15.826 0.273 73.264
15998.375 0.273 73.229 0.958 -15.864 0.958 -15.864 0.273 73.229
16023.333 0.274 73.194 0.957 -15.901 0.957 -15.901 0.274 73.194
16048.292 0.275 73.159 0.957 -15.938 0.957 -15.938 0.275 73.159
16073.25 0.275 73.125 0.957 -15.975 0.957 -15.975 0.275 73.125
16098.208 0.276 73.09 0.957 -16.012 0.957 -16.012 0.276 73.09
16123.167 0.276 73.055 0.957 -16.049 0.957 -16.049 0.276 73.055
16148.125 0.277 73.02 0.957 -16.086 0.957 -16.086 0.277 73.02
16173.083 0.278 72.985 0.956 -16.123 0.956 -16.123 0.278 72.985
16198.042 0.278 72.951 0.956 -16.16 0.956 -16.16 0.278 72.951
16223 0.279 72.916 0.956 -16.197 0.956 -16.197 0.279 72.916
16247.958 0.28 72.881 0.956 -16.233 0.956 -16.233 0.28 72.881
16272.917 0.28 72.846 0.956 -16.27 0.956 -16.27 0.28 72.846
16297.875 0.281 72.812 0.955 -16.307 0.955 -16.307 0.281 72.812
16322.833 0.281 72.777 0.955 -16.344 0.955 -16.344 0.281 72.777
16347.792 0.282 72.743 0.955 -16.38 0.955 -16.38 0.282 72.743
16372.75 0.283 72.708 0.955 -16.417 0.955 -16.417 0.283 72.708
16397.708 0.283 72.673 0.955 -16.454 0.955 -16.454 0.283 72.673
16422.667 0.284 72.639 0.955 -16.49 0.955 -16.49 0.284 72.639
16447.625 0.284 72.604 0.954 -16.527 0.954 -16.527 0.284 72.604
16472.583 0.285 72.57 0.954 -16.563 0.954 -16.563 0.285 72.57
16497.542 0.286 72.535 0.954 -16.6 0.954 -16.6 0.286 72.535
16522.5 0.286 72.501 0.954 -16.636 0.954 -16.636 0.286 72.501
16547.458 0.287 72.466 0.954 -16.673 0.954 -16.673 0.287 72.466
16572.417 0.288 72.432 0.953 -16.709 0.953 -16.709 0.288 72.432
16597.375 0.288 72.398 0.953 -16.745 0.953 -16.745 0.288 72.398
16622.333 0.289 72.363 0.953 -16.782 0.953 -16.782 0.289 72.363
16647.292 0.289 72.329 0.953 -16.818 0.953 -16.818 0.289 72.329
16672.25 0.29 72.295 0.953 -16.854 0.953 -16.854 0.29 72.295
16697.208 0.291 72.26 0.953 -16.891 0.953 -16.891 0.291 72.26
16722.167 0.291 72.226 0.952 -16.927 0.952 -16.927 0.291 72.226
16747.125 0.292 72.192 0.952 -16.963 0.952 -16.963 0.292 72.192
16772.083 0.292 72.158 0.952 -16.999 0.952 -16.999 0.292 72.158
16797.042 0.293 72.123 0.952 -17.035 0.952 -17.035 0.293 72.123
16822 0.294 72.089 0.952 -17.071 0.952 -17.071 0.294 72.089
16846.958 0.294 72.055 0.951 -17.107 0.951 -17.107 0.294 72.055
16871.917 0.295 72.021 0.951 -17.143 0.951 -17.143 0.295 72.021
16896.875 0.295 71.987 0.951 -17.179 0.951 -17.179 0.295 71.987
16921.833 0.296 71.953 0.951 -17.215 0.951 -17.215 0.296 71.953
16946.792 0.297 71.919 0.951 -17.251 0.951 -17.251 0.297 71.919
16971.75 0.297 71.885 0.951 -17.287 0.951 -17.287 0.297 71.885
16996.708 0.298 71.851 0.95 -17.323 0.95 -17.323 0.298 71.851
17021.667 0.298 71.817 0.95 -17.359 0.95 -17.359 0.298 71.817
17046.625 0.299 71.783 0.95 -17.394 0.95 -17.394 0.299 71.783
17071.583 0.3 71.749 0.95 -17.43 0.95 -17.43 0.3 71.749
17096.542 0.3 71.715 0.95 -17.466 0.95 -17.466 0.3 71.715
17121.5 0.301 71.681 0.949 -17.501 0.949 -17.501 0.301 71.681
17146.458 0.301 71.647 0.949 -17.537 0.949 -17.537 0.301 71.647
17171.417 0.302 71.613 0.949 -17.573 0.949 -17.573 0.302 71.613
17196.375 0.303 71.579 0.949 -17.608 0.949 -17.608 0.303 71.579
17221.333 0.303 71.545 0.949 -17.644 0.949 -17.644 0.303 71.545
17246.292 0.304 71.512 0.948 -17.679 0.948 -17.679 0.304 71.512
17271.25 0.304 71.478 0.948 -17.715 0.948 -17.715 0.304 71.478
17296.208 0.305 71.444 0.948 -17.75 0.948 -17.75 0.305 71.444
17321.167 0.305 71.41 0.948 -17.786 0.948 -17.786 0.305 71.41
17346.125 0.306 71.377 0.948 -17.821 0.948 -17.821 0.306 71.377
17371.083 0.307 71.343 0.948 -17.857 0.948 -17.857 0.307 71.343
17396.042 0.307 71.309 0.947 -17.892 0.947 -17.892 0.307 71.309
17421 0.308 71.276 0.947 -17.927 0.947 -17.927 0.308 71.276
17445.958 0.308 71.242 0.947 -17.963 0.947 -17.963 0.308 71.242
17470.917 0.309 71.209 0.947 -17.998 0.947 -17.998 0.309 71.209
17495.875 0.31 71.175 0.947 -18.033 0.947 -18.033 0.31 71.175
17520.833 0.31 71.141 0.946 -18.068 0.946 -18.068 0.31 71.141
17545.792 0.311 71.108 0.946 -18.103 0.946 -18.103 0.311 71.108
17570.75 0.311 71.074 0.946 -18.139 0.946 -18.139 0.311 71.074
17595.708 0.312 71.041 0.946 -18.174 0.946 -18.174 0.312 71.041
17620.667 0.313 71.007 0.946 -18.209 0.946 -18.209 0.313 71.007
17645.625 0.313 70.974 0.945 -18.244 0.945 -18.244 0.313 70.974
17670.583 0.314 70.941 0.945 -18.279 0.945 -18.279 0.314 70.941
17695.542 0.314 70.907 0.945 -18.314 0.945 -18.314 0.314 70.907
17720.5 0.315 70.874 0.945 -18.349 0.945 -18.349 0.315 70.874
17745.458 0.315 70.84 0.945 -18.384 0.945 -18.384 0.315 70.84
17770.417 0.316 70.807 0.945 -18.419 0.945 -18.419 0.316 70.807
17795.375 0.317 70.774 0.944 -18.454 0.944 -18.454 0.317 70.774
17820.333 0.317 70.741 0.944 -18.488 0.944 -18.488 0.317 70.741
17845.292 0.318 70.707 0.944 -18.523 0.944 -18.523 0.318 70.707
17870.25 0.318 70.674 0.944 -18.558 0.944 -18.558 0.318 70.674
17895.208 0.319 70.641 0.944 -18.593 0.944 -18.593 0.319 70.641
17920.167 0.319 70.608 0.943 -18.627 0.943 -18.627 0.319 70.608
17945.125 0.32 70.574 0.943 -18.662 0.943 -18.662 0.32 70.574
17970.083 0.321 70.541 0.943 -18.697 0.943 -18.697 0.321 70.541
17995.042 0.321 70.508 0.943 -18.731 0.943 -18.731 0.321 70.508
18020 0.322 70.475 0.943 -18.766 0.943 -18.766 0.322 70.475
18044.958 0.322 70.442 0.942 -18.801 0.942 -18.801 0.322 70.442
18069.917 0.323 70.409 0.942 -18.835 0.942 -18.835 0.323 70.409
18094.875 0.323 70.376 0.942 -18.87 0.942 -18.87 0.323 70.376
18119.833 0.324 70.343 0.942 -18.904 0.942 -18.904 0.324 70.343
18144.792 0.325 70.31 0.942 -18.939 0.942 -18.939 0.325 70.31
18169.75 0.325 70.277 0.941 -18.973 0.941 -18.973 0.325 70.277
18194.708 0.326 70.244 0.941 -19.008 0.941 -19.008 0.326 70.244
18219.667 0.326 70.211 0.941 -19.042 0.941 -19.042 0.326 70.211
18244.625 0.327 70.178 0.941 -19.076 0.941 -19.076 0.327 70.178
18269.583 0.327 70.145 0.941 -19.111 0.941 -19.111 0.327 70.145
18294.542 0.328 70.112 0.94 -19.145 0.94 -19.145 0.328 70.112
18319.5 0.329 70.08 0.94 -19.179 0.94 -19.179 0.329 70.08
18344.458 0.329 70.047 0.94 -19.213 0.94 -19.213 0.329 70.047
18369.417 0.33 70.014 0.94 -19.248 0.94 -19.248 0.33 70.014
18394.375 0.33 69.981 0.94 -19.282 0.94 -19.282 0.33 69.981
18419.333 0.331 69.948 0.939 -19.316 0.939 -19.316 0.331 69.948
18444.292 0.331 69.916 0.939 -19.35 0.939 -19.35 0.331 69.916
18469.25 0.332 69.883 0.939 -19.384 0.939 -19.384 0.332 69.883
18494.208 0.332 69.85 0.939 -19.418 0.939 -19.418 0.332 69.85
18519.167 0.333 69.818 0.939 -19.452 0.939 -19.452 0.333 69.818
18544.125 0.334 69.785 0.938 -19.486 0.938 -19.486 0.334 69.785
18569.083 0.334 69.752 0.938 -19.52 0.938 -19.52 0.334 69.752
18594.042 0.335 69.72 0.938 -19.554 0.938 -19.554 0.335 69.72
18619 0.335 69.687 0.938 -19.588 0.938 -19.588 0.335 69.687
18643.958 0.336 69.655 0.938 -19.622 0.938 -19.622 0.336 69.655
18668.917 0.336 69.622 0.937 -19.656 0.937 -19.656 0.336 69.622
18693.875 0.337 69.59 0.937 -19.69 0.937 -19.69 0.337 69.59
18718.833 0.338 69.557 0.937 -19.724 0.937 -19.724 0.338 69.557
18743.792 0.338 69.525 0.937 -19.758 0.937 -19.758 0.338 69.525
18768.75 0.339 69.492 0.937 -19.791 0.937 -19.791 0.339 69.492
18793.708 0.339 69.46 0.936 -19.825 0.936 -19.825 0.339 69.46
18818.667 0.34 69.427 0.936 -19.859 0.936 -19.859 0.34 69.427
18843.625 0.34 69.395 0.936 -19.893 0.936 -19.893 0.34 69.395
18868.583 0.341 69.363 0.936 -19.926 0.936 -19.926 0.341 69.363
18893.542 0.341 69.33 0.936 -19.96 0.936 -19.96 0.341 69.33
18918.5 0.342 69.298 0.936 -19.993 0.936 -19.993 0.342 69.298
18943.458 0.342 69.266 0.935 -20.027 0.935 -20.027 0.342 69.266
18968.417 0.343 69.233 0.935 -20.061 0.935 -20.061 0.343 69.233
18993.375 0.344 69.201 0.935 -20.094 0.935 -20.094 0.344 69.201
19018.333 0.344 69.169 0.935 -20.128 0.935 -20.128 0.344 69.169
19043.292 0.345 69.137 0.935 -20.161 0.935 -20.161 0.345 69.137
19068.25 0.345 69.104 0.934 -20.195 0.934 -20.195 0.345 69.104
19093.208 0.346 69.072 0.934 -20.228 0.934 -20.228 0.346 69.072
19118.167 0.346 69.04 0.934 -20.261 0.934 -20.261 0.346 69.04
19143.125 0.347 69.008 0.934 -20.295 0.934 -20.295 0.347 69.008
19168.083 0.347 68.976 0.933 -20.328 0.933 -20.328 0.347 68.976
19193.042 0.348 68.944 0.933 -20.362 0.933 -20.362 0.348 68.944
19218 0.349 68.912 0.933 -20.395 0.933 -20.395 0.349 68.912
19242.958 0.349 68.88 0.933 -20.428 0.933 -20.428 0.349 68.88
19267.917 0.35 68.848 0.933 -20.461 0.933 -20.461 0.35 68.848
19292.875 0.35 68.816 0.932 -20.495 0.932 -20.495 0.35 68.816
19317.833 0.351 68.784 0.932 -20.528 0.932 -20.528 0.351 68.784
19342.792 0.351 68.752 0.932 -20.561 0.932 -20.561 0.351 68.752
19367.75 0.352 68.72 0.932 -20.594 0.932 -20.594 0.352 68.72
19392.708 0.352 68.688 0.932 -20.627 0.932 -20.627 0.352 68.688
19417.667 0.353 68.656 0.931 -20.66 0.931 -20.66 0.353 68.656
19442.625 0.353 68.624 0.931 -20.693 0.931 -20.693 0.353 68.624
19467.583 0.354 68.592 0.931 -20.726 0.931 -20.726 0.354 68.592
19492.542 0.354 68.56 0.931 -20.759 0.931 -20.759 0.354 68.56
19517.5 0.355 68.529 0.931 -20.792 0.931 -20.792 0.355 68.529
19542.458 0.356 68.497 0.93 -20.825 0.93 -20.825 0.356 68.497
19567.417 0.356 68.465 0.93 -20.858 0.93 -20.858 0.356 68.465
19592.375 0.357 68.433 0.93 -20.891 0.93 -20.891 0.357 68.433
19617.333 0.357 68.402 0.93 -20.924 0.93 -20.924 0.357 68.402
19642.292 0.358 68.37 0.93 -20.957 0.93 -20.957 0.358 68.37
19667.25 0.358 68.338 0.929 -20.99 0.929 -20.99 0.358 68.338
19692.208 0.359 68.306 0.929 -21.023 0.929 -21.023 0.359 68.306
19717.167 0.359 68.275 0.929 -21.055 0.929 -21.055 0.359 68.275
19742.125 0.36 68.243 0.929 -21.088 0.929 -21.088 0.36 68.243
19767.083 0.36 68.212 0.929 -21.121 0.929 -21.121 0.36 68.212
19792.042 0.361 68.18 0.928 -21.154 0.928 -21.154 0.361 68.18
19817 0.361 68.148 0.928 -21.186 0.928 -21.186 0.361 68.148
19841.958 0.362 68.117 0.928 -21.219 0.928 -21.219 0.362 68.117
19866.917 0.362 68.085 0.928 -21.252 0.928 -21.252 0.362 68.085
19891.875 0.363 68.054 0.928 -21.284 0.928 -21.284 0.363 68.054
19916.833 0.364 68.022 0.927 -21.317 0.927 -21.317 0.364 68.022
19941.792 0.364 67.991 0.927 -21.349 0.927 -21.349 0.364 67.991
19966.75 0.365 67.96 0.927 -21.382 0.927 -21.382 0.365 67.96
19991.708 0.365 67.928 0.927 -21.414 0.927 -21.414 0.365 67.928
20016.667 0.366 67.897 0.927 -21.447 0.927 -21.447 0.366 67.897
20041.625 0.366 67.865 0.926 -21.479 0.926 -21.479 0.366 67.865
20066.583 0.367 67.834 0.926 -21.512 0.926 -21.512 0.367 67.834
20091.542 0.367 67.803 0.926 -21.544 0.926 -21.544 0.367 67.803
20116.5 0.368 67.771 0.926 -21.577 0.926 -21.577 0.368 67.771
20141.458 0.368 67.74 0.926 -21.609 0.926 -21.609 0.368 67.74
20166.417 0.369 67.709 0.925 -21.641 0.925 -21.641 0.369 67.709
20191.375 0.369 67.678 0.925 -21.674 0.925 -21.674 0.369 67.678
20216.333 0.37 67.646 0.925 -21.706 0.925 -21.706 0.37 67.646
20241.292 0.37 67.615 0.925 -21.738 0.925 -21.738 0.37 67.615
20266.25 0.371 67.584 0.924 -21.771 0.924 -21.771 0.371 67.584
20291.208 0.371 67.553 0.924 -21.803 0.924 -21.803 0.371 67.553
20316.167 0.372 67.522 0.924 -21.835 0.924 -21.835 0.372 67.522
20341.125 0.372 67.49 0.924 -21.867 0.924 -21.867 0.372 67.49
20366.083 0.373 67.459 0.924 -21.899 0.924 -21.899 0.373 67.459
20391.042 0.374 67.428 0.923 -21.931 0.923 -21.931 0.374 67.428
20416 0.374 67.397 0.923 -21.963 0.923 -21.963 0.374 67.397
20440.958 0.375 67.366 0.923 -21.996 0.923 -21.996 0.375 67.366
20465.917 0.375 67.335 0.923 -22.028 0.923 -22.028 0.375 67.335
20490.875 0.376 67.304 0.923 -22.06 0.923 -22.06 0.376 67.304
20515.833 0.376 67.273 0.922 -22.092 0.922 -22.092 0.376 67.273
20540.792 0.377 67.242 0.922 -22.124 0.922 -22.124 0.377 67.242
20565.75 0.377 67.211 0.922 -22.156 0.922 -22.156 0.377 67.211
20590.708 0.378 67.18 0.922 -22.187 0.922 -22.187 0.378 67.18
20615.667 0.378 67.149 0.922 -22.219 0.922 -22.219 0.378 67.149
20640.625 0.379 67.119 0.921 -22.251 0.921 -22.251 0.379 67.119
20665.583 0.379 67.088 0.921 -22.283 0.921 -22.283 0.379 67.088
20690.542 0.38 67.057 0.921 -22.315 0.921 -22.315 0.38 67.057
20715.5 0.38 67.026 0.921 -22.347 0.921 -22.347 0.38 67.026
20740.458 0.381 66.995 0.921 -22.379 0.921 -22.379 0.381 66.995
20765.417 0.381 66.964 0.92 -22.41 0.92 -22.41 0.381 66.964
20790.375 0.382 66.934 0.92 -22.442 0.92 -22.442 0.382 66.934
20815.333 0.382 66.903 0.92 -22.474 0.92 -22.474 0.382 66.903
20840.292 0.383 66.872 0.92 -22.506 0.92 -22.506 0.383 66.872
20865.25 0.383 66.841 0.919 -22.537 0.919 -22.537 0.383 66.841
20890.208 0.384 66.811 0.919 -22.569 0.919 -22.569 0.384 66.811
20915.167 0.384 66.78 0.919 -22.6 0.919 -22.6 0.384 66.78
20940.125 0.385 66.749 0.919 -22.632 0.919 -22.632 0.385 66.749
20965.083 0.385 66.719 0.919 -22.664 0.919 -22.664 0.385 66.719
20990.042 0.386 66.688 0.918 -22.695 0.918 -22.695 0.386 66.688
21015 0.386 66.658 0.918 -22.727 0.918 -22.727 0.386 66.658
21039.958 0.387 66.627 0.918 -22.758 0.918 -22.758 0.387 66.627
21064.917 0.387 66.597 0.918 -22.79 0.918 -22.79 0.387 66.597
21089.875 0.388 66.566 0.918 -22.821 0.918 -22.821 0.388 66.566
21114.833 0.388 66.536 0.917 -22.853 0.917 -22.853 0.388 66.536
21139.792 0.389 66.505 0.917 -22.884 0.917 -22.884 0.389 66.505
21164.75 0.389 66.475 0.917 -22.915 0.917 -22.915 0.389 66.475
21189.708 0.39 66.444 0.917 -22.947 0.917 -22.947 0.39 66.444
21214.667 0.39 66.414 0.917 -22.978 0.917 -22.978 0.39 66.414
21239.625 0.391 66.383 0.916 -23.01 0.916 -23.01 0.391 66.383
21264.583 0.391 66.353 0.916 -23.041 0.916 -23.041 0.391 66.353
21289.542 0.392 66.323 0.916 -23.072 0.916 -23.072 0.392 66.323
21314.5 0.392 66.292 0.916 -23.103 0.916 -23.103 0.392 66.292
21339.458 0.393 66.262 0.915 -23.135 0.915 -23.135 0.393 66.262
21364.417 0.393 66.232 0.915 -23.166 0.915 -23.166 0.393 66.232
21389.375 0.394 66.201 0.915 -23.197 0.915 -23.197 0.394 66.201
21414.333 0.394 66.171 0.915 -23.228 0.915 -23.228 0.394 66.171
21439.292 0.395 66.141 0.915 -23.259 0.915 -23.259 0.395 66.141
21464.25 0.395 66.111 0.914 -23.29 0.914 -23.29 0.395 66.111
21489.208 0.396 66.08 0.914 -23.322 0.914 -23.322 0.396 66.08
21514.167 0.396 66.05 0.914 -23.353 0.914 -23.353 0.396 66.05
21539.125 0.397 66.02 0.914 -23.384 0.914 -23.384 0.397 66.02
21564.083 0.397 65.99 0.914 -23.415 0.914 -23.415 0.397 65.99
21589.042 0.398 65.96 0.913 -23.446 0.913 -23.446 0.398 65.96
21614 0.398 65.93 0.913 -23.477 0.913 -23.477 0.398 65.93
21638.958 0.399 65.9 0.913 -23.508 0.913 -23.508 0.399 65.9
21663.917 0.399 65.87 0.913 -23.539 0.913 -23.539 0.399 65.87
21688.875 0.4 65.839 0.912 -23.57 0.912 -23.57 0.4 65.839
21713.833 0.4 65.809 0.912 -23.6 0.912 -23.6 0.4 65.809
21738.792 0.401 65.779 0.912 -23.631 0.912 -23.631 0.401 65.779
21763.75 0.401 65.749 0.912 -23.662 0.912 -23.662 0.401 65.749
21788.708 0.402 65.719 0.912 -23.693 0.912 -23.693 0.402 65.719
21813.667 0.402 65.69 0.911 -23.724 0.911 -23.724 0.402 65.69
21838.625 0.403 65.66 0.911 -23.755 0.911 -23.755 0.403 65.66
21863.583 0.403 65.63 0.911 -23.785 0.911 -23.785 0.403 65.63
21888.542 0.404 65.6 0.911 -23.816 0.911 -23.816 0.404 65.6
21913.5 0.404 65.57 0.911 -23.847 0.911 -23.847 0.404 65.57
21938.458 0.405 65.54 0.91 -23.877 0.91 -23.877 0.405 65.54
21963.417 0.405 65.51 0.91 -23.908 0.91 -23.908 0.405 65.51
21988.375 0.406 65.48 0.91 -23.939 0.91 -23.939 0.406 65.48
22013.333 0.406 65.451 0.91 -23.969 0.91 -23.969 0.406 65.451
22038.292 0.407 65.421 0.909 -24 0.909 -24 0.407 65.421
22063.25 0.407 65.391 0.909 -24.031 0.909 -24.031 0.407 65.391
22088.208 0.408 65.361 0.909 -24.061 0.909 -24.061 0.408 65.361
22113.167 0.408 65.332 0.909 -24.092 0.909 -24.092 0.408 65.332
22138.125 0.409 65.302 0.909 -24.122 0.909 -24.122 0.409 65.302
22163.083 0.409 65.272 0.908 -24.153 0.908 -24.153 0.409 65.272
22188.042 0.41 65.243 0.908 -24.183 0.908 -24.183 0.41 65.243
22213 0.41 65.213 0.908 -24.214 0.908 -24.214 0.41 65.213
22237.958 0.411 65.183 0.908 -24.244 0.908 -24.244 0.411 65.183
22262.917 0.411 65.154 0.907 -24.275 0.907 -24.275 0.411 65.154
22287.875 0.412 65.124 0.907 -24.305 0.907 -24.305 0.412 65.124
22312.833 0.412 65.095 0.907 -24.335 0.907 -24.335 0.412 65.095
22337.792 0.413 65.065 0.907 -24.366 0.907 -24.366 0.413 65.065
22362.75 0.413 65.035 0.907 -24.396 0.907 -24.396 0.413 65.035
22387.708 0.414 65.006 0.906 -24.426 0.906 -24.426 0.414 65.006
22412.667 0.414 64.977 0.906 -24.457 0.906 -24.457 0.414 64.977
22437.625 0.415 64.947 0.906 -24.487 0.906 -24.487 0.415 64.947
22462.583 0.415 64.918 0.906 -24.517 0.906 -24.517 0.415 64.918
22487.542 0.415 64.888 0.906 -24.547 0.906 -24.547 0.415 64.888
22512.5 0.416 64.859 0.905 -24.578 0.905 -24.578 0.416 64.859
22537.458 0.416 64.829 0.905 -24.608 0.905 -24.608 0.416 64.829
22562.417 0.417 64.8 0.905 -24.638 0.905 -24.638 0.417 64.8
22587.375 0.417 64.771 0.905 -24.668 0.905 -24.668 0.417 64.771
22612.333 0.418 64.741 0.904 -24.698 0.904 -24.698 0.418 64.741
22637.292 0.418 64.712 0.904 -24.728 0.904 -24.728 0.418 64.712
22662.25 0.419 64.683 0.904 -24.758 0.904 -24.758 0.419 64.683
22687.208 0.419 64.653 0.904 -24.788 0.904 -24.788 0.419 64.653
22712.167 0.42 64.624 0.904 -24.818 0.904 -24.818 0.42 64.624
22737.125 0.42 64.595 0.903 -24.848 0.903 -24.848 0.42 64.595
22762.083 0.421 64.566 0.903 -24.878 0.903 -24.878 0.421 64.566
22787.042 0.421 64.536 0.903 -24.908 0.903 -24.908 0.421 64.536
22812 0.422 64.507 0.903 -24.938 0.903 -24.938 0.422 64.507
22836.958 0.422 64.478 0.902 -24.968 0.902 -24.968 0.422 64.478
22861.917 0.423 64.449 0.902 -24.998 0.902 -24.998 0.423 64.449
22886.875 0.423 64.42 0.902 -25.028 0.902 -25.028 0.423 64.42
22911.833 0.424 64.391 0.902 -25.058 0.902 -25.058 0.424 64.391
22936.792 0.424 64.362 0.902 -25.088 0.902 -25.088 0.424 64.362
22961.75 0.424 64.333 0.901 -25.117 0.901 -25.117 0.424 64.333
22986.708 0.425 64.304 0.901 -25.147 0.901 -25.147 0.425 64.304
23011.667 0.425 64.274 0.901 -25.177 0.901 -25.177 0.425 64.274
23036.625 0.426 64.245 0.901 -25.207 0.901 -25.207 0.426 64.245
23061.583 0.426 64.216 0.9 -25.237 0.9 -25.237 0.426 64.216
23086.542 0.427 64.187 0.9 -25.266 0.9 -25.266 0.427 64.187
23111.5 0.427 64.159 0.9 -25.296 0.9 -25.296 0.427 64.159
23136.458 0.428 64.13 0.9 -25.326 0.9 -25.326 0.428 64.13
23161.417 0.428 64.101 0.9 -25.355 0.9 -25.355 0.428 64.101
23186.375 0.429 64.072 0.899 -25.385 0.899 -25.385 0.429 64.072
23211.333 0.429 64.043 0.899 -25.414 0.899 -25.414 0.429 64.043
23236.292 0.43 64.014 0.899 -25.444 0.899 -25.444 0.43 64.014
23261.25 0.43 63.985 0.899 -25.474 0.899 -25.474 0.43 63.985
23286.208 0.431 63.956 0.898 -25.503 0.898 -25.503 0.431 63.956
23311.167 0.431 63.928 0.898 -25.533 0.898 -25.533 0.431 63.928
23336.125 0.432 63.899 0.898 -25.562 0.898 -25.562 0.432 63.899
23361.083 0.432 63.87 0.898 -25.592 0.898 -25.592 0.432 63.87
23386.042 0.432 63.841 0.898 -25.621 0.898 -25.621 0.432 63.841
23411 0.433 63.812 0.897 -25.651 0.897 -25.651 0.433 63.812
23435.958 0.433 63.784 0.897 -25.68 0.897 -25.68 0.433 63.784
23460.917 0.434 63.755 0.897 -25.709 0.897 -25.709 0.434 63.755
23485.875 0.434 63.726 0.897 -25.739 0.897 -25.739 0.434 63.726
23510.833 0.435 63.698 0.897 -25.768 0.897 -25.768 0.435 63.698
23535.792 0.435 63.669 0.896 -25.798 0.896 -25.798 0.435 63.669
23560.75 0.436 63.64 0.896 -25.827 0.896 -25.827 0.436 63.64
23585.708 0.436 63.612 0.896 -25.856 0.896 -25.856 0.436 63.612
23610.667 0.437 63.583 0.896 -25.885 0.896 -25.885 0.437 63.583
23635.625 0.437 63.555 0.895 -25.915 0.895 -25.915 0.437 63.555
23660.583 0.438 63.526 0.895 -25.944 0.895 -25.944 0.438 63.526
23685.542 0.438 63.498 0.895 -25.973 0.895 -25.973 0.438 63.498
23710.5 0.438 63.469 0.895 -26.002 0.895 -26.002 0.438 63.469
23735.458 0.439 63.441 0.895 -26.032 0.895 -26.032 0.439 63.441
23760.417 0.439 63.412 0.894 -26.061 0.894 -26.061 0.439 63.412
23785.375 0.44 63.384 0.894 -26.09 0.894 -26.09 0.44 63.384
23810.333 0.44 63.355 0.894 -26.119 0.894 -26.119 0.44 63.355
23835.292 0.441 63.327 0.894 -26.148 0.894 -26.148 0.441 63.327
23860.25 0.441 63.298 0.893 -26.177 0.893 -26.177 0.441 63.298
23885.208 0.442 63.27 0.893 -26.206 0.893 -26.206 0.442 63.27
23910.167 0.442 63.242 0.893 -26.235 0.893 -26.235 0.442 63.242
23935.125 0.443 63.213 0.893 -26.264 0.893 -26.264 0.443 63.213
23960.083 0.443 63.185 0.893 -26.293 0.893 -26.293 0.443 63.185
23985.042 0.443 63.157 0.892 -26.322 0.892 -26.322 0.443 63.157
24010 0.444 63.128 0.892 -26.351 0.892 -26.351 0.444 63.128
24034.958 0.444 63.1 0.892 -26.38 0.892 -26.38 0.444 63.1
24059.917 0.445 63.072 0.892 -26.409 0.892 -26.409 0.445 63.072
24084.875 0.445 63.043 0.891 -26.438 0.891 -26.438 0.445 63.043
24109.833 0.446 63.015 0.891 -26.467 0.891 -26.467 0.446 63.015
24134.792 0.446 62.987 0.891 -26.496 0.891 -26.496 0.446 62.987
24159.75 0.447 62.959 0.891 -26.525 0.891 -26.525 0.447 62.959
24184.708 0.447 62.931 0.89 -26.553 0.89 -26.553 0.447 62.931
24209.667 0.447 62.903 0.89 -26.582 0.89 -26.582 0.447 62.903
24234.625 0.448 62.874 0.89 -26.611 0.89 -26.611 0.448 62.874
24259.583 0.448 62.846 0.89 -26.64 0.89 -26.64 0.448 62.846
24284.542 0.449 62.818 0.89 -26.668 0.89 -26.668 0.449 62.818
24309.5 0.449 62.79 0.889 -26.697 0.889 -26.697 0.449 62.79
24334.458 0.45 62.762 0.889 -26.726 0.889 -26.726 0.45 62.762
24359.417 0.45 62.734 0.889 -26.755 0.889 -26.755 0.45 62.734
24384.375 0.451 62.706 0.889 -26.783 0.889 -26.783 0.451 62.706
24409.333 0.451 62.678 0.888 -26.812 0.888 -26.812 0.451 62.678
24434.292 0.452 62.65 0.888 -26.84 0.888 -26.84 0.452 62.65
24459.25 0.452 62.622 0.888 -26.869 0.888 -26.869 0.452 62.622
24484.208 0.452 62.594 0.888 -26.898 0.888 -26.898 0.452 62.594
24509.167 0.453 62.566 0.888 -26.926 0.888 -26.926 0.453 62.566
24534.125 0.453 62.538 0.887 -26.955 0.887 -26.955 0.453 62.538
24559.083 0.454 62.51 0.887 -26.983 0.887 -26.983 0.454 62.51
24584.042 0.454 62.482 0.887 -27.012 0.887 -27.012 0.454 62.482
24609 0.455 62.455 0.887 -27.04 0.887 -27.04 0.455 62.455
24633.958 0.455 62.427 0.886 -27.069 0.886 -27.069 0.455 62.427
24658.917 0.456 62.399 0.886 -27.097 0.886 -27.097 0.456 62.399
24683.875 0.456 62.371 0.886 -27.126 0.886 -27.126 0.456 62.371
24708.833 0.456 62.343 0.886 -27.154 0.886 -27.154 0.456 62.343
24733.792 0.457 62.315 0.886 -27.182 0.886 -27.182 0.457 62.315
24758.75 0.457 62.288 0.885 -27.211 0.885 -27.211 0.457 62.288
24783.708 0.458 62.26 0.885 -27.239 0.885 -27.239 0.458 62.26
24808.667 0.458 62.232 0.885 -27.267 0.885 -27.267 0.458 62.232
24833.625 0.459 62.205 0.885 -27.296 0.885 -27.296 0.459 62.205
24858.583 0.459 62.177 0.884 -27.324 0.884 -27.324 0.459 62.177
24883.542 0.459 62.149 0.884 -27.352 0.884 -27.352 0.459 62.149
24908.5 0.46 62.122 0.884 -27.381 0.884 -27.381 0.46 62.122
24933.458 0.46 62.094 0.884 -27.409 0.884 -27.409 0.46 62.094
24958.417 0.461 62.066 0.884 -27.437 0.884 -27.437 0.461 62.066
24983.375 0.461 62.039 0.883 -27.465 0.883 -27.465 0.461 62.039
25008.333 0.462 62.011 0.883 -27.493 0.883 -27.493 0.462 62.011
25033.292 0.462 61.984 0.883 -27.522 0.883 -27.522 0.462 61.984
25058.25 0.463 61.956 0.883 -27.55 0.883 -27.55 0.463 61.956
25083.208 0.463 61.928 0.882 -27.578 0.882 -27.578 0.463 61.928
25108.167 0.463 61.901 0.882 -27.606 0.882 -27.606 0.463 61.901
25133.125 0.464 61.873 0.882 -27.634 0.882 -27.634 0.464 61.873
25158.083 0.464 61.846 0.882 -27.662 0.882 -27.662 0.464 61.846
25183.042 0.465 61.819 0.881 -27.69 0.881 -27.69 0.465 61.819
25208 0.465 61.791 0.881 -27.718 0.881 -27.718 0.465 61.791
25232.958 0.466 61.764 0.881 -27.746 0.881 -27.746 0.466 61.764
25257.917 0.466 61.736 0.881 -27.774 0.881 -27.774 0.466 61.736
25282.875 0.466 61.709 0.881 -27.802 0.881 -27.802 0.466 61.709
25307.833 0.467 61.682 0.88 -27.83 0.88 -27.83 0.467 61.682
25332.792 0.467 61.654 0.88 -27.858 0.88 -27.858 0.467 61.654
25357.75 0.468 61.627 0.88 -27.886 0.88 -27.886 0.468 61.627
25382.708 0.468 61.6 0.88 -27.914 0.88 -27.914 0.468 61.6
25407.667 0.469 61.572 0.879 -27.942 0.879 -27.942 0.469 61.572
25432.625 0.469 61.545 0.879 -27.97 0.879 -27.97 0.469 61.545
25457.583 0.469 61.518 0.879 -27.997 0.879 -27.997 0.469 61.518
25482.542 0.47 61.49 0.879 -28.025 0.879 -28.025 0.47 61.49
25507.5 0.47 61.463 0.879 -28.053 0.879 -28.053 0.47 61.463
25532.458 0.471 61.436 0.878 -28.081 0.878 -28.081 0.471 61.436
25557.417 0.471 61.409 0.878 -28.109 0.878 -28.109 0.471 61.409
25582.375 0.472 61.382 0.878 -28.136 0.878 -28.136 0.472 61.382
25607.333 0.472 61.354 0.878 -28.164 0.878 -28.164 0.472 61.354
25632.292 0.472 61.327 0.877 -28.192 0.877 -28.192 0.472 61.327
25657.25 0.473 61.3 0.877 -28.219 0.877 -28.219 0.473 61.3
25682.208 0.473 61.273 0.877 -28.247 0.877 -28.247 0.473 61.273
25707.167 0.474 61.246 0.877 -28.275 0.877 -28.275 0.474 61.246
25732.125 0.474 61.219 0.876 -28.302 0.876 -28.302 0.474 61.219
25757.083 0.475 61.192 0.876 -28.33 0.876 -28.33 0.475 61.192
25782.042 0.475 61.165 0.876 -28.358 0.876 -28.358 0.475 61.165
25807 0.475 61.138 0.876 -28.385 0.876 -28.385 0.475 61.138
25831.958 0.476 61.111 0.876 -28.413 0.876 -28.413 0.476 61.111
25856.917 0.476 61.084 0.875 -28.44 0.875 -28.44 0.476 61.084
25881.875 0.477 61.057 0.875 -28.468 0.875 -28.468 0.477 61.057
25906.833 0.477 61.03 0.875 -28.495 0.875 -28.495 0.477 61.03
25931.792 0.478 61.003 0.875 -28.523 0.875 -28.523 0.478 61.003
25956.75 0.478 60.976 0.874 -28.55 0.874 -28.55 0.478 60.976
25981.708 0.478 60.949 0.874 -28.578 0.874 -28.578 0.478 60.949
26006.667 0.479 60.922 0.874 -28.605 0.874 -28.605 0.479 60.922
26031.625 0.479 60.895 0.874 -28.632 0.874 -28.632 0.479 60.895
26056.583 0.48 60.868 0.874 -28.66 0.874 -28.66 0.48 60.868
26081.542 0.48 60.842 0.873 -28.687 0.873 -28.687 0.48 60.842
26106.5 0.48 60.815 0.873 -28.715 0.873 -28.715 0.48 60.815
26131.458 0.481 60.788 0.873 -28.742 0.873 -28.742 0.481 60.788
26156.417 0.481 60.761 0.873 -28.769 0.873 -28.769 0.481 60.761
26181.375 0.482 60.734 0.872 -28.796 0.872 -28.796 0.482 60.734
26206.333 0.482 60.708 0.872 -28.824 0.872 -28.824 0.482 60.708
26231.292 0.483 60.681 0.872 -28.851 0.872 -28.851 0.483 60.681
26256.25 0.483 60.654 0.872 -28.878 0.872 -28.878 0.483 60.654
26281.208 0.483 60.628 0.871 -28.905 0.871 -28.905 0.483 60.628
26306.167 0.484 60.601 0.871 -28.933 0.871 -28.933 0.484 60.601
26331.125 0.484 60.574 0.871 -28.96 0.871 -28.96 0.484 60.574
26356.083 0.485 60.548 0.871 -28.987 0.871 -28.987 0.485 60.548
26381.042 0.485 60.521 0.871 -29.014 0.871 -29.014 0.485 60.521
26406 0.485 60.494 0.87 -29.041 0.87 -29.041 0.485 60.494
26430.958 0.486 60.468 0.87 -29.068 0.87 -29.068 0.486 60.468
26455.917 0.486 60.441 0.87 -29.096 0.87 -29.096 0.486 60.441
26480.875 0.487 60.415 0.87 -29.123 0.87 -29.123 0.487 60.415
26505.833 0.487 60.388 0.869 -29.15 0.869 -29.15 0.487 60.388
26530.792 0.488 60.362 0.869 -29.177 0.869 -29.177 0.488 60.362
26555.75 0.488 60.335 0.869 -29.204 0.869 -29.204 0.488 60.335
26580.708 0.488 60.309 0.869 -29.231 0.869 -29.231 0.488 60.309
26605.667 0.489 60.282 0.869 -29.258 0.869 -29.258 0.489 60.282
26630.625 0.489 60.256 0.868 -29.285 0.868 -29.285 0.489 60.256
26655.583 0.49 60.229 0.868 -29.312 0.868 -29.312 0.49 60.229
26680.542 0.49 60.203 0.868 -29.339 0.868 -29.339 0.49 60.203
26705.5 0.49 60.176 0.868 -29.365 0.868 -29.365 0.49 60.176
26730.458 0.491 60.15 0.867 -29.392 0.867 -29.392 0.491 60.15
26755.417 0.491 60.124 0.867 -29.419 0.867 -29.419 0.491 60.124
26780.375 0.492 60.097 0.867 -29.446 0.867 -29.446 0.492 60.097
26805.333 0.492 60.071 0.867 -29.473 0.867 -29.473 0.492 60.071
26830.292 0.492 60.044 0.866 -29.5 0.866 -29.5 0.492 60.044
26855.25 0.493 60.018 0.866 -29.527 0.866 -29.527 0.493 60.018
26880.208 0.493 59.992 0.866 -29.553 0.866 -29.553 0.493 59.992
26905.167 0.494 59.966 0.866 -29.58 0.866 -29.58 0.494 59.966
26930.125 0.494 59.939 0.866 -29.607 0.866 -29.607 0.494 59.939
26955.083 0.494 59.913 0.865 -29.634 0.865 -29.634 0.494 59.913
26980.042 0.495 59.887 0.865 -29.66 0.865 -29.66 0.495 59.887
27005 0.495 59.861 0.865 -29.687 0.865 -29.687 0.495 59.861
27029.958 0.496 59.834 0.865 -29.714 0.865 -29.714 0.496 59.834
27054.917 0.496 59.808 0.864 -29.74 0.864 -29.74 0.496 59.808
27079.875 0.496 59.782 0.864 -29.767 0.864 -29.767 0.496 59.782
27104.833 0.497 59.756 0.864 -29.794 0.864 -29.794 0.497 59.756
27129.792 0.497 59.73 0.864 -29.82 0.864 -29.82 0.497 59.73
27154.75 0.498 59.704 0.863 -29.847 0.863 -29.847 0.498 59.704
27179.708 0.498 59.678 0.863 -29.873 0.863 -29.873 0.498 59.678
27204.667 0.499 59.652 0.863 -29.9 0.863 -29.9 0.499 59.652
27229.625 0.499 59.626 0.863 -29.927 0.863 -29.927 0.499 59.626
27254.583 0.499 59.599 0.863 -29.953 0.863 -29.953 0.499 59.599
27279.542 0.5 59.573 0.862 -29.98 0.862 -29.98 0.5 59.573
27304.5 0.5 59.547 0.862 -30.006 0.862 -30.006 0.5 59.547
27329.458 0.501 59.521 0.862 -30.033 0.862 -30.033 0.501 59.521
27354.417 0.501 59.495 0.862 -30.059 0.862 -30.059 0.501 59.495
27379.375 0.501 59.47 0.861 -30.085 0.861 -30.085 0.501 59.47
27404.333 0.502 59.444 0.861 -30.112 0.861 -30.112 0.502 59.444
27429.292 0.502 59.418 0.861 -30.138 0.861 -30.138 0.502 59.418
27454.25 0.503 59.392 0.861 -30.165 0.861 -30.165 0.503 59.392
27479.208 0.503 59.366 0.86 -30.191 0.86 -30.191 0.503 59.366
27504.167 0.503 59.34 0.86 -30.217 0.86 -30.217 0.503 59.34
27529.125 0.504 59.314 0.86 -30.244 0.86 -30.244 0.504 59.314
27554.083 0.504 59.288 0.86 -30.27 0.86 -30.27 0.504 59.288
27579.042 0.504 59.262 0.86 -30.296 0.86 -30.296 0.504 59.262
27604 0.505 59.237 0.859 -30.323 0.859 -30.323 0.505 59.237
27628.958 0.505 59.211 0.859 -30.349 0.859 -30.349 0.505 59.211
27653.917 0.506 59.185 0.859 -30.375 0.859 -30.375 0.506 59.185
27678.875 0.506 59.159 0.859 -30.401 0.859 -30.401 0.506 59.159
27703.833 0.506 59.134 0.858 -30.427 0.858 -30.427 0.506 59.134
27728.792 0.507 59.108 0.858 -30.454 0.858 -30.454 0.507 59.108
27753.75 0.507 59.082 0.858 -30.48 0.858 -30.48 0.507 59.082
27778.708 0.508 59.056 0.858 -30.506 0.858 -30.506 0.508 59.056
27803.667 0.508 59.031 0.857 -30.532 0.857 -30.532 0.508 59.031
27828.625 0.508 59.005 0.857 -30.558 0.857 -30.558 0.508 59.005
27853.583 0.509 58.979 0.857 -30.584 0.857 -30.584 0.509 58.979
27878.542 0.509 58.954 0.857 -30.61 0.857 -30.61 0.509 58.954
27903.5 0.51 58.928 0.857 -30.637 0.857 -30.637 0.51 58.928
27928.458 0.51 58.903 0.856 -30.663 0.856 -30.663 0.51 58.903
27953.417 0.51 58.877 0.856 -30.689 0.856 -30.689 0.51 58.877
27978.375 0.511 58.851 0.856 -30.715 0.856 -30.715 0.511 58.851
28003.333 0.511 58.826 0.856 -30.741 0.856 -30.741 0.511 58.826
28028.292 0.512 58.8 0.855 -30.767 0.855 -30.767 0.512 58.8
28053.25 0.512 58.775 0.855 -30.793 0.855 -30.793 0.512 58.775
28078.208 0.512 58.749 0.855 -30.819 0.855 -30.819 0.512 58.749
28103.167 0.513 58.724 0.855 -30.844 0.855 -30.844 0.513 58.724
28128.125 0.513 58.698 0.854 -30.87 0.854 -30.87 0.513 58.698
28153.083 0.514 58.673 0.854 -30.896 0.854 -30.896 0.514 58.673
28178.042 0.514 58.647 0.854 -30.922 0.854 -30.922 0.514 58.647
28203 0.514 58.622 0.854 -30.948 0.854 -30.948 0.514 58.622
28227.958 0.515 58.597 0.854 -30.974 0.854 -30.974 0.515 58.597
28252.917 0.515 58.571 0.853 -31 0.853 -31 0.515 58.571
28277.875 0.515 58.546 0.853 -31.026 0.853 -31.026 0.515 58.546
28302.833 0.516 58.52 0.853 -31.051 0.853 -31.051 0.516 58.52
28327.792 0.516 58.495 0.853 -31.077 0.853 -31.077 0.516 58.495
28352.75 0.517 58.47 0.852 -31.103 0.852 -31.103 0.517 58.47
28377.708 0.517 58.444 0.852 -31.129 0.852 -31.129 0.517 58.444
28402.667 0.517 58.419 0.852 -31.154 0.852 -31.154 0.517 58.419
28427.625 0.518 58.394 0.852 -31.18 0.852 -31.18 0.518 58.394
28452.583 0.518 58.369 0.851 -31.206 0.851 -31.206 0.518 58.369
28477.542 0.519 58.343 0.851 -31.231 0.851 -31.231 0.519 58.343
28502.5 0.519 58.318 0.851 -31.257 0.851 -31.257 0.519 58.318
28527.458 0.519 58.293 0.851 -31.283 0.851 -31.283 0.519 58.293
28552.417 0.52 58.268 0.851 -31.308 0.851 -31.308 0.52 58.268
28577.375 0.52 58.243 0.85 -31.334 0.85 -31.334 0.52 58.243
28602.333 0.52 58.217 0.85 -31.36 0.85 -31.36 0.52 58.217
28627.292 0.521 58.192 0.85 -31.385 0.85 -31.385 0.521 58.192
28652.25 0.521 58.167 0.85 -31.411 0.85 -31.411 0.521 58.167
28677.208 0.522 58.142 0.849 -31.436 0.849 -31.436 0.522 58.142
28702.167 0.522 58.117 0.849 -31.462 0.849 -31.462 0.522 58.117
28727.125 0.522 58.092 0.849 -31.487 0.849 -31.487 0.522 58.092
28752.083 0.523 58.067 0.849 -31.513 0.849 -31.513 0.523 58.067
28777.042 0.523 58.042 0.848 -31.538 0.848 -31.538 0.523 58.042
28802 0.523 58.017 0.848 -31.564 0.848 -31.564 0.523 58.017
28826.958 0.524 57.992 0.848 -31.589 0.848 -31.589 0.524 57.992
28851.917 0.524 57.967 0.848 -31.615 0.848 -31.615 0.524 57.967
28876.875 0.525 57.942 0.848 -31.64 0.848 -31.64 0.525 57.942
28901.833 0.525 57.917 0.847 -31.665 0.847 -31.665 0.525 57.917
28926.792 0.525 57.892 0.847 -31.691 0.847 -31.691 0.525 57.892
28951.75 0.526 57.867 0.847 -31.716 0.847 -31.716 0.526 57.867
28976.708 0.526 57.842 0.847 -31.741 0.847 -31.741 0.526 57.842
29001.667 0.526 57.817 0.846 -31.767 0.846 -31.767 0.526 57.817
29026.625 0.527 57.792 0.846 -31.792 0.846 -31.792 0.527 57.792
29051.583 0.527 57.767 0.846 -31.817 0.846 -31.817 0.527 57.767
29076.542 0.528 57.742 0.846 -31.843 0.846 -31.843 0.528 57.742
29101.5 0.528 57.717 0.845 -31.868 0.845 -31.868 0.528 57.717
29126.458 0.528 57.693 0.845 -31.893 0.845 -31.893 0.528 57.693
29151.417 0.529 57.668 0.845 -31.918 0.845 -31.918 0.529 57.668
29176.375 0.529 57.643 0.845 -31.944 0.845 -31.944 0.529 57.643
29201.333 0.529 57.618 0.845 -31.969 0.845 -31.969 0.529 57.618
29226.292 0.53 57.593 0.844 -31.994 0.844 -31.994 0.53 57.593
29251.25 0.53 57.569 0.844 -32.019 0.844 -32.019 0.53 57.569
29276.208 0.531 57.544 0.844 -32.044 0.844 -32.044 0.531 57.544
29301.167 0.531 57.519 0.844 -32.069 0.844 -32.069 0.531 57.519
29326.125 0.531 57.494 0.843 -32.094 0.843 -32.094 0.531 57.494
29351.083 0.532 57.47 0.843 -32.119 0.843 -32.119 0.532 57.47
29376.042 0.532 57.445 0.843 -32.145 0.843 -32.145 0.532 57.445
29401 0.532 57.42 0.843 -32.17 0.843 -32.17 0.532 57.42
29425.958 0.533 57.396 0.842 -32.195 0.842 -32.195 0.533 57.396
29450.917 0.533 57.371 0.842 -32.22 0.842 -32.22 0.533 57.371
29475.875 0.534 57.347 0.842 -32.245 0.842 -32.245 0.534 57.347
29500.833 0.534 57.322 0.842 -32.27 0.842 -32.27 0.534 57.322
29525.792 0.534 57.297 0.842 -32.295 0.842 -32.295 0.534 57.297
29550.75 0.535 57.273 0.841 -32.32 0.841 -32.32 0.535 57.273
29575.708 0.535 57.248 0.841 -32.345 0.841 -32.345 0.535 57.248
29600.667 0.535 57.224 0.841 -32.37 0.841 -32.37 0.535 57.224
29625.625 0.536 57.199 0.841 -32.394 0.841 -32.394 0.536 57.199
29650.583 0.536 57.175 0.84 -32.419 0.84 -32.419 0.536 57.175
29675.542 0.536 57.15 0.84 -32.444 0.84 -32.444 0.536 57.15
29700.5 0.537 57.126 0.84 -32.469 0.84 -32.469 0.537 57.126
29725.458 0.537 57.101 0.84 -32.494 0.84 -32.494 0.537 57.101
29750.417 0.538 57.077 0.839 -32.519 0.839 -32.519 0.538 57.077
29775.375 0.538 57.052 0.839 -32.544 0.839 -32.544 0.538 57.052
29800.333 0.538 57.028 0.839 -32.568 0.839 -32.568 0.538 57.028
29825.292 0.539 57.004 0.839 -32.593 0.839 -32.593 0.539 57.004
29850.25 0.539 56.979 0.838 -32.618 0.838 -32.618 0.539 56.979
29875.208 0.539 56.955 0.838 -32.643 0.838 -32.643 0.539 56.955
29900.167 0.54 56.93 0.838 -32.667 0.838 -32.667 0.54 56.93
29925.125 0.54 56.906 0.838 -32.692 0.838 -32.692 0.54 56.906
29950.083 0.541 56.882 0.838 -32.717 0.838 -32.717 0.541 56.882
29975.042 0.541 56.858 0.837 -32.741 0.837 -32.741 0.541 56.858
30000 0.541 56.833 0.837 -32.766 0.837 -32.766 0.541 56.833
