!	AVX Thin Film Operation 	Date: April 2014		
!	Description: Accu-P® Series, Thin Film  SMD RF Capacitor
!	Part Number: 02015J1R0PBSTR					
!								
# MHZ S MA R 50

50 1 -1.799 0.031 88.191 0.031 88.191 1 -1.799
74.958 0.999 -2.697 0.047 87.289 0.047 87.289 0.999 -2.697
99.917 0.998 -3.593 0.063 86.389 0.063 86.389 0.998 -3.593
124.875 0.997 -4.487 0.078 85.489 0.078 85.489 0.997 -4.487
149.833 0.996 -5.38 0.094 84.592 0.094 84.592 0.996 -5.38
174.792 0.994 -6.27 0.109 83.698 0.109 83.698 0.994 -6.27
199.75 0.992 -7.157 0.125 82.806 0.125 82.806 0.992 -7.157
224.708 0.99 -8.041 0.14 81.917 0.14 81.917 0.99 -8.041
249.667 0.988 -8.922 0.155 81.031 0.155 81.031 0.988 -8.922
274.625 0.985 -9.799 0.17 80.15 0.17 80.15 0.985 -9.799
299.583 0.983 -10.672 0.185 79.272 0.185 79.272 0.983 -10.672
324.542 0.98 -11.54 0.2 78.399 0.2 78.399 0.98 -11.54
349.5 0.976 -12.403 0.215 77.531 0.215 77.531 0.976 -12.403
374.458 0.973 -13.261 0.229 76.669 0.229 76.669 0.973 -13.261
399.417 0.969 -14.114 0.244 75.811 0.244 75.811 0.969 -14.114
424.375 0.966 -14.961 0.258 74.959 0.258 74.959 0.966 -14.961
449.333 0.962 -15.802 0.272 74.114 0.272 74.114 0.962 -15.802
474.292 0.958 -16.637 0.286 73.274 0.286 73.274 0.958 -16.637
499.25 0.953 -17.465 0.3 72.441 0.3 72.441 0.953 -17.465
524.208 0.949 -18.287 0.314 71.615 0.314 71.615 0.949 -18.287
549.167 0.944 -19.101 0.327 70.795 0.327 70.795 0.944 -19.101
574.125 0.94 -19.909 0.341 69.983 0.341 69.983 0.94 -19.909
599.083 0.935 -20.709 0.354 69.178 0.354 69.178 0.935 -20.709
624.042 0.93 -21.502 0.367 68.381 0.367 68.381 0.93 -21.502
649 0.924 -22.287 0.379 67.591 0.379 67.591 0.924 -22.287
673.958 0.919 -23.064 0.392 66.809 0.392 66.809 0.919 -23.064
698.917 0.914 -23.833 0.404 66.035 0.404 66.035 0.914 -23.833
723.875 0.908 -24.594 0.416 65.27 0.416 65.27 0.908 -24.594
748.833 0.903 -25.347 0.428 64.512 0.428 64.512 0.903 -25.347
773.792 0.897 -26.092 0.44 63.762 0.44 63.762 0.897 -26.092
798.75 0.891 -26.828 0.451 63.021 0.451 63.021 0.891 -26.828
823.708 0.885 -27.556 0.463 62.288 0.463 62.288 0.885 -27.556
848.667 0.879 -28.276 0.474 61.564 0.474 61.564 0.879 -28.276
873.625 0.873 -28.987 0.485 60.848 0.485 60.848 0.873 -28.987
898.583 0.867 -29.689 0.495 60.141 0.495 60.141 0.867 -29.689
923.542 0.861 -30.383 0.506 59.442 0.506 59.442 0.861 -30.383
948.5 0.855 -31.068 0.516 58.752 0.516 58.752 0.855 -31.068
973.458 0.849 -31.745 0.526 58.071 0.526 58.071 0.849 -31.745
998.417 0.842 -32.413 0.536 57.398 0.536 57.398 0.842 -32.413
1023.375 0.836 -33.072 0.546 56.733 0.546 56.733 0.836 -33.072
1048.333 0.83 -33.723 0.555 56.078 0.555 56.078 0.83 -33.723
1073.292 0.823 -34.366 0.564 55.43 0.564 55.43 0.823 -34.366
1098.25 0.817 -35 0.574 54.791 0.574 54.791 0.817 -35
1123.208 0.811 -35.625 0.582 54.161 0.582 54.161 0.811 -35.625
1148.167 0.804 -36.242 0.591 53.539 0.591 53.539 0.804 -36.242
1173.125 0.798 -36.851 0.6 52.925 0.6 52.925 0.798 -36.851
1198.083 0.791 -37.452 0.608 52.32 0.608 52.32 0.791 -37.452
1223.042 0.785 -38.044 0.616 51.723 0.616 51.723 0.785 -38.044
1248 0.779 -38.628 0.624 51.134 0.624 51.134 0.779 -38.628
1272.958 0.772 -39.204 0.632 50.553 0.632 50.553 0.772 -39.204
1297.917 0.766 -39.772 0.64 49.98 0.64 49.98 0.766 -39.772
1322.875 0.759 -40.332 0.647 49.415 0.647 49.415 0.759 -40.332
1347.833 0.753 -40.884 0.655 48.857 0.655 48.857 0.753 -40.884
1372.792 0.747 -41.429 0.662 48.308 0.662 48.308 0.747 -41.429
1397.75 0.74 -41.965 0.669 47.766 0.669 47.766 0.74 -41.965
1422.708 0.734 -42.494 0.676 47.232 0.676 47.232 0.734 -42.494
1447.667 0.728 -43.016 0.682 46.705 0.682 46.705 0.728 -43.016
1472.625 0.722 -43.53 0.689 46.186 0.689 46.186 0.722 -43.53
1497.583 0.715 -44.037 0.695 45.673 0.695 45.673 0.715 -44.037
1522.542 0.709 -44.537 0.701 45.169 0.701 45.169 0.709 -44.537
1547.5 0.703 -45.03 0.707 44.671 0.707 44.671 0.703 -45.03
1572.458 0.697 -45.516 0.713 44.18 0.713 44.18 0.697 -45.516
1597.417 0.691 -45.994 0.719 43.696 0.719 43.696 0.691 -45.994
1622.375 0.685 -46.466 0.725 43.219 0.725 43.219 0.685 -46.466
1647.333 0.679 -46.932 0.731 42.748 0.731 42.748 0.679 -46.932
1672.292 0.673 -47.39 0.736 42.284 0.736 42.284 0.673 -47.39
1697.25 0.667 -47.842 0.741 41.827 0.741 41.827 0.667 -47.842
1722.208 0.661 -48.288 0.747 41.376 0.747 41.376 0.661 -48.288
1747.167 0.655 -48.728 0.752 40.931 0.752 40.931 0.655 -48.728
1772.125 0.649 -49.161 0.757 40.493 0.757 40.493 0.649 -49.161
1797.083 0.644 -49.588 0.761 40.06 0.761 40.06 0.644 -49.588
1822.042 0.638 -50.009 0.766 39.634 0.766 39.634 0.638 -50.009
1847 0.632 -50.424 0.771 39.213 0.771 39.213 0.632 -50.424
1871.958 0.627 -50.833 0.775 38.799 0.775 38.799 0.627 -50.833
1896.917 0.621 -51.237 0.78 38.39 0.78 38.39 0.621 -51.237
1921.875 0.615 -51.635 0.784 37.986 0.784 37.986 0.615 -51.635
1946.833 0.61 -52.027 0.788 37.588 0.788 37.588 0.61 -52.027
1971.792 0.605 -52.414 0.792 37.196 0.792 37.196 0.605 -52.414
1996.75 0.599 -52.796 0.797 36.809 0.797 36.809 0.599 -52.796
2021.708 0.594 -53.172 0.8 36.427 0.8 36.427 0.594 -53.172
2046.667 0.589 -53.543 0.804 36.05 0.804 36.05 0.589 -53.543
2071.625 0.583 -53.91 0.808 35.678 0.808 35.678 0.583 -53.91
2096.583 0.578 -54.271 0.812 35.312 0.812 35.312 0.578 -54.271
2121.542 0.573 -54.627 0.815 34.95 0.815 34.95 0.573 -54.627
2146.5 0.568 -54.978 0.819 34.593 0.819 34.593 0.568 -54.978
2171.458 0.563 -55.325 0.822 34.24 0.822 34.24 0.563 -55.325
2196.417 0.558 -55.667 0.826 33.893 0.826 33.893 0.558 -55.667
2221.375 0.553 -56.004 0.829 33.55 0.829 33.55 0.553 -56.004
2246.333 0.548 -56.337 0.832 33.211 0.832 33.211 0.548 -56.337
2271.292 0.543 -56.666 0.836 32.877 0.836 32.877 0.543 -56.666
2296.25 0.538 -56.99 0.839 32.547 0.839 32.547 0.538 -56.99
2321.208 0.533 -57.31 0.842 32.221 0.842 32.221 0.533 -57.31
2346.167 0.528 -57.625 0.845 31.899 0.845 31.899 0.528 -57.625
2371.125 0.524 -57.937 0.847 31.582 0.847 31.582 0.524 -57.937
2396.083 0.519 -58.244 0.85 31.268 0.85 31.268 0.519 -58.244
2421.042 0.514 -58.548 0.853 30.959 0.853 30.959 0.514 -58.548
2446 0.51 -58.848 0.856 30.653 0.856 30.653 0.51 -58.848
2470.958 0.505 -59.143 0.858 30.351 0.858 30.351 0.505 -59.143
2495.917 0.501 -59.435 0.861 30.053 0.861 30.053 0.501 -59.435
2520.875 0.496 -59.724 0.864 29.759 0.864 29.759 0.496 -59.724
2545.833 0.492 -60.008 0.866 29.468 0.866 29.468 0.492 -60.008
2570.792 0.488 -60.289 0.869 29.181 0.869 29.181 0.488 -60.289
2595.75 0.483 -60.567 0.871 28.897 0.871 28.897 0.483 -60.567
2620.708 0.479 -60.841 0.873 28.617 0.873 28.617 0.479 -60.841
2645.667 0.475 -61.112 0.876 28.34 0.876 28.34 0.475 -61.112
2670.625 0.471 -61.379 0.878 28.066 0.878 28.066 0.471 -61.379
2695.583 0.466 -61.643 0.88 27.796 0.88 27.796 0.466 -61.643
2720.542 0.462 -61.904 0.882 27.528 0.882 27.528 0.462 -61.904
2745.5 0.458 -62.162 0.884 27.264 0.884 27.264 0.458 -62.162
2770.458 0.454 -62.416 0.886 27.003 0.886 27.003 0.454 -62.416
2795.417 0.45 -62.668 0.888 26.745 0.888 26.745 0.45 -62.668
2820.375 0.446 -62.916 0.89 26.49 0.89 26.49 0.446 -62.916
2845.333 0.442 -63.162 0.892 26.238 0.892 26.238 0.442 -63.162
2870.292 0.438 -63.405 0.894 25.989 0.894 25.989 0.438 -63.405
2895.25 0.434 -63.644 0.896 25.742 0.896 25.742 0.434 -63.644
2920.208 0.431 -63.881 0.898 25.498 0.898 25.498 0.431 -63.881
2945.167 0.427 -64.116 0.9 25.257 0.9 25.257 0.427 -64.116
2970.125 0.423 -64.347 0.901 25.019 0.901 25.019 0.423 -64.347
2995.083 0.419 -64.576 0.903 24.783 0.903 24.783 0.419 -64.576
3020.042 0.416 -64.802 0.905 24.55 0.905 24.55 0.416 -64.802
3045 0.412 -65.026 0.907 24.32 0.907 24.32 0.412 -65.026
3069.958 0.408 -65.247 0.908 24.092 0.908 24.092 0.408 -65.247
3094.917 0.405 -65.465 0.91 23.866 0.91 23.866 0.405 -65.465
3119.875 0.401 -65.681 0.911 23.643 0.911 23.643 0.401 -65.681
3144.833 0.398 -65.895 0.913 23.422 0.913 23.422 0.398 -65.895
3169.792 0.394 -66.106 0.914 23.203 0.914 23.203 0.394 -66.106
3194.75 0.391 -66.315 0.916 22.987 0.916 22.987 0.391 -66.315
3219.708 0.387 -66.522 0.917 22.773 0.917 22.773 0.387 -66.522
3244.667 0.384 -66.726 0.919 22.561 0.919 22.561 0.384 -66.726
3269.625 0.38 -66.929 0.92 22.352 0.92 22.352 0.38 -66.929
3294.583 0.377 -67.129 0.921 22.144 0.921 22.144 0.377 -67.129
3319.542 0.374 -67.326 0.923 21.939 0.923 21.939 0.374 -67.326
3344.5 0.37 -67.522 0.924 21.736 0.924 21.736 0.37 -67.522
3369.458 0.367 -67.716 0.925 21.535 0.925 21.535 0.367 -67.716
3394.417 0.364 -67.907 0.927 21.335 0.927 21.335 0.364 -67.907
3419.375 0.361 -68.097 0.928 21.138 0.928 21.138 0.361 -68.097
3444.333 0.357 -68.284 0.929 20.943 0.929 20.943 0.357 -68.284
3469.292 0.354 -68.47 0.93 20.749 0.93 20.749 0.354 -68.47
3494.25 0.351 -68.653 0.931 20.558 0.931 20.558 0.351 -68.653
3519.208 0.348 -68.835 0.933 20.368 0.933 20.368 0.348 -68.835
3544.167 0.345 -69.015 0.934 20.18 0.934 20.18 0.345 -69.015
3569.125 0.342 -69.193 0.935 19.994 0.935 19.994 0.342 -69.193
3594.083 0.339 -69.369 0.936 19.81 0.936 19.81 0.339 -69.369
3619.042 0.336 -69.543 0.937 19.628 0.937 19.628 0.336 -69.543
3644 0.333 -69.715 0.938 19.447 0.938 19.447 0.333 -69.715
3668.958 0.33 -69.886 0.939 19.267 0.939 19.267 0.33 -69.886
3693.917 0.327 -70.055 0.94 19.09 0.94 19.09 0.327 -70.055
3718.875 0.324 -70.223 0.941 18.914 0.941 18.914 0.324 -70.223
3743.833 0.321 -70.388 0.942 18.74 0.942 18.74 0.321 -70.388
3768.792 0.318 -70.552 0.943 18.567 0.943 18.567 0.318 -70.552
3793.75 0.316 -70.715 0.944 18.396 0.944 18.396 0.316 -70.715
3818.708 0.313 -70.876 0.945 18.226 0.945 18.226 0.313 -70.876
3843.667 0.31 -71.035 0.946 18.058 0.946 18.058 0.31 -71.035
3868.625 0.307 -71.192 0.947 17.891 0.947 17.891 0.307 -71.192
3893.583 0.305 -71.348 0.948 17.726 0.948 17.726 0.305 -71.348
3918.542 0.302 -71.503 0.948 17.562 0.948 17.562 0.302 -71.503
3943.5 0.299 -71.656 0.949 17.4 0.949 17.4 0.299 -71.656
3968.458 0.296 -71.808 0.95 17.239 0.95 17.239 0.296 -71.808
3993.417 0.294 -71.958 0.951 17.079 0.951 17.079 0.294 -71.958
4018.375 0.291 -72.107 0.952 16.921 0.952 16.921 0.291 -72.107
4043.333 0.288 -72.254 0.953 16.764 0.953 16.764 0.288 -72.254
4068.292 0.286 -72.4 0.953 16.608 0.953 16.608 0.286 -72.4
4093.25 0.283 -72.544 0.954 16.454 0.954 16.454 0.283 -72.544
4118.208 0.281 -72.687 0.955 16.301 0.955 16.301 0.281 -72.687
4143.167 0.278 -72.829 0.956 16.149 0.956 16.149 0.278 -72.829
4168.125 0.276 -72.97 0.956 15.999 0.956 15.999 0.276 -72.97
4193.083 0.273 -73.109 0.957 15.849 0.957 15.849 0.273 -73.109
4218.042 0.271 -73.246 0.958 15.701 0.958 15.701 0.271 -73.246
4243 0.268 -73.383 0.958 15.554 0.958 15.554 0.268 -73.383
4267.958 0.266 -73.518 0.959 15.408 0.959 15.408 0.266 -73.518
4292.917 0.263 -73.652 0.96 15.264 0.96 15.264 0.263 -73.652
4317.875 0.261 -73.785 0.96 15.12 0.96 15.12 0.261 -73.785
4342.833 0.258 -73.916 0.961 14.978 0.961 14.978 0.258 -73.916
4367.792 0.256 -74.047 0.962 14.837 0.962 14.837 0.256 -74.047
4392.75 0.254 -74.176 0.962 14.696 0.962 14.696 0.254 -74.176
4417.708 0.251 -74.304 0.963 14.557 0.963 14.557 0.251 -74.304
4442.667 0.249 -74.43 0.963 14.419 0.963 14.419 0.249 -74.43
4467.625 0.247 -74.556 0.964 14.282 0.964 14.282 0.247 -74.556
4492.583 0.244 -74.68 0.965 14.146 0.965 14.146 0.244 -74.68
4517.542 0.242 -74.804 0.965 14.011 0.965 14.011 0.242 -74.804
4542.5 0.24 -74.926 0.966 13.877 0.966 13.877 0.24 -74.926
4567.458 0.238 -75.047 0.966 13.744 0.966 13.744 0.238 -75.047
4592.417 0.235 -75.167 0.967 13.612 0.967 13.612 0.235 -75.167
4617.375 0.233 -75.285 0.967 13.481 0.967 13.481 0.233 -75.285
4642.333 0.231 -75.403 0.968 13.351 0.968 13.351 0.231 -75.403
4667.292 0.229 -75.52 0.968 13.221 0.968 13.221 0.229 -75.52
4692.25 0.227 -75.635 0.969 13.093 0.969 13.093 0.227 -75.635
4717.208 0.224 -75.75 0.969 12.966 0.969 12.966 0.224 -75.75
4742.167 0.222 -75.863 0.97 12.839 0.97 12.839 0.222 -75.863
4767.125 0.22 -75.976 0.97 12.713 0.97 12.713 0.22 -75.976
4792.083 0.218 -76.087 0.971 12.589 0.971 12.589 0.218 -76.087
4817.042 0.216 -76.197 0.971 12.465 0.971 12.465 0.216 -76.197
4842 0.214 -76.307 0.972 12.342 0.972 12.342 0.214 -76.307
4866.958 0.212 -76.415 0.972 12.219 0.972 12.219 0.212 -76.415
4891.917 0.21 -76.522 0.973 12.098 0.973 12.098 0.21 -76.522
4916.875 0.208 -76.628 0.973 11.977 0.973 11.977 0.208 -76.628
4941.833 0.206 -76.734 0.974 11.857 0.974 11.857 0.206 -76.734
4966.792 0.204 -76.838 0.974 11.738 0.974 11.738 0.204 -76.838
4991.75 0.201 -76.941 0.974 11.62 0.974 11.62 0.201 -76.941
5016.708 0.199 -77.044 0.975 11.503 0.975 11.503 0.199 -77.044
5041.667 0.197 -77.145 0.975 11.386 0.975 11.386 0.197 -77.145
5066.625 0.196 -77.246 0.976 11.27 0.976 11.27 0.196 -77.246
5091.583 0.194 -77.345 0.976 11.155 0.976 11.155 0.194 -77.345
5116.542 0.192 -77.444 0.976 11.04 0.976 11.04 0.192 -77.444
5141.5 0.19 -77.541 0.977 10.927 0.977 10.927 0.19 -77.541
5166.458 0.188 -77.638 0.977 10.814 0.977 10.814 0.188 -77.638
5191.417 0.186 -77.733 0.978 10.701 0.978 10.701 0.186 -77.733
5216.375 0.184 -77.828 0.978 10.59 0.978 10.59 0.184 -77.828
5241.333 0.182 -77.922 0.978 10.479 0.978 10.479 0.182 -77.922
5266.292 0.18 -78.015 0.979 10.369 0.979 10.369 0.18 -78.015
5291.25 0.178 -78.107 0.979 10.259 0.979 10.259 0.178 -78.107
5316.208 0.176 -78.198 0.979 10.15 0.979 10.15 0.176 -78.198
5341.167 0.174 -78.288 0.98 10.042 0.98 10.042 0.174 -78.288
5366.125 0.173 -78.377 0.98 9.934 0.98 9.934 0.173 -78.377
5391.083 0.171 -78.465 0.98 9.827 0.98 9.827 0.171 -78.465
5416.042 0.169 -78.553 0.981 9.721 0.981 9.721 0.169 -78.553
5441 0.167 -78.639 0.981 9.615 0.981 9.615 0.167 -78.639
5465.958 0.165 -78.724 0.981 9.51 0.981 9.51 0.165 -78.724
5490.917 0.164 -78.809 0.981 9.406 0.981 9.406 0.164 -78.809
5515.875 0.162 -78.893 0.982 9.302 0.982 9.302 0.162 -78.893
5540.833 0.16 -78.975 0.982 9.198 0.982 9.198 0.16 -78.975
5565.792 0.158 -79.057 0.982 9.096 0.982 9.096 0.158 -79.057
5590.75 0.156 -79.138 0.983 8.994 0.983 8.994 0.156 -79.138
5615.708 0.155 -79.218 0.983 8.892 0.983 8.892 0.155 -79.218
5640.667 0.153 -79.297 0.983 8.791 0.983 8.791 0.153 -79.297
5665.625 0.151 -79.375 0.983 8.691 0.983 8.691 0.151 -79.375
5690.583 0.149 -79.452 0.984 8.591 0.984 8.591 0.149 -79.452
5715.542 0.148 -79.528 0.984 8.491 0.984 8.491 0.148 -79.528
5740.5 0.146 -79.603 0.984 8.393 0.984 8.393 0.146 -79.603
5765.458 0.144 -79.677 0.984 8.294 0.984 8.294 0.144 -79.677
5790.417 0.143 -79.75 0.985 8.197 0.985 8.197 0.143 -79.75
5815.375 0.141 -79.823 0.985 8.099 0.985 8.099 0.141 -79.823
5840.333 0.139 -79.894 0.985 8.003 0.985 8.003 0.139 -79.894
5865.292 0.138 -79.964 0.985 7.907 0.985 7.907 0.138 -79.964
5890.25 0.136 -80.033 0.986 7.811 0.986 7.811 0.136 -80.033
5915.208 0.134 -80.102 0.986 7.716 0.986 7.716 0.134 -80.102
5940.167 0.133 -80.169 0.986 7.621 0.986 7.621 0.133 -80.169
5965.125 0.131 -80.235 0.986 7.527 0.986 7.527 0.131 -80.235
5990.083 0.129 -80.3 0.986 7.433 0.986 7.433 0.129 -80.3
6015.042 0.128 -80.365 0.987 7.34 0.987 7.34 0.128 -80.365
6040 0.126 -80.428 0.987 7.247 0.987 7.247 0.126 -80.428
6064.958 0.125 -80.49 0.987 7.155 0.987 7.155 0.125 -80.49
6089.917 0.123 -80.551 0.987 7.063 0.987 7.063 0.123 -80.551
6114.875 0.121 -80.61 0.987 6.972 0.987 6.972 0.121 -80.61
6139.833 0.12 -80.669 0.988 6.881 0.988 6.881 0.12 -80.669
6164.792 0.118 -80.727 0.988 6.79 0.988 6.79 0.118 -80.727
6189.75 0.117 -80.783 0.988 6.7 0.988 6.7 0.117 -80.783
6214.708 0.115 -80.838 0.988 6.611 0.988 6.611 0.115 -80.838
6239.667 0.114 -80.892 0.988 6.521 0.988 6.521 0.114 -80.892
6264.625 0.112 -80.945 0.989 6.433 0.989 6.433 0.112 -80.945
6289.583 0.111 -80.997 0.989 6.344 0.989 6.344 0.111 -80.997
6314.542 0.109 -81.047 0.989 6.256 0.989 6.256 0.109 -81.047
6339.5 0.108 -81.096 0.989 6.169 0.989 6.169 0.108 -81.096
6364.458 0.106 -81.144 0.989 6.082 0.989 6.082 0.106 -81.144
6389.417 0.105 -81.19 0.989 5.995 0.989 5.995 0.105 -81.19
6414.375 0.103 -81.235 0.99 5.909 0.99 5.909 0.103 -81.235
6439.333 0.102 -81.278 0.99 5.823 0.99 5.823 0.102 -81.278
6464.292 0.1 -81.32 0.99 5.738 0.99 5.738 0.1 -81.32
6489.25 0.099 -81.361 0.99 5.653 0.99 5.653 0.099 -81.361
6514.208 0.097 -81.4 0.99 5.568 0.99 5.568 0.097 -81.4
6539.167 0.096 -81.438 0.99 5.484 0.99 5.484 0.096 -81.438
6564.125 0.094 -81.473 0.99 5.4 0.99 5.4 0.094 -81.473
6589.083 0.093 -81.508 0.991 5.316 0.991 5.316 0.093 -81.508
6614.042 0.091 -81.54 0.991 5.233 0.991 5.233 0.091 -81.54
6639 0.09 -81.571 0.991 5.15 0.991 5.15 0.09 -81.571
6663.958 0.088 -81.6 0.991 5.068 0.991 5.068 0.088 -81.6
6688.917 0.087 -81.627 0.991 4.985 0.991 4.985 0.087 -81.627
6713.875 0.086 -81.652 0.991 4.904 0.991 4.904 0.086 -81.652
6738.833 0.084 -81.675 0.991 4.822 0.991 4.822 0.084 -81.675
6763.792 0.083 -81.696 0.991 4.741 0.991 4.741 0.083 -81.696
6788.75 0.081 -81.715 0.992 4.66 0.992 4.66 0.081 -81.715
6813.708 0.08 -81.732 0.992 4.58 0.992 4.58 0.08 -81.732
6838.667 0.079 -81.746 0.992 4.5 0.992 4.5 0.079 -81.746
6863.625 0.077 -81.758 0.992 4.42 0.992 4.42 0.077 -81.758
6888.583 0.076 -81.768 0.992 4.341 0.992 4.341 0.076 -81.768
6913.542 0.074 -81.774 0.992 4.262 0.992 4.262 0.074 -81.774
6938.5 0.073 -81.779 0.992 4.183 0.992 4.183 0.073 -81.779
6963.458 0.072 -81.78 0.992 4.105 0.992 4.105 0.072 -81.78
6988.417 0.07 -81.778 0.992 4.027 0.992 4.027 0.07 -81.778
7013.375 0.069 -81.773 0.992 3.949 0.992 3.949 0.069 -81.773
7038.333 0.068 -81.765 0.993 3.871 0.993 3.871 0.068 -81.765
7063.292 0.066 -81.754 0.993 3.794 0.993 3.794 0.066 -81.754
7088.25 0.065 -81.739 0.993 3.717 0.993 3.717 0.065 -81.739
7113.208 0.064 -81.72 0.993 3.641 0.993 3.641 0.064 -81.72
7138.167 0.062 -81.697 0.993 3.565 0.993 3.565 0.062 -81.697
7163.125 0.061 -81.67 0.993 3.489 0.993 3.489 0.061 -81.67
7188.083 0.06 -81.639 0.993 3.413 0.993 3.413 0.06 -81.639
7213.042 0.058 -81.603 0.993 3.338 0.993 3.338 0.058 -81.603
7238 0.057 -81.562 0.993 3.263 0.993 3.263 0.057 -81.562
7262.958 0.056 -81.515 0.993 3.188 0.993 3.188 0.056 -81.515
7287.917 0.055 -81.464 0.993 3.113 0.993 3.113 0.055 -81.464
7312.875 0.053 -81.406 0.993 3.039 0.993 3.039 0.053 -81.406
7337.833 0.052 -81.342 0.994 2.965 0.994 2.965 0.052 -81.342
7362.792 0.051 -81.271 0.994 2.891 0.994 2.891 0.051 -81.271
7387.75 0.049 -81.194 0.994 2.818 0.994 2.818 0.049 -81.194
7412.708 0.048 -81.108 0.994 2.745 0.994 2.745 0.048 -81.108
7437.667 0.047 -81.014 0.994 2.672 0.994 2.672 0.047 -81.014
7462.625 0.046 -80.912 0.994 2.599 0.994 2.599 0.046 -80.912
7487.583 0.044 -80.8 0.994 2.527 0.994 2.527 0.044 -80.8
7512.542 0.043 -80.678 0.994 2.455 0.994 2.455 0.043 -80.678
7537.5 0.042 -80.544 0.994 2.383 0.994 2.383 0.042 -80.544
7562.458 0.041 -80.399 0.994 2.312 0.994 2.312 0.041 -80.399
7587.417 0.039 -80.241 0.994 2.24 0.994 2.24 0.039 -80.241
7612.375 0.038 -80.068 0.994 2.169 0.994 2.169 0.038 -80.068
7637.333 0.037 -79.88 0.994 2.099 0.994 2.099 0.037 -79.88
7662.292 0.036 -79.675 0.994 2.028 0.994 2.028 0.036 -79.675
7687.25 0.035 -79.452 0.994 1.958 0.994 1.958 0.035 -79.452
7712.208 0.033 -79.208 0.994 1.888 0.994 1.888 0.033 -79.208
7737.167 0.032 -78.941 0.994 1.818 0.994 1.818 0.032 -78.941
7762.125 0.031 -78.649 0.994 1.748 0.994 1.748 0.031 -78.649
7787.083 0.03 -78.33 0.994 1.679 0.994 1.679 0.03 -78.33
7812.042 0.029 -77.979 0.994 1.61 0.994 1.61 0.029 -77.979
7837 0.027 -77.593 0.994 1.541 0.994 1.541 0.027 -77.593
7861.958 0.026 -77.167 0.995 1.472 0.995 1.472 0.026 -77.167
7886.917 0.025 -76.697 0.995 1.404 0.995 1.404 0.025 -76.697
7911.875 0.024 -76.176 0.995 1.336 0.995 1.336 0.024 -76.176
7936.833 0.023 -75.597 0.995 1.268 0.995 1.268 0.023 -75.597
7961.792 0.022 -74.95 0.995 1.2 0.995 1.2 0.022 -74.95
7986.75 0.02 -74.226 0.995 1.132 0.995 1.132 0.02 -74.226
8011.708 0.019 -73.411 0.995 1.065 0.995 1.065 0.019 -73.411
8036.667 0.018 -72.489 0.995 0.998 0.995 0.998 0.018 -72.489
8061.625 0.017 -71.441 0.995 0.931 0.995 0.931 0.017 -71.441
8086.583 0.016 -70.241 0.995 0.864 0.995 0.864 0.016 -70.241
8111.542 0.015 -68.858 0.995 0.798 0.995 0.798 0.015 -68.858
8136.5 0.014 -67.251 0.995 0.732 0.995 0.732 0.014 -67.251
8161.458 0.013 -65.369 0.995 0.666 0.995 0.666 0.013 -65.369
8186.417 0.012 -63.143 0.995 0.6 0.995 0.6 0.012 -63.143
8211.375 0.011 -60.482 0.995 0.534 0.995 0.534 0.011 -60.482
8236.333 9.673e-3 -57.268 0.995 0.469 0.995 0.469 9.673e-3 -57.268
8261.292 8.731e-3 -53.342 0.995 0.403 0.995 0.403 8.731e-3 -53.342
8286.25 7.845e-3 -48.498 0.995 0.338 0.995 0.338 7.845e-3 -48.498
8311.208 7.032e-3 -42.484 0.995 0.274 0.995 0.274 7.032e-3 -42.484
8336.167 6.321e-3 -35.019 0.995 0.209 0.995 0.209 6.321e-3 -35.019
8361.125 5.746e-3 -25.883 0.995 0.144 0.995 0.144 5.746e-3 -25.883
8386.083 5.35e-3 -15.092 0.995 0.08 0.995 0.08 5.35e-3 -15.092
8411.042 5.171e-3 -3.112 0.995 0.016 0.995 0.016 5.171e-3 -3.112
8436 5.23e-3 9.111 0.995 -0.048 0.995 -0.048 5.23e-3 9.111
8460.958 5.517e-3 20.518 0.995 -0.111 0.995 -0.111 5.517e-3 20.518
8485.917 5.998e-3 30.411 0.995 -0.175 0.995 -0.175 5.998e-3 30.411
8510.875 6.629e-3 38.597 0.995 -0.238 0.995 -0.238 6.629e-3 38.597
8535.833 7.37e-3 45.221 0.995 -0.301 0.995 -0.301 7.37e-3 45.221
8560.792 8.19e-3 50.551 0.995 -0.364 0.995 -0.364 8.19e-3 50.551
8585.75 9.066e-3 54.856 0.995 -0.427 0.995 -0.427 9.066e-3 54.856
8610.708 9.983e-3 58.366 0.995 -0.49 0.995 -0.49 9.983e-3 58.366
8635.667 0.011 61.258 0.995 -0.552 0.995 -0.552 0.011 61.258
8660.625 0.012 63.667 0.995 -0.614 0.995 -0.614 0.012 63.667
8685.583 0.013 65.696 0.995 -0.676 0.995 -0.676 0.013 65.696
8710.542 0.014 67.421 0.995 -0.738 0.995 -0.738 0.014 67.421
8735.5 0.015 68.902 0.995 -0.8 0.995 -0.8 0.015 68.902
8760.458 0.016 70.184 0.995 -0.861 0.995 -0.861 0.016 70.184
8785.417 0.017 71.301 0.995 -0.923 0.995 -0.923 0.017 71.301
8810.375 0.018 72.282 0.995 -0.984 0.995 -0.984 0.018 72.282
8835.333 0.019 73.148 0.995 -1.045 0.995 -1.045 0.019 73.148
8860.292 0.02 73.917 0.995 -1.106 0.995 -1.106 0.02 73.917
8885.25 0.021 74.604 0.995 -1.166 0.995 -1.166 0.021 74.604
8910.208 0.022 75.219 0.995 -1.227 0.995 -1.227 0.022 75.219
8935.167 0.023 75.772 0.995 -1.287 0.995 -1.287 0.023 75.772
8960.125 0.024 76.272 0.995 -1.348 0.995 -1.348 0.024 76.272
8985.083 0.025 76.725 0.995 -1.408 0.995 -1.408 0.025 76.725
9010.042 0.026 77.137 0.995 -1.468 0.995 -1.468 0.026 77.137
9035 0.027 77.512 0.994 -1.527 0.994 -1.527 0.027 77.512
9059.958 0.028 77.855 0.994 -1.587 0.994 -1.587 0.028 77.855
9084.917 0.029 78.168 0.994 -1.646 0.994 -1.646 0.029 78.168
9109.875 0.03 78.456 0.994 -1.705 0.994 -1.705 0.03 78.456
9134.833 0.031 78.721 0.994 -1.765 0.994 -1.765 0.031 78.721
9159.792 0.032 78.964 0.994 -1.824 0.994 -1.824 0.032 78.964
9184.75 0.033 79.189 0.994 -1.882 0.994 -1.882 0.033 79.189
9209.708 0.034 79.396 0.994 -1.941 0.994 -1.941 0.034 79.396
9234.667 0.035 79.587 0.994 -2 0.994 -2 0.035 79.587
9259.625 0.036 79.765 0.994 -2.058 0.994 -2.058 0.036 79.765
9284.583 0.037 79.929 0.994 -2.116 0.994 -2.116 0.037 79.929
9309.542 0.038 80.081 0.994 -2.174 0.994 -2.174 0.038 80.081
9334.5 0.039 80.221 0.994 -2.232 0.994 -2.232 0.039 80.221
9359.458 0.04 80.352 0.994 -2.29 0.994 -2.29 0.04 80.352
9384.417 0.041 80.474 0.994 -2.348 0.994 -2.348 0.041 80.474
9409.375 0.042 80.586 0.994 -2.405 0.994 -2.405 0.042 80.586
9434.333 0.043 80.691 0.994 -2.462 0.994 -2.462 0.043 80.691
9459.292 0.044 80.788 0.994 -2.52 0.994 -2.52 0.044 80.788
9484.25 0.045 80.878 0.994 -2.577 0.994 -2.577 0.045 80.878
9509.208 0.046 80.961 0.994 -2.634 0.994 -2.634 0.046 80.961
9534.167 0.047 81.039 0.994 -2.69 0.994 -2.69 0.047 81.039
9559.125 0.048 81.111 0.994 -2.747 0.994 -2.747 0.048 81.111
9584.083 0.049 81.177 0.994 -2.804 0.994 -2.804 0.049 81.177
9609.042 0.05 81.239 0.994 -2.86 0.994 -2.86 0.05 81.239
9634 0.051 81.296 0.994 -2.916 0.994 -2.916 0.051 81.296
9658.958 0.052 81.349 0.993 -2.972 0.993 -2.972 0.052 81.349
9683.917 0.053 81.397 0.993 -3.028 0.993 -3.028 0.053 81.397
9708.875 0.054 81.442 0.993 -3.084 0.993 -3.084 0.054 81.442
9733.833 0.055 81.483 0.993 -3.14 0.993 -3.14 0.055 81.483
9758.792 0.056 81.521 0.993 -3.196 0.993 -3.196 0.056 81.521
9783.75 0.057 81.555 0.993 -3.251 0.993 -3.251 0.057 81.555
9808.708 0.058 81.586 0.993 -3.307 0.993 -3.307 0.058 81.586
9833.667 0.059 81.615 0.993 -3.362 0.993 -3.362 0.059 81.615
9858.625 0.06 81.64 0.993 -3.417 0.993 -3.417 0.06 81.64
9883.583 0.061 81.663 0.993 -3.472 0.993 -3.472 0.061 81.663
9908.542 0.062 81.684 0.993 -3.527 0.993 -3.527 0.062 81.684
9933.5 0.063 81.702 0.993 -3.582 0.993 -3.582 0.063 81.702
9958.458 0.064 81.719 0.993 -3.636 0.993 -3.636 0.064 81.719
9983.417 0.065 81.733 0.993 -3.691 0.993 -3.691 0.065 81.733
10008.375 0.066 81.744 0.993 -3.745 0.993 -3.745 0.066 81.744
10033.333 0.066 81.755 0.993 -3.799 0.993 -3.799 0.066 81.755
10058.292 0.067 81.763 0.993 -3.854 0.993 -3.854 0.067 81.763
10083.25 0.068 81.769 0.993 -3.908 0.993 -3.908 0.068 81.769
10108.208 0.069 81.774 0.992 -3.961 0.992 -3.961 0.069 81.774
10133.167 0.07 81.778 0.992 -4.015 0.992 -4.015 0.07 81.778
10158.125 0.071 81.779 0.992 -4.069 0.992 -4.069 0.071 81.779
10183.083 0.072 81.78 0.992 -4.123 0.992 -4.123 0.072 81.78
10208.042 0.073 81.779 0.992 -4.176 0.992 -4.176 0.073 81.779
10233 0.074 81.776 0.992 -4.229 0.992 -4.229 0.074 81.776
10257.958 0.075 81.773 0.992 -4.283 0.992 -4.283 0.075 81.773
10282.917 0.076 81.768 0.992 -4.336 0.992 -4.336 0.076 81.768
10307.875 0.077 81.762 0.992 -4.389 0.992 -4.389 0.077 81.762
10332.833 0.078 81.755 0.992 -4.442 0.992 -4.442 0.078 81.755
10357.792 0.079 81.747 0.992 -4.494 0.992 -4.494 0.079 81.747
10382.75 0.079 81.738 0.992 -4.547 0.992 -4.547 0.079 81.738
10407.708 0.08 81.728 0.992 -4.6 0.992 -4.6 0.08 81.728
10432.667 0.081 81.717 0.992 -4.652 0.992 -4.652 0.081 81.717
10457.625 0.082 81.705 0.991 -4.704 0.991 -4.704 0.082 81.705
10482.583 0.083 81.692 0.991 -4.757 0.991 -4.757 0.083 81.692
10507.542 0.084 81.679 0.991 -4.809 0.991 -4.809 0.084 81.679
10532.5 0.085 81.665 0.991 -4.861 0.991 -4.861 0.085 81.665
10557.458 0.086 81.649 0.991 -4.913 0.991 -4.913 0.086 81.649
10582.417 0.087 81.634 0.991 -4.965 0.991 -4.965 0.087 81.634
10607.375 0.088 81.617 0.991 -5.016 0.991 -5.016 0.088 81.617
10632.333 0.088 81.6 0.991 -5.068 0.991 -5.068 0.088 81.6
10657.292 0.089 81.582 0.991 -5.12 0.991 -5.12 0.089 81.582
10682.25 0.09 81.563 0.991 -5.171 0.991 -5.171 0.09 81.563
10707.208 0.091 81.544 0.991 -5.222 0.991 -5.222 0.091 81.544
10732.167 0.092 81.525 0.991 -5.274 0.991 -5.274 0.092 81.525
10757.125 0.093 81.504 0.991 -5.325 0.991 -5.325 0.093 81.504
10782.083 0.094 81.483 0.99 -5.376 0.99 -5.376 0.094 81.483
10807.042 0.095 81.462 0.99 -5.427 0.99 -5.427 0.095 81.462
10832 0.096 81.44 0.99 -5.477 0.99 -5.477 0.096 81.44
10856.958 0.096 81.418 0.99 -5.528 0.99 -5.528 0.096 81.418
10881.917 0.097 81.395 0.99 -5.579 0.99 -5.579 0.097 81.395
10906.875 0.098 81.372 0.99 -5.629 0.99 -5.629 0.098 81.372
10931.833 0.099 81.348 0.99 -5.68 0.99 -5.68 0.099 81.348
10956.792 0.1 81.324 0.99 -5.73 0.99 -5.73 0.1 81.324
10981.75 0.101 81.3 0.99 -5.78 0.99 -5.78 0.101 81.3
11006.708 0.102 81.275 0.99 -5.831 0.99 -5.831 0.102 81.275
11031.667 0.103 81.249 0.99 -5.881 0.99 -5.881 0.103 81.249
11056.625 0.103 81.224 0.99 -5.931 0.99 -5.931 0.103 81.224
11081.583 0.104 81.198 0.989 -5.981 0.989 -5.981 0.104 81.198
11106.542 0.105 81.171 0.989 -6.03 0.989 -6.03 0.105 81.171
11131.5 0.106 81.145 0.989 -6.08 0.989 -6.08 0.106 81.145
11156.458 0.107 81.118 0.989 -6.13 0.989 -6.13 0.107 81.118
11181.417 0.108 81.09 0.989 -6.179 0.989 -6.179 0.108 81.09
11206.375 0.109 81.063 0.989 -6.229 0.989 -6.229 0.109 81.063
11231.333 0.109 81.035 0.989 -6.278 0.989 -6.278 0.109 81.035
11256.292 0.11 81.006 0.989 -6.327 0.989 -6.327 0.11 81.006
11281.25 0.111 80.978 0.989 -6.376 0.989 -6.376 0.111 80.978
11306.208 0.112 80.949 0.989 -6.426 0.989 -6.426 0.112 80.949
11331.167 0.113 80.92 0.988 -6.475 0.988 -6.475 0.113 80.92
11356.125 0.114 80.891 0.988 -6.523 0.988 -6.523 0.114 80.891
11381.083 0.115 80.862 0.988 -6.572 0.988 -6.572 0.115 80.862
11406.042 0.115 80.832 0.988 -6.621 0.988 -6.621 0.115 80.832
11431 0.116 80.802 0.988 -6.67 0.988 -6.67 0.116 80.802
11455.958 0.117 80.772 0.988 -6.718 0.988 -6.718 0.117 80.772
11480.917 0.118 80.741 0.988 -6.767 0.988 -6.767 0.118 80.741
11505.875 0.119 80.711 0.988 -6.815 0.988 -6.815 0.119 80.711
11530.833 0.12 80.68 0.988 -6.864 0.988 -6.864 0.12 80.68
11555.792 0.12 80.649 0.988 -6.912 0.988 -6.912 0.12 80.649
11580.75 0.121 80.618 0.988 -6.96 0.988 -6.96 0.121 80.618
11605.708 0.122 80.587 0.987 -7.008 0.987 -7.008 0.122 80.587
11630.667 0.123 80.555 0.987 -7.056 0.987 -7.056 0.123 80.555
11655.625 0.124 80.524 0.987 -7.104 0.987 -7.104 0.124 80.524
11680.583 0.125 80.492 0.987 -7.152 0.987 -7.152 0.125 80.492
11705.542 0.125 80.46 0.987 -7.2 0.987 -7.2 0.125 80.46
11730.5 0.126 80.428 0.987 -7.247 0.987 -7.247 0.126 80.428
11755.458 0.127 80.395 0.987 -7.295 0.987 -7.295 0.127 80.395
11780.417 0.128 80.363 0.987 -7.342 0.987 -7.342 0.128 80.363
11805.375 0.129 80.33 0.987 -7.39 0.987 -7.39 0.129 80.33
11830.333 0.13 80.298 0.986 -7.437 0.986 -7.437 0.13 80.298
11855.292 0.13 80.265 0.986 -7.484 0.986 -7.484 0.13 80.265
11880.25 0.131 80.232 0.986 -7.532 0.986 -7.532 0.131 80.232
11905.208 0.132 80.199 0.986 -7.579 0.986 -7.579 0.132 80.199
11930.167 0.133 80.166 0.986 -7.626 0.986 -7.626 0.133 80.166
11955.125 0.134 80.132 0.986 -7.673 0.986 -7.673 0.134 80.132
11980.083 0.134 80.099 0.986 -7.72 0.986 -7.72 0.134 80.099
12005.042 0.135 80.065 0.986 -7.767 0.986 -7.767 0.135 80.065
12030 0.136 80.032 0.986 -7.813 0.986 -7.813 0.136 80.032
12054.958 0.137 79.998 0.985 -7.86 0.985 -7.86 0.137 79.998
12079.917 0.138 79.964 0.985 -7.907 0.985 -7.907 0.138 79.964
12104.875 0.138 79.93 0.985 -7.953 0.985 -7.953 0.138 79.93
12129.833 0.139 79.896 0.985 -8 0.985 -8 0.139 79.896
12154.792 0.14 79.862 0.985 -8.046 0.985 -8.046 0.14 79.862
12179.75 0.141 79.828 0.985 -8.092 0.985 -8.092 0.141 79.828
12204.708 0.142 79.794 0.985 -8.139 0.985 -8.139 0.142 79.794
12229.667 0.142 79.759 0.985 -8.185 0.985 -8.185 0.142 79.759
12254.625 0.143 79.725 0.985 -8.231 0.985 -8.231 0.143 79.725
12279.583 0.144 79.69 0.984 -8.277 0.984 -8.277 0.144 79.69
12304.542 0.145 79.656 0.984 -8.323 0.984 -8.323 0.145 79.656
12329.5 0.146 79.621 0.984 -8.369 0.984 -8.369 0.146 79.621
12354.458 0.146 79.586 0.984 -8.415 0.984 -8.415 0.146 79.586
12379.417 0.147 79.551 0.984 -8.46 0.984 -8.46 0.147 79.551
12404.375 0.148 79.517 0.984 -8.506 0.984 -8.506 0.148 79.517
12429.333 0.149 79.482 0.984 -8.552 0.984 -8.552 0.149 79.482
12454.292 0.15 79.447 0.984 -8.597 0.984 -8.597 0.15 79.447
12479.25 0.15 79.412 0.984 -8.643 0.984 -8.643 0.15 79.412
12504.208 0.151 79.377 0.983 -8.688 0.983 -8.688 0.151 79.377
12529.167 0.152 79.341 0.983 -8.733 0.983 -8.733 0.152 79.341
12554.125 0.153 79.306 0.983 -8.779 0.983 -8.779 0.153 79.306
12579.083 0.153 79.271 0.983 -8.824 0.983 -8.824 0.153 79.271
12604.042 0.154 79.236 0.983 -8.869 0.983 -8.869 0.154 79.236
12629 0.155 79.2 0.983 -8.914 0.983 -8.914 0.155 79.2
12653.958 0.156 79.165 0.983 -8.959 0.983 -8.959 0.156 79.165
12678.917 0.157 79.129 0.983 -9.004 0.983 -9.004 0.157 79.129
12703.875 0.157 79.094 0.982 -9.049 0.982 -9.049 0.157 79.094
12728.833 0.158 79.058 0.982 -9.094 0.982 -9.094 0.158 79.058
12753.792 0.159 79.023 0.982 -9.139 0.982 -9.139 0.159 79.023
12778.75 0.16 78.987 0.982 -9.183 0.982 -9.183 0.16 78.987
12803.708 0.16 78.952 0.982 -9.228 0.982 -9.228 0.16 78.952
12828.667 0.161 78.916 0.982 -9.272 0.982 -9.272 0.161 78.916
12853.625 0.162 78.88 0.982 -9.317 0.982 -9.317 0.162 78.88
12878.583 0.163 78.845 0.982 -9.361 0.982 -9.361 0.163 78.845
12903.542 0.164 78.809 0.981 -9.406 0.981 -9.406 0.164 78.809
12928.5 0.164 78.773 0.981 -9.45 0.981 -9.45 0.164 78.773
12953.458 0.165 78.737 0.981 -9.494 0.981 -9.494 0.165 78.737
12978.417 0.166 78.701 0.981 -9.538 0.981 -9.538 0.166 78.701
13003.375 0.167 78.666 0.981 -9.583 0.981 -9.583 0.167 78.666
13028.333 0.167 78.63 0.981 -9.627 0.981 -9.627 0.167 78.63
13053.292 0.168 78.594 0.981 -9.671 0.981 -9.671 0.168 78.594
13078.25 0.169 78.558 0.981 -9.715 0.981 -9.715 0.169 78.558
13103.208 0.17 78.522 0.98 -9.758 0.98 -9.758 0.17 78.522
13128.167 0.17 78.486 0.98 -9.802 0.98 -9.802 0.17 78.486
13153.125 0.171 78.45 0.98 -9.846 0.98 -9.846 0.171 78.45
13178.083 0.172 78.414 0.98 -9.89 0.98 -9.89 0.172 78.414
13203.042 0.173 78.378 0.98 -9.933 0.98 -9.933 0.173 78.378
13228 0.173 78.342 0.98 -9.977 0.98 -9.977 0.173 78.342
13252.958 0.174 78.306 0.98 -10.02 0.98 -10.02 0.174 78.306
13277.917 0.175 78.27 0.98 -10.064 0.98 -10.064 0.175 78.27
13302.875 0.176 78.233 0.979 -10.107 0.979 -10.107 0.176 78.233
13327.833 0.176 78.197 0.979 -10.151 0.979 -10.151 0.176 78.197
13352.792 0.177 78.161 0.979 -10.194 0.979 -10.194 0.177 78.161
13377.75 0.178 78.125 0.979 -10.237 0.979 -10.237 0.178 78.125
13402.708 0.179 78.089 0.979 -10.28 0.979 -10.28 0.179 78.089
13427.667 0.179 78.053 0.979 -10.323 0.979 -10.323 0.179 78.053
13452.625 0.18 78.017 0.979 -10.366 0.979 -10.366 0.18 78.017
13477.583 0.181 77.98 0.978 -10.409 0.978 -10.409 0.181 77.98
13502.542 0.181 77.944 0.978 -10.452 0.978 -10.452 0.181 77.944
13527.5 0.182 77.908 0.978 -10.495 0.978 -10.495 0.182 77.908
13552.458 0.183 77.872 0.978 -10.538 0.978 -10.538 0.183 77.872
13577.417 0.184 77.836 0.978 -10.581 0.978 -10.581 0.184 77.836
13602.375 0.184 77.799 0.978 -10.624 0.978 -10.624 0.184 77.799
13627.333 0.185 77.763 0.978 -10.666 0.978 -10.666 0.185 77.763
13652.292 0.186 77.727 0.978 -10.709 0.978 -10.709 0.186 77.727
13677.25 0.187 77.691 0.977 -10.751 0.977 -10.751 0.187 77.691
13702.208 0.187 77.655 0.977 -10.794 0.977 -10.794 0.187 77.655
13727.167 0.188 77.618 0.977 -10.836 0.977 -10.836 0.188 77.618
13752.125 0.189 77.582 0.977 -10.879 0.977 -10.879 0.189 77.582
13777.083 0.19 77.546 0.977 -10.921 0.977 -10.921 0.19 77.546
13802.042 0.19 77.51 0.977 -10.963 0.977 -10.963 0.19 77.51
13827 0.191 77.473 0.977 -11.006 0.977 -11.006 0.191 77.473
13851.958 0.192 77.437 0.976 -11.048 0.976 -11.048 0.192 77.437
13876.917 0.192 77.401 0.976 -11.09 0.976 -11.09 0.192 77.401
13901.875 0.193 77.365 0.976 -11.132 0.976 -11.132 0.193 77.365
13926.833 0.194 77.329 0.976 -11.174 0.976 -11.174 0.194 77.329
13951.792 0.195 77.292 0.976 -11.216 0.976 -11.216 0.195 77.292
13976.75 0.195 77.256 0.976 -11.258 0.976 -11.258 0.195 77.256
14001.708 0.196 77.22 0.976 -11.3 0.976 -11.3 0.196 77.22
14026.667 0.197 77.184 0.975 -11.342 0.975 -11.342 0.197 77.184
14051.625 0.197 77.147 0.975 -11.383 0.975 -11.383 0.197 77.147
14076.583 0.198 77.111 0.975 -11.425 0.975 -11.425 0.198 77.111
14101.542 0.199 77.075 0.975 -11.467 0.975 -11.467 0.199 77.075
14126.5 0.2 77.039 0.975 -11.508 0.975 -11.508 0.2 77.039
14151.458 0.2 77.003 0.975 -11.55 0.975 -11.55 0.2 77.003
14176.417 0.201 76.967 0.975 -11.591 0.975 -11.591 0.201 76.967
14201.375 0.202 76.93 0.974 -11.633 0.974 -11.633 0.202 76.93
14226.333 0.202 76.894 0.974 -11.674 0.974 -11.674 0.202 76.894
14251.292 0.203 76.858 0.974 -11.716 0.974 -11.716 0.203 76.858
14276.25 0.204 76.822 0.974 -11.757 0.974 -11.757 0.204 76.822
14301.208 0.205 76.786 0.974 -11.798 0.974 -11.798 0.205 76.786
14326.167 0.205 76.75 0.974 -11.839 0.974 -11.839 0.205 76.75
14351.125 0.206 76.713 0.974 -11.88 0.974 -11.88 0.206 76.713
14376.083 0.207 76.677 0.973 -11.922 0.973 -11.922 0.207 76.677
14401.042 0.207 76.641 0.973 -11.963 0.973 -11.963 0.207 76.641
14426 0.208 76.605 0.973 -12.004 0.973 -12.004 0.208 76.605
14450.958 0.209 76.569 0.973 -12.045 0.973 -12.045 0.209 76.569
14475.917 0.209 76.533 0.973 -12.086 0.973 -12.086 0.209 76.533
14500.875 0.21 76.497 0.973 -12.126 0.973 -12.126 0.21 76.497
14525.833 0.211 76.461 0.972 -12.167 0.972 -12.167 0.211 76.461
14550.792 0.212 76.425 0.972 -12.208 0.972 -12.208 0.212 76.425
14575.75 0.212 76.389 0.972 -12.249 0.972 -12.249 0.212 76.389
14600.708 0.213 76.353 0.972 -12.289 0.972 -12.289 0.213 76.353
14625.667 0.214 76.317 0.972 -12.33 0.972 -12.33 0.214 76.317
14650.625 0.214 76.281 0.972 -12.371 0.972 -12.371 0.214 76.281
14675.583 0.215 76.245 0.972 -12.411 0.972 -12.411 0.215 76.245
14700.542 0.216 76.209 0.971 -12.452 0.971 -12.452 0.216 76.209
14725.5 0.216 76.173 0.971 -12.492 0.971 -12.492 0.216 76.173
14750.458 0.217 76.137 0.971 -12.532 0.971 -12.532 0.217 76.137
14775.417 0.218 76.101 0.971 -12.573 0.971 -12.573 0.218 76.101
14800.375 0.218 76.065 0.971 -12.613 0.971 -12.613 0.218 76.065
14825.333 0.219 76.029 0.971 -12.653 0.971 -12.653 0.219 76.029
14850.292 0.22 75.993 0.971 -12.694 0.971 -12.694 0.22 75.993
14875.25 0.22 75.957 0.97 -12.734 0.97 -12.734 0.22 75.957
14900.208 0.221 75.921 0.97 -12.774 0.97 -12.774 0.221 75.921
14925.167 0.222 75.886 0.97 -12.814 0.97 -12.814 0.222 75.886
14950.125 0.223 75.85 0.97 -12.854 0.97 -12.854 0.223 75.85
14975.083 0.223 75.814 0.97 -12.894 0.97 -12.894 0.223 75.814
15000.042 0.224 75.778 0.97 -12.934 0.97 -12.934 0.224 75.778
15025 0.225 75.742 0.969 -12.974 0.969 -12.974 0.225 75.742
15049.958 0.225 75.707 0.969 -13.014 0.969 -13.014 0.225 75.707
15074.917 0.226 75.671 0.969 -13.053 0.969 -13.053 0.226 75.671
15099.875 0.227 75.635 0.969 -13.093 0.969 -13.093 0.227 75.635
15124.833 0.227 75.599 0.969 -13.133 0.969 -13.133 0.227 75.599
15149.792 0.228 75.564 0.969 -13.173 0.969 -13.173 0.228 75.564
15174.75 0.229 75.528 0.969 -13.212 0.969 -13.212 0.229 75.528
15199.708 0.229 75.492 0.968 -13.252 0.968 -13.252 0.229 75.492
15224.667 0.23 75.457 0.968 -13.291 0.968 -13.291 0.23 75.457
15249.625 0.231 75.421 0.968 -13.331 0.968 -13.331 0.231 75.421
15274.583 0.231 75.385 0.968 -13.37 0.968 -13.37 0.231 75.385
15299.542 0.232 75.35 0.968 -13.41 0.968 -13.41 0.232 75.35
15324.5 0.233 75.314 0.968 -13.449 0.968 -13.449 0.233 75.314
15349.458 0.233 75.278 0.967 -13.488 0.967 -13.488 0.233 75.278
15374.417 0.234 75.243 0.967 -13.528 0.967 -13.528 0.234 75.243
15399.375 0.235 75.207 0.967 -13.567 0.967 -13.567 0.235 75.207
15424.333 0.235 75.172 0.967 -13.606 0.967 -13.606 0.235 75.172
15449.292 0.236 75.136 0.967 -13.645 0.967 -13.645 0.236 75.136
15474.25 0.237 75.101 0.967 -13.684 0.967 -13.684 0.237 75.101
15499.208 0.237 75.065 0.966 -13.723 0.966 -13.723 0.237 75.065
15524.167 0.238 75.03 0.966 -13.762 0.966 -13.762 0.238 75.03
15549.125 0.239 74.994 0.966 -13.801 0.966 -13.801 0.239 74.994
15574.083 0.239 74.959 0.966 -13.84 0.966 -13.84 0.239 74.959
15599.042 0.24 74.924 0.966 -13.879 0.966 -13.879 0.24 74.924
15624 0.241 74.888 0.966 -13.918 0.966 -13.918 0.241 74.888
15648.958 0.241 74.853 0.965 -13.957 0.965 -13.957 0.241 74.853
15673.917 0.242 74.817 0.965 -13.996 0.965 -13.996 0.242 74.817
15698.875 0.243 74.782 0.965 -14.034 0.965 -14.034 0.243 74.782
15723.833 0.243 74.747 0.965 -14.073 0.965 -14.073 0.243 74.747
15748.792 0.244 74.711 0.965 -14.112 0.965 -14.112 0.244 74.711
15773.75 0.245 74.676 0.965 -14.15 0.965 -14.15 0.245 74.676
15798.708 0.245 74.641 0.964 -14.189 0.964 -14.189 0.245 74.641
15823.667 0.246 74.606 0.964 -14.228 0.964 -14.228 0.246 74.606
15848.625 0.246 74.57 0.964 -14.266 0.964 -14.266 0.246 74.57
15873.583 0.247 74.535 0.964 -14.305 0.964 -14.305 0.247 74.535
15898.542 0.248 74.5 0.964 -14.343 0.964 -14.343 0.248 74.5
15923.5 0.248 74.465 0.964 -14.381 0.964 -14.381 0.248 74.465
15948.458 0.249 74.43 0.963 -14.42 0.963 -14.42 0.249 74.43
15973.417 0.25 74.395 0.963 -14.458 0.963 -14.458 0.25 74.395
15998.375 0.25 74.36 0.963 -14.496 0.963 -14.496 0.25 74.36
16023.333 0.251 74.324 0.963 -14.535 0.963 -14.535 0.251 74.324
16048.292 0.252 74.289 0.963 -14.573 0.963 -14.573 0.252 74.289
16073.25 0.252 74.254 0.963 -14.611 0.963 -14.611 0.252 74.254
16098.208 0.253 74.219 0.962 -14.649 0.962 -14.649 0.253 74.219
16123.167 0.254 74.184 0.962 -14.687 0.962 -14.687 0.254 74.184
16148.125 0.254 74.149 0.962 -14.725 0.962 -14.725 0.254 74.149
16173.083 0.255 74.114 0.962 -14.763 0.962 -14.763 0.255 74.114
16198.042 0.256 74.079 0.962 -14.801 0.962 -14.801 0.256 74.079
16223 0.256 74.045 0.962 -14.839 0.962 -14.839 0.256 74.045
16247.958 0.257 74.01 0.961 -14.877 0.961 -14.877 0.257 74.01
16272.917 0.257 73.975 0.961 -14.915 0.961 -14.915 0.257 73.975
16297.875 0.258 73.94 0.961 -14.952 0.961 -14.952 0.258 73.94
16322.833 0.259 73.905 0.961 -14.99 0.961 -14.99 0.259 73.905
16347.792 0.259 73.87 0.961 -15.028 0.961 -15.028 0.259 73.87
16372.75 0.26 73.835 0.961 -15.066 0.961 -15.066 0.26 73.835
16397.708 0.261 73.801 0.96 -15.103 0.96 -15.103 0.261 73.801
16422.667 0.261 73.766 0.96 -15.141 0.96 -15.141 0.261 73.766
16447.625 0.262 73.731 0.96 -15.179 0.96 -15.179 0.262 73.731
16472.583 0.263 73.696 0.96 -15.216 0.96 -15.216 0.263 73.696
16497.542 0.263 73.662 0.96 -15.254 0.96 -15.254 0.263 73.662
16522.5 0.264 73.627 0.96 -15.291 0.96 -15.291 0.264 73.627
16547.458 0.264 73.592 0.959 -15.328 0.959 -15.328 0.264 73.592
16572.417 0.265 73.558 0.959 -15.366 0.959 -15.366 0.265 73.558
16597.375 0.266 73.523 0.959 -15.403 0.959 -15.403 0.266 73.523
16622.333 0.266 73.488 0.959 -15.441 0.959 -15.441 0.266 73.488
16647.292 0.267 73.454 0.959 -15.478 0.959 -15.478 0.267 73.454
16672.25 0.268 73.419 0.959 -15.515 0.959 -15.515 0.268 73.419
16697.208 0.268 73.385 0.958 -15.552 0.958 -15.552 0.268 73.385
16722.167 0.269 73.35 0.958 -15.589 0.958 -15.589 0.269 73.35
16747.125 0.269 73.316 0.958 -15.627 0.958 -15.627 0.269 73.316
16772.083 0.27 73.281 0.958 -15.664 0.958 -15.664 0.27 73.281
16797.042 0.271 73.247 0.958 -15.701 0.958 -15.701 0.271 73.247
16822 0.271 73.212 0.958 -15.738 0.958 -15.738 0.271 73.212
16846.958 0.272 73.178 0.957 -15.775 0.957 -15.775 0.272 73.178
16871.917 0.273 73.144 0.957 -15.812 0.957 -15.812 0.273 73.144
16896.875 0.273 73.109 0.957 -15.849 0.957 -15.849 0.273 73.109
16921.833 0.274 73.075 0.957 -15.886 0.957 -15.886 0.274 73.075
16946.792 0.274 73.041 0.957 -15.922 0.957 -15.922 0.274 73.041
16971.75 0.275 73.006 0.956 -15.959 0.956 -15.959 0.275 73.006
16996.708 0.276 72.972 0.956 -15.996 0.956 -15.996 0.276 72.972
17021.667 0.276 72.938 0.956 -16.033 0.956 -16.033 0.276 72.938
17046.625 0.277 72.903 0.956 -16.07 0.956 -16.07 0.277 72.903
17071.583 0.277 72.869 0.956 -16.106 0.956 -16.106 0.277 72.869
17096.542 0.278 72.835 0.956 -16.143 0.956 -16.143 0.278 72.835
17121.5 0.279 72.801 0.955 -16.18 0.955 -16.18 0.279 72.801
17146.458 0.279 72.767 0.955 -16.216 0.955 -16.216 0.279 72.767
17171.417 0.28 72.733 0.955 -16.253 0.955 -16.253 0.28 72.733
17196.375 0.281 72.698 0.955 -16.289 0.955 -16.289 0.281 72.698
17221.333 0.281 72.664 0.955 -16.326 0.955 -16.326 0.281 72.664
17246.292 0.282 72.63 0.955 -16.362 0.955 -16.362 0.282 72.63
17271.25 0.282 72.596 0.954 -16.398 0.954 -16.398 0.282 72.596
17296.208 0.283 72.562 0.954 -16.435 0.954 -16.435 0.283 72.562
17321.167 0.284 72.528 0.954 -16.471 0.954 -16.471 0.284 72.528
17346.125 0.284 72.494 0.954 -16.508 0.954 -16.508 0.284 72.494
17371.083 0.285 72.46 0.954 -16.544 0.954 -16.544 0.285 72.46
17396.042 0.285 72.426 0.953 -16.58 0.953 -16.58 0.285 72.426
17421 0.286 72.392 0.953 -16.616 0.953 -16.616 0.286 72.392
17445.958 0.287 72.359 0.953 -16.652 0.953 -16.652 0.287 72.359
17470.917 0.287 72.325 0.953 -16.689 0.953 -16.689 0.287 72.325
17495.875 0.288 72.291 0.953 -16.725 0.953 -16.725 0.288 72.291
17520.833 0.288 72.257 0.953 -16.761 0.953 -16.761 0.288 72.257
17545.792 0.289 72.223 0.952 -16.797 0.952 -16.797 0.289 72.223
17570.75 0.29 72.189 0.952 -16.833 0.952 -16.833 0.29 72.189
17595.708 0.29 72.156 0.952 -16.869 0.952 -16.869 0.29 72.156
17620.667 0.291 72.122 0.952 -16.905 0.952 -16.905 0.291 72.122
17645.625 0.291 72.088 0.952 -16.941 0.952 -16.941 0.291 72.088
17670.583 0.292 72.054 0.951 -16.977 0.951 -16.977 0.292 72.054
17695.542 0.293 72.021 0.951 -17.012 0.951 -17.012 0.293 72.021
17720.5 0.293 71.987 0.951 -17.048 0.951 -17.048 0.293 71.987
17745.458 0.294 71.953 0.951 -17.084 0.951 -17.084 0.294 71.953
17770.417 0.294 71.92 0.951 -17.12 0.951 -17.12 0.294 71.92
17795.375 0.295 71.886 0.951 -17.155 0.951 -17.155 0.295 71.886
17820.333 0.296 71.853 0.95 -17.191 0.95 -17.191 0.296 71.853
17845.292 0.296 71.819 0.95 -17.227 0.95 -17.227 0.296 71.819
17870.25 0.297 71.786 0.95 -17.262 0.95 -17.262 0.297 71.786
17895.208 0.297 71.752 0.95 -17.298 0.95 -17.298 0.297 71.752
17920.167 0.298 71.719 0.95 -17.334 0.95 -17.334 0.298 71.719
17945.125 0.299 71.685 0.949 -17.369 0.949 -17.369 0.299 71.685
17970.083 0.299 71.652 0.949 -17.405 0.949 -17.405 0.299 71.652
17995.042 0.3 71.618 0.949 -17.44 0.949 -17.44 0.3 71.618
18020 0.3 71.585 0.949 -17.476 0.949 -17.476 0.3 71.585
18044.958 0.301 71.551 0.949 -17.511 0.949 -17.511 0.301 71.551
18069.917 0.302 71.518 0.949 -17.546 0.949 -17.546 0.302 71.518
18094.875 0.302 71.485 0.948 -17.582 0.948 -17.582 0.302 71.485
18119.833 0.303 71.451 0.948 -17.617 0.948 -17.617 0.303 71.451
18144.792 0.303 71.418 0.948 -17.652 0.948 -17.652 0.303 71.418
18169.75 0.304 71.385 0.948 -17.687 0.948 -17.687 0.304 71.385
18194.708 0.304 71.352 0.948 -17.723 0.948 -17.723 0.304 71.352
18219.667 0.305 71.318 0.947 -17.758 0.947 -17.758 0.305 71.318
18244.625 0.306 71.285 0.947 -17.793 0.947 -17.793 0.306 71.285
18269.583 0.306 71.252 0.947 -17.828 0.947 -17.828 0.306 71.252
18294.542 0.307 71.219 0.947 -17.863 0.947 -17.863 0.307 71.219
18319.5 0.307 71.186 0.947 -17.898 0.947 -17.898 0.307 71.186
18344.458 0.308 71.153 0.947 -17.933 0.947 -17.933 0.308 71.153
18369.417 0.309 71.119 0.946 -17.968 0.946 -17.968 0.309 71.119
18394.375 0.309 71.086 0.946 -18.003 0.946 -18.003 0.309 71.086
18419.333 0.31 71.053 0.946 -18.038 0.946 -18.038 0.31 71.053
18444.292 0.31 71.02 0.946 -18.073 0.946 -18.073 0.31 71.02
18469.25 0.311 70.987 0.946 -18.108 0.946 -18.108 0.311 70.987
18494.208 0.311 70.954 0.945 -18.143 0.945 -18.143 0.311 70.954
18519.167 0.312 70.921 0.945 -18.178 0.945 -18.178 0.312 70.921
18544.125 0.313 70.888 0.945 -18.213 0.945 -18.213 0.313 70.888
18569.083 0.313 70.855 0.945 -18.247 0.945 -18.247 0.313 70.855
18594.042 0.314 70.823 0.945 -18.282 0.945 -18.282 0.314 70.823
18619 0.314 70.79 0.944 -18.317 0.944 -18.317 0.314 70.79
18643.958 0.315 70.757 0.944 -18.351 0.944 -18.351 0.315 70.757
18668.917 0.315 70.724 0.944 -18.386 0.944 -18.386 0.315 70.724
18693.875 0.316 70.691 0.944 -18.421 0.944 -18.421 0.316 70.691
18718.833 0.317 70.658 0.944 -18.455 0.944 -18.455 0.317 70.658
18743.792 0.317 70.626 0.943 -18.49 0.943 -18.49 0.317 70.626
18768.75 0.318 70.593 0.943 -18.524 0.943 -18.524 0.318 70.593
18793.708 0.318 70.56 0.943 -18.559 0.943 -18.559 0.318 70.56
18818.667 0.319 70.527 0.943 -18.593 0.943 -18.593 0.319 70.527
18843.625 0.319 70.495 0.943 -18.628 0.943 -18.628 0.319 70.495
18868.583 0.32 70.462 0.943 -18.662 0.943 -18.662 0.32 70.462
18893.542 0.321 70.429 0.942 -18.696 0.942 -18.696 0.321 70.429
18918.5 0.321 70.397 0.942 -18.731 0.942 -18.731 0.321 70.397
18943.458 0.322 70.364 0.942 -18.765 0.942 -18.765 0.322 70.364
18968.417 0.322 70.332 0.942 -18.799 0.942 -18.799 0.322 70.332
18993.375 0.323 70.299 0.942 -18.834 0.942 -18.834 0.323 70.299
19018.333 0.323 70.266 0.941 -18.868 0.941 -18.868 0.323 70.266
19043.292 0.324 70.234 0.941 -18.902 0.941 -18.902 0.324 70.234
19068.25 0.325 70.201 0.941 -18.936 0.941 -18.936 0.325 70.201
19093.208 0.325 70.169 0.941 -18.97 0.941 -18.97 0.325 70.169
19118.167 0.326 70.136 0.941 -19.005 0.941 -19.005 0.326 70.136
19143.125 0.326 70.104 0.94 -19.039 0.94 -19.039 0.326 70.104
19168.083 0.327 70.072 0.94 -19.073 0.94 -19.073 0.327 70.072
19193.042 0.327 70.039 0.94 -19.107 0.94 -19.107 0.327 70.039
19218 0.328 70.007 0.94 -19.141 0.94 -19.141 0.328 70.007
19242.958 0.328 69.975 0.94 -19.175 0.94 -19.175 0.328 69.975
19267.917 0.329 69.942 0.939 -19.209 0.939 -19.209 0.329 69.942
19292.875 0.33 69.91 0.939 -19.243 0.939 -19.243 0.33 69.91
19317.833 0.33 69.878 0.939 -19.277 0.939 -19.277 0.33 69.878
19342.792 0.331 69.845 0.939 -19.31 0.939 -19.31 0.331 69.845
19367.75 0.331 69.813 0.939 -19.344 0.939 -19.344 0.331 69.813
19392.708 0.332 69.781 0.938 -19.378 0.938 -19.378 0.332 69.781
19417.667 0.332 69.749 0.938 -19.412 0.938 -19.412 0.332 69.749
19442.625 0.333 69.716 0.938 -19.446 0.938 -19.446 0.333 69.716
19467.583 0.334 69.684 0.938 -19.479 0.938 -19.479 0.334 69.684
19492.542 0.334 69.652 0.938 -19.513 0.938 -19.513 0.334 69.652
19517.5 0.335 69.62 0.938 -19.547 0.938 -19.547 0.335 69.62
19542.458 0.335 69.588 0.937 -19.58 0.937 -19.58 0.335 69.588
19567.417 0.336 69.556 0.937 -19.614 0.937 -19.614 0.336 69.556
19592.375 0.336 69.524 0.937 -19.648 0.937 -19.648 0.336 69.524
19617.333 0.337 69.492 0.937 -19.681 0.937 -19.681 0.337 69.492
19642.292 0.337 69.46 0.937 -19.715 0.937 -19.715 0.337 69.46
19667.25 0.338 69.428 0.936 -19.748 0.936 -19.748 0.338 69.428
19692.208 0.338 69.396 0.936 -19.782 0.936 -19.782 0.338 69.396
19717.167 0.339 69.364 0.936 -19.815 0.936 -19.815 0.339 69.364
19742.125 0.34 69.332 0.936 -19.848 0.936 -19.848 0.34 69.332
19767.083 0.34 69.3 0.936 -19.882 0.936 -19.882 0.34 69.3
19792.042 0.341 69.268 0.935 -19.915 0.935 -19.915 0.341 69.268
19817 0.341 69.236 0.935 -19.949 0.935 -19.949 0.341 69.236
19841.958 0.342 69.204 0.935 -19.982 0.935 -19.982 0.342 69.204
19866.917 0.342 69.173 0.935 -20.015 0.935 -20.015 0.342 69.173
19891.875 0.343 69.141 0.935 -20.048 0.935 -20.048 0.343 69.141
19916.833 0.343 69.109 0.934 -20.082 0.934 -20.082 0.343 69.109
19941.792 0.344 69.077 0.934 -20.115 0.934 -20.115 0.344 69.077
19966.75 0.344 69.046 0.934 -20.148 0.934 -20.148 0.344 69.046
19991.708 0.345 69.014 0.934 -20.181 0.934 -20.181 0.345 69.014
20016.667 0.346 68.982 0.934 -20.214 0.934 -20.214 0.346 68.982
20041.625 0.346 68.951 0.933 -20.247 0.933 -20.247 0.346 68.951
20066.583 0.347 68.919 0.933 -20.281 0.933 -20.281 0.347 68.919
20091.542 0.347 68.887 0.933 -20.314 0.933 -20.314 0.347 68.887
20116.5 0.348 68.856 0.933 -20.347 0.933 -20.347 0.348 68.856
20141.458 0.348 68.824 0.933 -20.38 0.933 -20.38 0.348 68.824
20166.417 0.349 68.792 0.932 -20.413 0.932 -20.413 0.349 68.792
20191.375 0.349 68.761 0.932 -20.446 0.932 -20.446 0.349 68.761
20216.333 0.35 68.729 0.932 -20.478 0.932 -20.478 0.35 68.729
20241.292 0.35 68.698 0.932 -20.511 0.932 -20.511 0.35 68.698
20266.25 0.351 68.666 0.932 -20.544 0.932 -20.544 0.351 68.666
20291.208 0.352 68.635 0.931 -20.577 0.931 -20.577 0.352 68.635
20316.167 0.352 68.603 0.931 -20.61 0.931 -20.61 0.352 68.603
20341.125 0.353 68.572 0.931 -20.643 0.931 -20.643 0.353 68.572
20366.083 0.353 68.541 0.931 -20.675 0.931 -20.675 0.353 68.541
20391.042 0.354 68.509 0.931 -20.708 0.931 -20.708 0.354 68.509
20416 0.354 68.478 0.93 -20.741 0.93 -20.741 0.354 68.478
20440.958 0.355 68.447 0.93 -20.774 0.93 -20.774 0.355 68.447
20465.917 0.355 68.415 0.93 -20.806 0.93 -20.806 0.355 68.415
20490.875 0.356 68.384 0.93 -20.839 0.93 -20.839 0.356 68.384
20515.833 0.356 68.353 0.93 -20.871 0.93 -20.871 0.356 68.353
20540.792 0.357 68.321 0.929 -20.904 0.929 -20.904 0.357 68.321
20565.75 0.357 68.29 0.929 -20.937 0.929 -20.937 0.357 68.29
20590.708 0.358 68.259 0.929 -20.969 0.929 -20.969 0.358 68.259
20615.667 0.358 68.228 0.929 -21.002 0.929 -21.002 0.358 68.228
20640.625 0.359 68.197 0.929 -21.034 0.929 -21.034 0.359 68.197
20665.583 0.359 68.165 0.928 -21.067 0.928 -21.067 0.359 68.165
20690.542 0.36 68.134 0.928 -21.099 0.928 -21.099 0.36 68.134
20715.5 0.361 68.103 0.928 -21.131 0.928 -21.131 0.361 68.103
20740.458 0.361 68.072 0.928 -21.164 0.928 -21.164 0.361 68.072
20765.417 0.362 68.041 0.928 -21.196 0.928 -21.196 0.362 68.041
20790.375 0.362 68.01 0.927 -21.229 0.927 -21.229 0.362 68.01
20815.333 0.363 67.979 0.927 -21.261 0.927 -21.261 0.363 67.979
20840.292 0.363 67.948 0.927 -21.293 0.927 -21.293 0.363 67.948
20865.25 0.364 67.917 0.927 -21.325 0.927 -21.325 0.364 67.917
20890.208 0.364 67.886 0.927 -21.358 0.927 -21.358 0.364 67.886
20915.167 0.365 67.855 0.926 -21.39 0.926 -21.39 0.365 67.855
20940.125 0.365 67.824 0.926 -21.422 0.926 -21.422 0.365 67.824
20965.083 0.366 67.793 0.926 -21.454 0.926 -21.454 0.366 67.793
20990.042 0.366 67.762 0.926 -21.486 0.926 -21.486 0.366 67.762
21015 0.367 67.731 0.925 -21.518 0.925 -21.518 0.367 67.731
21039.958 0.367 67.7 0.925 -21.55 0.925 -21.55 0.367 67.7
21064.917 0.368 67.67 0.925 -21.583 0.925 -21.583 0.368 67.67
21089.875 0.368 67.639 0.925 -21.615 0.925 -21.615 0.368 67.639
21114.833 0.369 67.608 0.925 -21.647 0.925 -21.647 0.369 67.608
21139.792 0.369 67.577 0.924 -21.679 0.924 -21.679 0.369 67.577
21164.75 0.37 67.546 0.924 -21.71 0.924 -21.71 0.37 67.546
21189.708 0.37 67.516 0.924 -21.742 0.924 -21.742 0.37 67.516
21214.667 0.371 67.485 0.924 -21.774 0.924 -21.774 0.371 67.485
21239.625 0.371 67.454 0.924 -21.806 0.924 -21.806 0.371 67.454
21264.583 0.372 67.424 0.923 -21.838 0.923 -21.838 0.372 67.424
21289.542 0.373 67.393 0.923 -21.87 0.923 -21.87 0.373 67.393
21314.5 0.373 67.362 0.923 -21.902 0.923 -21.902 0.373 67.362
21339.458 0.374 67.332 0.923 -21.934 0.923 -21.934 0.374 67.332
21364.417 0.374 67.301 0.923 -21.965 0.923 -21.965 0.374 67.301
21389.375 0.375 67.271 0.922 -21.997 0.922 -21.997 0.375 67.271
21414.333 0.375 67.24 0.922 -22.029 0.922 -22.029 0.375 67.24
21439.292 0.376 67.21 0.922 -22.06 0.922 -22.06 0.376 67.21
21464.25 0.376 67.179 0.922 -22.092 0.922 -22.092 0.376 67.179
21489.208 0.377 67.149 0.922 -22.124 0.922 -22.124 0.377 67.149
21514.167 0.377 67.118 0.921 -22.155 0.921 -22.155 0.377 67.118
21539.125 0.378 67.088 0.921 -22.187 0.921 -22.187 0.378 67.088
21564.083 0.378 67.057 0.921 -22.219 0.921 -22.219 0.378 67.057
21589.042 0.379 67.027 0.921 -22.25 0.921 -22.25 0.379 67.027
21614 0.379 66.996 0.921 -22.282 0.921 -22.282 0.379 66.996
21638.958 0.38 66.966 0.92 -22.313 0.92 -22.313 0.38 66.966
21663.917 0.38 66.936 0.92 -22.345 0.92 -22.345 0.38 66.936
21688.875 0.381 66.905 0.92 -22.376 0.92 -22.376 0.381 66.905
21713.833 0.381 66.875 0.92 -22.407 0.92 -22.407 0.381 66.875
21738.792 0.382 66.845 0.92 -22.439 0.92 -22.439 0.382 66.845
21763.75 0.382 66.814 0.919 -22.47 0.919 -22.47 0.382 66.814
21788.708 0.383 66.784 0.919 -22.502 0.919 -22.502 0.383 66.784
21813.667 0.383 66.754 0.919 -22.533 0.919 -22.533 0.383 66.754
21838.625 0.384 66.724 0.919 -22.564 0.919 -22.564 0.384 66.724
21863.583 0.384 66.694 0.918 -22.596 0.918 -22.596 0.384 66.694
21888.542 0.385 66.663 0.918 -22.627 0.918 -22.627 0.385 66.663
21913.5 0.385 66.633 0.918 -22.658 0.918 -22.658 0.385 66.633
21938.458 0.386 66.603 0.918 -22.689 0.918 -22.689 0.386 66.603
21963.417 0.386 66.573 0.918 -22.72 0.918 -22.72 0.386 66.573
21988.375 0.387 66.543 0.917 -22.752 0.917 -22.752 0.387 66.543
22013.333 0.387 66.513 0.917 -22.783 0.917 -22.783 0.387 66.513
22038.292 0.388 66.483 0.917 -22.814 0.917 -22.814 0.388 66.483
22063.25 0.388 66.453 0.917 -22.845 0.917 -22.845 0.388 66.453
22088.208 0.389 66.423 0.917 -22.876 0.917 -22.876 0.389 66.423
22113.167 0.389 66.393 0.916 -22.907 0.916 -22.907 0.389 66.393
22138.125 0.39 66.363 0.916 -22.938 0.916 -22.938 0.39 66.363
22163.083 0.39 66.333 0.916 -22.969 0.916 -22.969 0.39 66.333
22188.042 0.391 66.303 0.916 -23 0.916 -23 0.391 66.303
22213 0.391 66.273 0.916 -23.031 0.916 -23.031 0.391 66.273
22237.958 0.392 66.243 0.915 -23.062 0.915 -23.062 0.392 66.243
22262.917 0.392 66.213 0.915 -23.093 0.915 -23.093 0.392 66.213
22287.875 0.393 66.183 0.915 -23.124 0.915 -23.124 0.393 66.183
22312.833 0.393 66.153 0.915 -23.155 0.915 -23.155 0.393 66.153
22337.792 0.394 66.124 0.914 -23.186 0.914 -23.186 0.394 66.124
22362.75 0.394 66.094 0.914 -23.216 0.914 -23.216 0.394 66.094
22387.708 0.395 66.064 0.914 -23.247 0.914 -23.247 0.395 66.064
22412.667 0.395 66.034 0.914 -23.278 0.914 -23.278 0.395 66.034
22437.625 0.396 66.005 0.914 -23.309 0.914 -23.309 0.396 66.005
22462.583 0.396 65.975 0.913 -23.339 0.913 -23.339 0.396 65.975
22487.542 0.397 65.945 0.913 -23.37 0.913 -23.37 0.397 65.945
22512.5 0.397 65.915 0.913 -23.401 0.913 -23.401 0.397 65.915
22537.458 0.398 65.886 0.913 -23.432 0.913 -23.432 0.398 65.886
22562.417 0.398 65.856 0.913 -23.462 0.913 -23.462 0.398 65.856
22587.375 0.399 65.827 0.912 -23.493 0.912 -23.493 0.399 65.827
22612.333 0.399 65.797 0.912 -23.523 0.912 -23.523 0.399 65.797
22637.292 0.4 65.767 0.912 -23.554 0.912 -23.554 0.4 65.767
22662.25 0.4 65.738 0.912 -23.585 0.912 -23.585 0.4 65.738
22687.208 0.401 65.708 0.912 -23.615 0.912 -23.615 0.401 65.708
22712.167 0.401 65.679 0.911 -23.646 0.911 -23.646 0.401 65.679
22737.125 0.402 65.649 0.911 -23.676 0.911 -23.676 0.402 65.649
22762.083 0.402 65.62 0.911 -23.707 0.911 -23.707 0.402 65.62
22787.042 0.403 65.59 0.911 -23.737 0.911 -23.737 0.403 65.59
22812 0.403 65.561 0.91 -23.767 0.91 -23.767 0.403 65.561
22836.958 0.404 65.531 0.91 -23.798 0.91 -23.798 0.404 65.531
22861.917 0.404 65.502 0.91 -23.828 0.91 -23.828 0.404 65.502
22886.875 0.405 65.473 0.91 -23.859 0.91 -23.859 0.405 65.473
22911.833 0.405 65.443 0.91 -23.889 0.91 -23.889 0.405 65.443
22936.792 0.405 65.414 0.909 -23.919 0.909 -23.919 0.405 65.414
22961.75 0.406 65.384 0.909 -23.949 0.909 -23.949 0.406 65.384
22986.708 0.406 65.355 0.909 -23.98 0.909 -23.98 0.406 65.355
23011.667 0.407 65.326 0.909 -24.01 0.909 -24.01 0.407 65.326
23036.625 0.407 65.297 0.909 -24.04 0.909 -24.04 0.407 65.297
23061.583 0.408 65.267 0.908 -24.07 0.908 -24.07 0.408 65.267
23086.542 0.408 65.238 0.908 -24.101 0.908 -24.101 0.408 65.238
23111.5 0.409 65.209 0.908 -24.131 0.908 -24.131 0.409 65.209
23136.458 0.409 65.18 0.908 -24.161 0.908 -24.161 0.409 65.18
23161.417 0.41 65.15 0.907 -24.191 0.907 -24.191 0.41 65.15
23186.375 0.41 65.121 0.907 -24.221 0.907 -24.221 0.41 65.121
23211.333 0.411 65.092 0.907 -24.251 0.907 -24.251 0.411 65.092
23236.292 0.411 65.063 0.907 -24.281 0.907 -24.281 0.411 65.063
23261.25 0.412 65.034 0.907 -24.311 0.907 -24.311 0.412 65.034
23286.208 0.412 65.005 0.906 -24.341 0.906 -24.341 0.412 65.005
23311.167 0.413 64.976 0.906 -24.371 0.906 -24.371 0.413 64.976
23336.125 0.413 64.947 0.906 -24.401 0.906 -24.401 0.413 64.947
23361.083 0.414 64.918 0.906 -24.431 0.906 -24.431 0.414 64.918
23386.042 0.414 64.889 0.906 -24.461 0.906 -24.461 0.414 64.889
23411 0.415 64.86 0.905 -24.491 0.905 -24.491 0.415 64.86
23435.958 0.415 64.831 0.905 -24.521 0.905 -24.521 0.415 64.831
23460.917 0.416 64.802 0.905 -24.551 0.905 -24.551 0.416 64.802
23485.875 0.416 64.773 0.905 -24.581 0.905 -24.581 0.416 64.773
23510.833 0.416 64.744 0.904 -24.61 0.904 -24.61 0.416 64.744
23535.792 0.417 64.715 0.904 -24.64 0.904 -24.64 0.417 64.715
23560.75 0.417 64.686 0.904 -24.67 0.904 -24.67 0.417 64.686
23585.708 0.418 64.657 0.904 -24.7 0.904 -24.7 0.418 64.657
23610.667 0.418 64.628 0.904 -24.729 0.904 -24.729 0.418 64.628
23635.625 0.419 64.599 0.903 -24.759 0.903 -24.759 0.419 64.599
23660.583 0.419 64.571 0.903 -24.789 0.903 -24.789 0.419 64.571
23685.542 0.42 64.542 0.903 -24.818 0.903 -24.818 0.42 64.542
23710.5 0.42 64.513 0.903 -24.848 0.903 -24.848 0.42 64.513
23735.458 0.421 64.484 0.903 -24.878 0.903 -24.878 0.421 64.484
23760.417 0.421 64.456 0.902 -24.907 0.902 -24.907 0.421 64.456
23785.375 0.422 64.427 0.902 -24.937 0.902 -24.937 0.422 64.427
23810.333 0.422 64.398 0.902 -24.966 0.902 -24.966 0.422 64.398
23835.292 0.423 64.37 0.902 -24.996 0.902 -24.996 0.423 64.37
23860.25 0.423 64.341 0.901 -25.025 0.901 -25.025 0.423 64.341
23885.208 0.424 64.312 0.901 -25.055 0.901 -25.055 0.424 64.312
23910.167 0.424 64.284 0.901 -25.084 0.901 -25.084 0.424 64.284
23935.125 0.424 64.255 0.901 -25.114 0.901 -25.114 0.424 64.255
23960.083 0.425 64.226 0.901 -25.143 0.901 -25.143 0.425 64.226
23985.042 0.425 64.198 0.9 -25.173 0.9 -25.173 0.425 64.198
24010 0.426 64.169 0.9 -25.202 0.9 -25.202 0.426 64.169
24034.958 0.426 64.141 0.9 -25.231 0.9 -25.231 0.426 64.141
24059.917 0.427 64.112 0.9 -25.261 0.9 -25.261 0.427 64.112
24084.875 0.427 64.084 0.899 -25.29 0.899 -25.29 0.427 64.084
24109.833 0.428 64.055 0.899 -25.319 0.899 -25.319 0.428 64.055
24134.792 0.428 64.027 0.899 -25.349 0.899 -25.349 0.428 64.027
24159.75 0.429 63.998 0.899 -25.378 0.899 -25.378 0.429 63.998
24184.708 0.429 63.97 0.899 -25.407 0.899 -25.407 0.429 63.97
24209.667 0.43 63.942 0.898 -25.436 0.898 -25.436 0.43 63.942
24234.625 0.43 63.913 0.898 -25.466 0.898 -25.466 0.43 63.913
24259.583 0.43 63.885 0.898 -25.495 0.898 -25.495 0.43 63.885
24284.542 0.431 63.856 0.898 -25.524 0.898 -25.524 0.431 63.856
24309.5 0.431 63.828 0.898 -25.553 0.898 -25.553 0.431 63.828
24334.458 0.432 63.8 0.897 -25.582 0.897 -25.582 0.432 63.8
24359.417 0.432 63.771 0.897 -25.611 0.897 -25.611 0.432 63.771
24384.375 0.433 63.743 0.897 -25.64 0.897 -25.64 0.433 63.743
24409.333 0.433 63.715 0.897 -25.669 0.897 -25.669 0.433 63.715
24434.292 0.434 63.687 0.896 -25.699 0.896 -25.699 0.434 63.687
24459.25 0.434 63.659 0.896 -25.728 0.896 -25.728 0.434 63.659
24484.208 0.435 63.63 0.896 -25.757 0.896 -25.757 0.435 63.63
24509.167 0.435 63.602 0.896 -25.785 0.896 -25.785 0.435 63.602
24534.125 0.435 63.574 0.896 -25.814 0.896 -25.814 0.435 63.574
24559.083 0.436 63.546 0.895 -25.843 0.895 -25.843 0.436 63.546
24584.042 0.436 63.518 0.895 -25.872 0.895 -25.872 0.436 63.518
24609 0.437 63.49 0.895 -25.901 0.895 -25.901 0.437 63.49
24633.958 0.437 63.461 0.895 -25.93 0.895 -25.93 0.437 63.461
24658.917 0.438 63.433 0.894 -25.959 0.894 -25.959 0.438 63.433
24683.875 0.438 63.405 0.894 -25.988 0.894 -25.988 0.438 63.405
24708.833 0.439 63.377 0.894 -26.017 0.894 -26.017 0.439 63.377
24733.792 0.439 63.349 0.894 -26.045 0.894 -26.045 0.439 63.349
24758.75 0.44 63.321 0.894 -26.074 0.894 -26.074 0.44 63.321
24783.708 0.44 63.293 0.893 -26.103 0.893 -26.103 0.44 63.293
24808.667 0.44 63.265 0.893 -26.132 0.893 -26.132 0.44 63.265
24833.625 0.441 63.237 0.893 -26.16 0.893 -26.16 0.441 63.237
24858.583 0.441 63.209 0.893 -26.189 0.893 -26.189 0.441 63.209
24883.542 0.442 63.182 0.892 -26.218 0.892 -26.218 0.442 63.182
24908.5 0.442 63.154 0.892 -26.246 0.892 -26.246 0.442 63.154
24933.458 0.443 63.126 0.892 -26.275 0.892 -26.275 0.443 63.126
24958.417 0.443 63.098 0.892 -26.304 0.892 -26.304 0.443 63.098
24983.375 0.444 63.07 0.892 -26.332 0.892 -26.332 0.444 63.07
25008.333 0.444 63.042 0.891 -26.361 0.891 -26.361 0.444 63.042
25033.292 0.444 63.014 0.891 -26.389 0.891 -26.389 0.444 63.014
25058.25 0.445 62.987 0.891 -26.418 0.891 -26.418 0.445 62.987
25083.208 0.445 62.959 0.891 -26.446 0.891 -26.446 0.445 62.959
25108.167 0.446 62.931 0.891 -26.475 0.891 -26.475 0.446 62.931
25133.125 0.446 62.903 0.89 -26.503 0.89 -26.503 0.446 62.903
25158.083 0.447 62.876 0.89 -26.532 0.89 -26.532 0.447 62.876
25183.042 0.447 62.848 0.89 -26.56 0.89 -26.56 0.447 62.848
25208 0.448 62.82 0.89 -26.589 0.89 -26.589 0.448 62.82
25232.958 0.448 62.793 0.889 -26.617 0.889 -26.617 0.448 62.793
25257.917 0.448 62.765 0.889 -26.645 0.889 -26.645 0.448 62.765
25282.875 0.449 62.737 0.889 -26.674 0.889 -26.674 0.449 62.737
25307.833 0.449 62.71 0.889 -26.702 0.889 -26.702 0.449 62.71
25332.792 0.45 62.682 0.889 -26.73 0.889 -26.73 0.45 62.682
25357.75 0.45 62.655 0.888 -26.759 0.888 -26.759 0.45 62.655
25382.708 0.451 62.627 0.888 -26.787 0.888 -26.787 0.451 62.627
25407.667 0.451 62.599 0.888 -26.815 0.888 -26.815 0.451 62.599
25432.625 0.452 62.572 0.888 -26.843 0.888 -26.843 0.452 62.572
25457.583 0.452 62.544 0.887 -26.872 0.887 -26.872 0.452 62.544
25482.542 0.452 62.517 0.887 -26.9 0.887 -26.9 0.452 62.517
25507.5 0.453 62.489 0.887 -26.928 0.887 -26.928 0.453 62.489
25532.458 0.453 62.462 0.887 -26.956 0.887 -26.956 0.453 62.462
25557.417 0.454 62.435 0.887 -26.984 0.887 -26.984 0.454 62.435
25582.375 0.454 62.407 0.886 -27.012 0.886 -27.012 0.454 62.407
25607.333 0.455 62.38 0.886 -27.041 0.886 -27.041 0.455 62.38
25632.292 0.455 62.352 0.886 -27.069 0.886 -27.069 0.455 62.352
25657.25 0.456 62.325 0.886 -27.097 0.886 -27.097 0.456 62.325
25682.208 0.456 62.298 0.885 -27.125 0.885 -27.125 0.456 62.298
25707.167 0.456 62.27 0.885 -27.153 0.885 -27.153 0.456 62.27
25732.125 0.457 62.243 0.885 -27.181 0.885 -27.181 0.457 62.243
25757.083 0.457 62.216 0.885 -27.209 0.885 -27.209 0.457 62.216
25782.042 0.458 62.189 0.885 -27.237 0.885 -27.237 0.458 62.189
25807 0.458 62.161 0.884 -27.265 0.884 -27.265 0.458 62.161
25831.958 0.459 62.134 0.884 -27.293 0.884 -27.293 0.459 62.134
25856.917 0.459 62.107 0.884 -27.321 0.884 -27.321 0.459 62.107
25881.875 0.459 62.08 0.884 -27.348 0.884 -27.348 0.459 62.08
25906.833 0.46 62.052 0.883 -27.376 0.883 -27.376 0.46 62.052
25931.792 0.46 62.025 0.883 -27.404 0.883 -27.404 0.46 62.025
25956.75 0.461 61.998 0.883 -27.432 0.883 -27.432 0.461 61.998
25981.708 0.461 61.971 0.883 -27.46 0.883 -27.46 0.461 61.971
26006.667 0.462 61.944 0.883 -27.488 0.883 -27.488 0.462 61.944
26031.625 0.462 61.917 0.882 -27.515 0.882 -27.515 0.462 61.917
26056.583 0.462 61.89 0.882 -27.543 0.882 -27.543 0.462 61.89
26081.542 0.463 61.863 0.882 -27.571 0.882 -27.571 0.463 61.863
26106.5 0.463 61.836 0.882 -27.599 0.882 -27.599 0.463 61.836
26131.458 0.464 61.808 0.881 -27.626 0.881 -27.626 0.464 61.808
26156.417 0.464 61.781 0.881 -27.654 0.881 -27.654 0.464 61.781
26181.375 0.465 61.754 0.881 -27.682 0.881 -27.682 0.465 61.754
26206.333 0.465 61.727 0.881 -27.709 0.881 -27.709 0.465 61.727
26231.292 0.465 61.701 0.881 -27.737 0.881 -27.737 0.465 61.701
26256.25 0.466 61.674 0.88 -27.764 0.88 -27.764 0.466 61.674
26281.208 0.466 61.647 0.88 -27.792 0.88 -27.792 0.466 61.647
26306.167 0.467 61.62 0.88 -27.82 0.88 -27.82 0.467 61.62
26331.125 0.467 61.593 0.88 -27.847 0.88 -27.847 0.467 61.593
26356.083 0.468 61.566 0.879 -27.875 0.879 -27.875 0.468 61.566
26381.042 0.468 61.539 0.879 -27.902 0.879 -27.902 0.468 61.539
26406 0.468 61.512 0.879 -27.93 0.879 -27.93 0.468 61.512
26430.958 0.469 61.485 0.879 -27.957 0.879 -27.957 0.469 61.485
26455.917 0.469 61.459 0.879 -27.985 0.879 -27.985 0.469 61.459
26480.875 0.47 61.432 0.878 -28.012 0.878 -28.012 0.47 61.432
26505.833 0.47 61.405 0.878 -28.039 0.878 -28.039 0.47 61.405
26530.792 0.471 61.378 0.878 -28.067 0.878 -28.067 0.471 61.378
26555.75 0.471 61.352 0.878 -28.094 0.878 -28.094 0.471 61.352
26580.708 0.471 61.325 0.877 -28.122 0.877 -28.122 0.471 61.325
26605.667 0.472 61.298 0.877 -28.149 0.877 -28.149 0.472 61.298
26630.625 0.472 61.271 0.877 -28.176 0.877 -28.176 0.472 61.271
26655.583 0.473 61.245 0.877 -28.204 0.877 -28.204 0.473 61.245
26680.542 0.473 61.218 0.876 -28.231 0.876 -28.231 0.473 61.218
26705.5 0.473 61.191 0.876 -28.258 0.876 -28.258 0.473 61.191
26730.458 0.474 61.165 0.876 -28.285 0.876 -28.285 0.474 61.165
26755.417 0.474 61.138 0.876 -28.313 0.876 -28.313 0.474 61.138
26780.375 0.475 61.112 0.876 -28.34 0.876 -28.34 0.475 61.112
26805.333 0.475 61.085 0.875 -28.367 0.875 -28.367 0.475 61.085
26830.292 0.476 61.059 0.875 -28.394 0.875 -28.394 0.476 61.059
26855.25 0.476 61.032 0.875 -28.421 0.875 -28.421 0.476 61.032
26880.208 0.476 61.006 0.875 -28.448 0.875 -28.448 0.476 61.006
26905.167 0.477 60.979 0.874 -28.476 0.874 -28.476 0.477 60.979
26930.125 0.477 60.953 0.874 -28.503 0.874 -28.503 0.477 60.953
26955.083 0.478 60.926 0.874 -28.53 0.874 -28.53 0.478 60.926
26980.042 0.478 60.9 0.874 -28.557 0.874 -28.557 0.478 60.9
27005 0.478 60.873 0.874 -28.584 0.874 -28.584 0.478 60.873
27029.958 0.479 60.847 0.873 -28.611 0.873 -28.611 0.479 60.847
27054.917 0.479 60.82 0.873 -28.638 0.873 -28.638 0.479 60.82
27079.875 0.48 60.794 0.873 -28.665 0.873 -28.665 0.48 60.794
27104.833 0.48 60.768 0.873 -28.692 0.873 -28.692 0.48 60.768
27129.792 0.481 60.741 0.872 -28.719 0.872 -28.719 0.481 60.741
27154.75 0.481 60.715 0.872 -28.746 0.872 -28.746 0.481 60.715
27179.708 0.481 60.689 0.872 -28.773 0.872 -28.773 0.481 60.689
27204.667 0.482 60.662 0.872 -28.8 0.872 -28.8 0.482 60.662
27229.625 0.482 60.636 0.872 -28.826 0.872 -28.826 0.482 60.636
27254.583 0.483 60.61 0.871 -28.853 0.871 -28.853 0.483 60.61
27279.542 0.483 60.584 0.871 -28.88 0.871 -28.88 0.483 60.584
27304.5 0.483 60.557 0.871 -28.907 0.871 -28.907 0.483 60.557
27329.458 0.484 60.531 0.871 -28.934 0.871 -28.934 0.484 60.531
27354.417 0.484 60.505 0.87 -28.961 0.87 -28.961 0.484 60.505
27379.375 0.485 60.479 0.87 -28.987 0.87 -28.987 0.485 60.479
27404.333 0.485 60.453 0.87 -29.014 0.87 -29.014 0.485 60.453
27429.292 0.485 60.426 0.87 -29.041 0.87 -29.041 0.485 60.426
27454.25 0.486 60.4 0.87 -29.068 0.87 -29.068 0.486 60.4
27479.208 0.486 60.374 0.869 -29.094 0.869 -29.094 0.486 60.374
27504.167 0.487 60.348 0.869 -29.121 0.869 -29.121 0.487 60.348
27529.125 0.487 60.322 0.869 -29.148 0.869 -29.148 0.487 60.322
27554.083 0.487 60.296 0.869 -29.174 0.869 -29.174 0.487 60.296
27579.042 0.488 60.27 0.868 -29.201 0.868 -29.201 0.488 60.27
27604 0.488 60.244 0.868 -29.227 0.868 -29.227 0.488 60.244
27628.958 0.489 60.218 0.868 -29.254 0.868 -29.254 0.489 60.218
27653.917 0.489 60.192 0.868 -29.281 0.868 -29.281 0.489 60.192
27678.875 0.49 60.166 0.868 -29.307 0.868 -29.307 0.49 60.166
27703.833 0.49 60.14 0.867 -29.334 0.867 -29.334 0.49 60.14
27728.792 0.49 60.114 0.867 -29.36 0.867 -29.36 0.49 60.114
27753.75 0.491 60.088 0.867 -29.387 0.867 -29.387 0.491 60.088
27778.708 0.491 60.062 0.867 -29.413 0.867 -29.413 0.491 60.062
27803.667 0.492 60.036 0.866 -29.44 0.866 -29.44 0.492 60.036
27828.625 0.492 60.01 0.866 -29.466 0.866 -29.466 0.492 60.01
27853.583 0.492 59.984 0.866 -29.493 0.866 -29.493 0.492 59.984
27878.542 0.493 59.959 0.866 -29.519 0.866 -29.519 0.493 59.959
27903.5 0.493 59.933 0.865 -29.545 0.865 -29.545 0.493 59.933
27928.458 0.494 59.907 0.865 -29.572 0.865 -29.572 0.494 59.907
27953.417 0.494 59.881 0.865 -29.598 0.865 -29.598 0.494 59.881
27978.375 0.494 59.855 0.865 -29.624 0.865 -29.624 0.494 59.855
28003.333 0.495 59.829 0.865 -29.651 0.865 -29.651 0.495 59.829
28028.292 0.495 59.804 0.864 -29.677 0.864 -29.677 0.495 59.804
28053.25 0.496 59.778 0.864 -29.703 0.864 -29.703 0.496 59.778
28078.208 0.496 59.752 0.864 -29.73 0.864 -29.73 0.496 59.752
28103.167 0.496 59.727 0.864 -29.756 0.864 -29.756 0.496 59.727
28128.125 0.497 59.701 0.863 -29.782 0.863 -29.782 0.497 59.701
28153.083 0.497 59.675 0.863 -29.808 0.863 -29.808 0.497 59.675
28178.042 0.498 59.65 0.863 -29.835 0.863 -29.835 0.498 59.65
28203 0.498 59.624 0.863 -29.861 0.863 -29.861 0.498 59.624
28227.958 0.498 59.598 0.863 -29.887 0.863 -29.887 0.498 59.598
28252.917 0.499 59.573 0.862 -29.913 0.862 -29.913 0.499 59.573
28277.875 0.499 59.547 0.862 -29.939 0.862 -29.939 0.499 59.547
28302.833 0.499 59.522 0.862 -29.965 0.862 -29.965 0.499 59.522
28327.792 0.5 59.496 0.862 -29.991 0.862 -29.991 0.5 59.496
28352.75 0.5 59.47 0.861 -30.017 0.861 -30.017 0.5 59.47
28377.708 0.501 59.445 0.861 -30.044 0.861 -30.044 0.501 59.445
28402.667 0.501 59.419 0.861 -30.07 0.861 -30.07 0.501 59.419
28427.625 0.501 59.394 0.861 -30.096 0.861 -30.096 0.501 59.394
28452.583 0.502 59.368 0.86 -30.122 0.86 -30.122 0.502 59.368
28477.542 0.502 59.343 0.86 -30.148 0.86 -30.148 0.502 59.343
28502.5 0.503 59.318 0.86 -30.174 0.86 -30.174 0.503 59.318
28527.458 0.503 59.292 0.86 -30.2 0.86 -30.2 0.503 59.292
28552.417 0.503 59.267 0.86 -30.225 0.86 -30.225 0.503 59.267
28577.375 0.504 59.241 0.859 -30.251 0.859 -30.251 0.504 59.241
28602.333 0.504 59.216 0.859 -30.277 0.859 -30.277 0.504 59.216
28627.292 0.505 59.191 0.859 -30.303 0.859 -30.303 0.505 59.191
28652.25 0.505 59.165 0.859 -30.329 0.859 -30.329 0.505 59.165
28677.208 0.505 59.14 0.858 -30.355 0.858 -30.355 0.505 59.14
28702.167 0.506 59.115 0.858 -30.381 0.858 -30.381 0.506 59.115
28727.125 0.506 59.089 0.858 -30.407 0.858 -30.407 0.506 59.089
28752.083 0.507 59.064 0.858 -30.432 0.858 -30.432 0.507 59.064
28777.042 0.507 59.039 0.858 -30.458 0.858 -30.458 0.507 59.039
28802 0.507 59.013 0.857 -30.484 0.857 -30.484 0.507 59.013
28826.958 0.508 58.988 0.857 -30.51 0.857 -30.51 0.508 58.988
28851.917 0.508 58.963 0.857 -30.535 0.857 -30.535 0.508 58.963
28876.875 0.508 58.938 0.857 -30.561 0.857 -30.561 0.508 58.938
28901.833 0.509 58.913 0.856 -30.587 0.856 -30.587 0.509 58.913
28926.792 0.509 58.887 0.856 -30.613 0.856 -30.613 0.509 58.887
28951.75 0.51 58.862 0.856 -30.638 0.856 -30.638 0.51 58.862
28976.708 0.51 58.837 0.856 -30.664 0.856 -30.664 0.51 58.837
29001.667 0.51 58.812 0.856 -30.689 0.856 -30.689 0.51 58.812
29026.625 0.511 58.787 0.855 -30.715 0.855 -30.715 0.511 58.787
29051.583 0.511 58.762 0.855 -30.741 0.855 -30.741 0.511 58.762
29076.542 0.512 58.737 0.855 -30.766 0.855 -30.766 0.512 58.737
29101.5 0.512 58.712 0.855 -30.792 0.855 -30.792 0.512 58.712
29126.458 0.512 58.687 0.854 -30.817 0.854 -30.817 0.512 58.687
29151.417 0.513 58.662 0.854 -30.843 0.854 -30.843 0.513 58.662
29176.375 0.513 58.637 0.854 -30.868 0.854 -30.868 0.513 58.637
29201.333 0.513 58.612 0.854 -30.894 0.854 -30.894 0.513 58.612
29226.292 0.514 58.587 0.853 -30.919 0.853 -30.919 0.514 58.587
29251.25 0.514 58.562 0.853 -30.945 0.853 -30.945 0.514 58.562
29276.208 0.515 58.537 0.853 -30.97 0.853 -30.97 0.515 58.537
29301.167 0.515 58.512 0.853 -30.996 0.853 -30.996 0.515 58.512
29326.125 0.515 58.487 0.853 -31.021 0.853 -31.021 0.515 58.487
29351.083 0.516 58.462 0.852 -31.047 0.852 -31.047 0.516 58.462
29376.042 0.516 58.437 0.852 -31.072 0.852 -31.072 0.516 58.437
29401 0.517 58.412 0.852 -31.097 0.852 -31.097 0.517 58.412
29425.958 0.517 58.387 0.852 -31.123 0.852 -31.123 0.517 58.387
29450.917 0.517 58.363 0.851 -31.148 0.851 -31.148 0.517 58.363
29475.875 0.518 58.338 0.851 -31.173 0.851 -31.173 0.518 58.338
29500.833 0.518 58.313 0.851 -31.199 0.851 -31.199 0.518 58.313
29525.792 0.518 58.288 0.851 -31.224 0.851 -31.224 0.518 58.288
29550.75 0.519 58.263 0.851 -31.249 0.851 -31.249 0.519 58.263
29575.708 0.519 58.239 0.85 -31.274 0.85 -31.274 0.519 58.239
29600.667 0.52 58.214 0.85 -31.3 0.85 -31.3 0.52 58.214
29625.625 0.52 58.189 0.85 -31.325 0.85 -31.325 0.52 58.189
29650.583 0.52 58.164 0.85 -31.35 0.85 -31.35 0.52 58.164
29675.542 0.521 58.14 0.849 -31.375 0.849 -31.375 0.521 58.14
29700.5 0.521 58.115 0.849 -31.4 0.849 -31.4 0.521 58.115
29725.458 0.521 58.09 0.849 -31.425 0.849 -31.425 0.521 58.09
29750.417 0.522 58.066 0.849 -31.451 0.849 -31.451 0.522 58.066
29775.375 0.522 58.041 0.848 -31.476 0.848 -31.476 0.522 58.041
29800.333 0.523 58.016 0.848 -31.501 0.848 -31.501 0.523 58.016
29825.292 0.523 57.992 0.848 -31.526 0.848 -31.526 0.523 57.992
29850.25 0.523 57.967 0.848 -31.551 0.848 -31.551 0.523 57.967
29875.208 0.524 57.943 0.848 -31.576 0.848 -31.576 0.524 57.943
29900.167 0.524 57.918 0.847 -31.601 0.847 -31.601 0.524 57.918
29925.125 0.524 57.894 0.847 -31.626 0.847 -31.626 0.524 57.894
29950.083 0.525 57.869 0.847 -31.651 0.847 -31.651 0.525 57.869
29975.042 0.525 57.845 0.847 -31.676 0.847 -31.676 0.525 57.845
30000 0.526 57.82 0.846 -31.701 0.846 -31.701 0.526 57.82
