!	AVX Thin Film Operation 	Date: April 2014		
!	Description: Accu-P® Series, Thin Film  SMD RF Capacitor
!	Part Number: 02013J2R4QBSTR					
!								
# MHZ S MA R 50

50 0.997 -4.312 0.075 85.676 0.075 85.676 0.997 -4.312
74.958 0.994 -6.45 0.112 83.532 0.112 83.532 0.994 -6.45
99.917 0.989 -8.571 0.149 81.406 0.149 81.406 0.989 -8.571
124.875 0.983 -10.669 0.185 79.302 0.185 79.302 0.983 -10.669
149.833 0.975 -12.739 0.221 77.225 0.221 77.225 0.975 -12.739
174.792 0.967 -14.777 0.255 75.181 0.255 75.181 0.967 -14.777
199.75 0.957 -16.78 0.289 73.173 0.289 73.173 0.957 -16.78
224.708 0.947 -18.742 0.321 71.205 0.321 71.205 0.947 -18.742
249.667 0.935 -20.661 0.353 69.279 0.353 69.279 0.935 -20.661
274.625 0.923 -22.535 0.383 67.399 0.383 67.399 0.923 -22.535
299.583 0.91 -24.362 0.412 65.567 0.412 65.567 0.91 -24.362
324.542 0.897 -26.139 0.441 63.784 0.441 63.784 0.897 -26.139
349.5 0.883 -27.866 0.467 62.051 0.467 62.051 0.883 -27.866
374.458 0.869 -29.542 0.493 60.369 0.493 60.369 0.869 -29.542
399.417 0.855 -31.166 0.518 58.739 0.518 58.739 0.855 -31.166
424.375 0.84 -32.739 0.541 57.16 0.541 57.16 0.84 -32.739
449.333 0.825 -34.261 0.563 55.632 0.563 55.632 0.825 -34.261
474.292 0.811 -35.732 0.584 54.155 0.584 54.155 0.811 -35.732
499.25 0.796 -37.153 0.604 52.728 0.604 52.728 0.796 -37.153
524.208 0.781 -38.525 0.623 51.349 0.623 51.349 0.781 -38.525
549.167 0.766 -39.85 0.641 50.019 0.641 50.019 0.766 -39.85
574.125 0.752 -41.128 0.658 48.734 0.658 48.734 0.752 -41.128
599.083 0.737 -42.361 0.674 47.495 0.674 47.495 0.737 -42.361
624.042 0.723 -43.55 0.689 46.3 0.689 46.3 0.723 -43.55
649 0.709 -44.697 0.703 45.148 0.703 45.148 0.709 -44.697
673.958 0.695 -45.802 0.717 44.036 0.717 44.036 0.695 -45.802
698.917 0.682 -46.868 0.73 42.963 0.73 42.963 0.682 -46.868
723.875 0.668 -47.897 0.742 41.929 0.742 41.929 0.668 -47.897
748.833 0.655 -48.888 0.753 40.931 0.753 40.931 0.655 -48.888
773.792 0.642 -49.845 0.764 39.969 0.764 39.969 0.642 -49.845
798.75 0.63 -50.767 0.775 39.04 0.775 39.04 0.63 -50.767
823.708 0.618 -51.658 0.784 38.143 0.784 38.143 0.618 -51.658
848.667 0.606 -52.517 0.794 37.277 0.794 37.277 0.606 -52.517
873.625 0.594 -53.347 0.802 36.441 0.802 36.441 0.594 -53.347
898.583 0.583 -54.148 0.811 35.633 0.811 35.633 0.583 -54.148
923.542 0.571 -54.922 0.818 34.853 0.818 34.853 0.571 -54.922
948.5 0.561 -55.67 0.826 34.099 0.826 34.099 0.561 -55.67
973.458 0.55 -56.393 0.833 33.369 0.833 33.369 0.55 -56.393
998.417 0.54 -57.092 0.84 32.664 0.84 32.664 0.54 -57.092
1023.375 0.53 -57.768 0.846 31.981 0.846 31.981 0.53 -57.768
1048.333 0.52 -58.423 0.852 31.32 0.852 31.32 0.52 -58.423
1073.292 0.51 -59.056 0.858 30.68 0.858 30.68 0.51 -59.056
1098.25 0.501 -59.669 0.863 30.06 0.863 30.06 0.501 -59.669
1123.208 0.492 -60.263 0.868 29.46 0.868 29.46 0.492 -60.263
1148.167 0.483 -60.839 0.873 28.877 0.873 28.877 0.483 -60.839
1173.125 0.474 -61.397 0.878 28.312 0.878 28.312 0.474 -61.397
1198.083 0.466 -61.938 0.882 27.764 0.882 27.764 0.466 -61.938
1223.042 0.458 -62.463 0.887 27.233 0.887 27.233 0.458 -62.463
1248 0.45 -62.973 0.891 26.716 0.891 26.716 0.45 -62.973
1272.958 0.442 -63.467 0.895 26.215 0.895 26.215 0.442 -63.467
1297.917 0.434 -63.947 0.898 25.728 0.898 25.728 0.434 -63.947
1322.875 0.427 -64.414 0.902 25.254 0.902 25.254 0.427 -64.414
1347.833 0.419 -64.868 0.905 24.793 0.905 24.793 0.419 -64.868
1372.792 0.412 -65.308 0.909 24.345 0.909 24.345 0.412 -65.308
1397.75 0.405 -65.737 0.912 23.91 0.912 23.91 0.405 -65.737
1422.708 0.399 -66.154 0.915 23.485 0.915 23.485 0.399 -66.154
1447.667 0.392 -66.56 0.917 23.072 0.917 23.072 0.392 -66.56
1472.625 0.385 -66.956 0.92 22.67 0.92 22.67 0.385 -66.956
1497.583 0.379 -67.34 0.923 22.277 0.923 22.277 0.379 -67.34
1522.542 0.373 -67.715 0.925 21.895 0.925 21.895 0.373 -67.715
1547.5 0.367 -68.081 0.928 21.522 0.928 21.522 0.367 -68.081
1572.458 0.361 -68.437 0.93 21.159 0.93 21.159 0.361 -68.437
1597.417 0.355 -68.784 0.932 20.804 0.932 20.804 0.355 -68.784
1622.375 0.35 -69.123 0.934 20.458 0.934 20.458 0.35 -69.123
1647.333 0.344 -69.453 0.936 20.119 0.936 20.119 0.344 -69.453
1672.292 0.339 -69.776 0.938 19.789 0.938 19.789 0.339 -69.776
1697.25 0.333 -70.091 0.94 19.467 0.94 19.467 0.333 -70.091
1722.208 0.328 -70.398 0.942 19.151 0.942 19.151 0.328 -70.398
1747.167 0.323 -70.698 0.944 18.843 0.944 18.843 0.323 -70.698
1772.125 0.318 -70.992 0.946 18.541 0.946 18.541 0.318 -70.992
1797.083 0.313 -71.278 0.947 18.247 0.947 18.247 0.313 -71.278
1822.042 0.308 -71.559 0.949 17.958 0.949 17.958 0.308 -71.559
1847 0.304 -71.833 0.95 17.676 0.95 17.676 0.304 -71.833
1871.958 0.299 -72.101 0.952 17.399 0.952 17.399 0.299 -72.101
1896.917 0.295 -72.363 0.953 17.129 0.953 17.129 0.295 -72.363
1921.875 0.29 -72.62 0.954 16.864 0.954 16.864 0.29 -72.62
1946.833 0.286 -72.871 0.956 16.604 0.956 16.604 0.286 -72.871
1971.792 0.282 -73.117 0.957 16.349 0.957 16.349 0.282 -73.117
1996.75 0.277 -73.358 0.958 16.1 0.958 16.1 0.277 -73.358
2021.708 0.273 -73.594 0.959 15.855 0.959 15.855 0.273 -73.594
2046.667 0.269 -73.825 0.96 15.615 0.96 15.615 0.269 -73.825
2071.625 0.265 -74.051 0.962 15.38 0.962 15.38 0.265 -74.051
2096.583 0.261 -74.273 0.963 15.149 0.963 15.149 0.261 -74.273
2121.542 0.258 -74.491 0.964 14.922 0.964 14.922 0.258 -74.491
2146.5 0.254 -74.704 0.965 14.699 0.965 14.699 0.254 -74.704
2171.458 0.25 -74.913 0.966 14.481 0.966 14.481 0.25 -74.913
2196.417 0.246 -75.118 0.967 14.266 0.967 14.266 0.246 -75.118
2221.375 0.243 -75.32 0.967 14.055 0.967 14.055 0.243 -75.32
2246.333 0.239 -75.517 0.968 13.848 0.968 13.848 0.239 -75.517
2271.292 0.236 -75.711 0.969 13.644 0.969 13.644 0.236 -75.711
2296.25 0.233 -75.901 0.97 13.444 0.97 13.444 0.233 -75.901
2321.208 0.229 -76.088 0.971 13.247 0.971 13.247 0.229 -76.088
2346.167 0.226 -76.271 0.971 13.054 0.971 13.054 0.226 -76.271
2371.125 0.223 -76.451 0.972 12.863 0.972 12.863 0.223 -76.451
2396.083 0.219 -76.628 0.973 12.676 0.973 12.676 0.219 -76.628
2421.042 0.216 -76.802 0.974 12.491 0.974 12.491 0.216 -76.802
2446 0.213 -76.972 0.974 12.31 0.974 12.31 0.213 -76.972
2470.958 0.21 -77.14 0.975 12.131 0.975 12.131 0.21 -77.14
2495.917 0.207 -77.305 0.976 11.956 0.976 11.956 0.207 -77.305
2520.875 0.204 -77.467 0.976 11.782 0.976 11.782 0.204 -77.467
2545.833 0.201 -77.626 0.977 11.612 0.977 11.612 0.201 -77.626
2570.792 0.198 -77.783 0.977 11.444 0.977 11.444 0.198 -77.783
2595.75 0.196 -77.936 0.978 11.278 0.978 11.278 0.196 -77.936
2620.708 0.193 -78.088 0.979 11.115 0.979 11.115 0.193 -78.088
2645.667 0.19 -78.237 0.979 10.955 0.979 10.955 0.19 -78.237
2670.625 0.187 -78.383 0.98 10.796 0.98 10.796 0.187 -78.383
2695.583 0.185 -78.527 0.98 10.64 0.98 10.64 0.185 -78.527
2720.542 0.182 -78.668 0.981 10.486 0.981 10.486 0.182 -78.668
2745.5 0.179 -78.808 0.981 10.334 0.981 10.334 0.179 -78.808
2770.458 0.177 -78.945 0.982 10.184 0.982 10.184 0.177 -78.945
2795.417 0.174 -79.079 0.982 10.036 0.982 10.036 0.174 -79.079
2820.375 0.172 -79.212 0.982 9.89 0.982 9.89 0.172 -79.212
2845.333 0.169 -79.343 0.983 9.746 0.983 9.746 0.169 -79.343
2870.292 0.167 -79.471 0.983 9.604 0.983 9.604 0.167 -79.471
2895.25 0.164 -79.597 0.984 9.463 0.984 9.463 0.164 -79.597
2920.208 0.162 -79.722 0.984 9.325 0.984 9.325 0.162 -79.722
2945.167 0.16 -79.844 0.984 9.188 0.984 9.188 0.16 -79.844
2970.125 0.157 -79.964 0.985 9.053 0.985 9.053 0.157 -79.964
2995.083 0.155 -80.083 0.985 8.919 0.985 8.919 0.155 -80.083
3020.042 0.153 -80.2 0.986 8.788 0.986 8.788 0.153 -80.2
3045 0.151 -80.314 0.986 8.657 0.986 8.657 0.151 -80.314
3069.958 0.148 -80.427 0.986 8.529 0.986 8.529 0.148 -80.427
3094.917 0.146 -80.539 0.987 8.401 0.987 8.401 0.146 -80.539
3119.875 0.144 -80.648 0.987 8.276 0.987 8.276 0.144 -80.648
3144.833 0.142 -80.756 0.987 8.151 0.987 8.151 0.142 -80.756
3169.792 0.14 -80.861 0.987 8.029 0.987 8.029 0.14 -80.861
3194.75 0.138 -80.966 0.988 7.907 0.988 7.907 0.138 -80.966
3219.708 0.136 -81.068 0.988 7.787 0.988 7.787 0.136 -81.068
3244.667 0.133 -81.169 0.988 7.668 0.988 7.668 0.133 -81.169
3269.625 0.131 -81.268 0.989 7.551 0.989 7.551 0.131 -81.268
3294.583 0.129 -81.366 0.989 7.434 0.989 7.434 0.129 -81.366
3319.542 0.127 -81.462 0.989 7.319 0.989 7.319 0.127 -81.462
3344.5 0.125 -81.556 0.989 7.205 0.989 7.205 0.125 -81.556
3369.458 0.124 -81.649 0.99 7.093 0.99 7.093 0.124 -81.649
3394.417 0.122 -81.74 0.99 6.981 0.99 6.981 0.122 -81.74
3419.375 0.12 -81.83 0.99 6.871 0.99 6.871 0.12 -81.83
3444.333 0.118 -81.918 0.99 6.762 0.99 6.762 0.118 -81.918
3469.292 0.116 -82.004 0.991 6.654 0.991 6.654 0.116 -82.004
3494.25 0.114 -82.089 0.991 6.547 0.991 6.547 0.114 -82.089
3519.208 0.112 -82.173 0.991 6.44 0.991 6.44 0.112 -82.173
3544.167 0.11 -82.255 0.991 6.335 0.991 6.335 0.11 -82.255
3569.125 0.109 -82.335 0.991 6.232 0.991 6.232 0.109 -82.335
3594.083 0.107 -82.414 0.992 6.128 0.992 6.128 0.107 -82.414
3619.042 0.105 -82.491 0.992 6.026 0.992 6.026 0.105 -82.491
3644 0.103 -82.566 0.992 5.925 0.992 5.925 0.103 -82.566
3668.958 0.102 -82.64 0.992 5.825 0.992 5.825 0.102 -82.64
3693.917 0.1 -82.713 0.992 5.726 0.992 5.726 0.1 -82.713
3718.875 0.098 -82.784 0.992 5.628 0.992 5.628 0.098 -82.784
3743.833 0.096 -82.853 0.993 5.53 0.993 5.53 0.096 -82.853
3768.792 0.095 -82.921 0.993 5.433 0.993 5.433 0.095 -82.921
3793.75 0.093 -82.987 0.993 5.338 0.993 5.338 0.093 -82.987
3818.708 0.091 -83.051 0.993 5.243 0.993 5.243 0.091 -83.051
3843.667 0.09 -83.114 0.993 5.149 0.993 5.149 0.09 -83.114
3868.625 0.088 -83.175 0.993 5.055 0.993 5.055 0.088 -83.175
3893.583 0.087 -83.235 0.994 4.963 0.994 4.963 0.087 -83.235
3918.542 0.085 -83.292 0.994 4.871 0.994 4.871 0.085 -83.292
3943.5 0.083 -83.348 0.994 4.78 0.994 4.78 0.083 -83.348
3968.458 0.082 -83.402 0.994 4.69 0.994 4.69 0.082 -83.402
3993.417 0.08 -83.455 0.994 4.6 0.994 4.6 0.08 -83.455
4018.375 0.079 -83.505 0.994 4.511 0.994 4.511 0.079 -83.505
4043.333 0.077 -83.554 0.994 4.423 0.994 4.423 0.077 -83.554
4068.292 0.076 -83.6 0.994 4.335 0.994 4.335 0.076 -83.6
4093.25 0.074 -83.645 0.995 4.249 0.995 4.249 0.074 -83.645
4118.208 0.073 -83.687 0.995 4.163 0.995 4.163 0.073 -83.687
4143.167 0.071 -83.727 0.995 4.077 0.995 4.077 0.071 -83.727
4168.125 0.07 -83.765 0.995 3.992 0.995 3.992 0.07 -83.765
4193.083 0.068 -83.801 0.995 3.908 0.995 3.908 0.068 -83.801
4218.042 0.067 -83.835 0.995 3.824 0.995 3.824 0.067 -83.835
4243 0.065 -83.866 0.995 3.741 0.995 3.741 0.065 -83.866
4267.958 0.064 -83.894 0.995 3.659 0.995 3.659 0.064 -83.894
4292.917 0.062 -83.92 0.995 3.577 0.995 3.577 0.062 -83.92
4317.875 0.061 -83.943 0.995 3.496 0.995 3.496 0.061 -83.943
4342.833 0.06 -83.963 0.995 3.416 0.995 3.416 0.06 -83.963
4367.792 0.058 -83.98 0.996 3.335 0.996 3.335 0.058 -83.98
4392.75 0.057 -83.994 0.996 3.256 0.996 3.256 0.057 -83.994
4417.708 0.055 -84.004 0.996 3.177 0.996 3.177 0.055 -84.004
4442.667 0.054 -84.011 0.996 3.099 0.996 3.099 0.054 -84.011
4467.625 0.053 -84.015 0.996 3.021 0.996 3.021 0.053 -84.015
4492.583 0.051 -84.014 0.996 2.943 0.996 2.943 0.051 -84.014
4517.542 0.05 -84.01 0.996 2.866 0.996 2.866 0.05 -84.01
4542.5 0.049 -84 0.996 2.79 0.996 2.79 0.049 -84
4567.458 0.047 -83.987 0.996 2.714 0.996 2.714 0.047 -83.987
4592.417 0.046 -83.968 0.996 2.639 0.996 2.639 0.046 -83.968
4617.375 0.045 -83.944 0.996 2.564 0.996 2.564 0.045 -83.944
4642.333 0.044 -83.914 0.996 2.489 0.996 2.489 0.044 -83.914
4667.292 0.042 -83.878 0.996 2.415 0.996 2.415 0.042 -83.878
4692.25 0.041 -83.835 0.996 2.342 0.996 2.342 0.041 -83.835
4717.208 0.04 -83.785 0.996 2.269 0.996 2.269 0.04 -83.785
4742.167 0.038 -83.728 0.997 2.196 0.997 2.196 0.038 -83.728
4767.125 0.037 -83.662 0.997 2.124 0.997 2.124 0.037 -83.662
4792.083 0.036 -83.586 0.997 2.052 0.997 2.052 0.036 -83.586
4817.042 0.035 -83.501 0.997 1.981 0.997 1.981 0.035 -83.501
4842 0.033 -83.405 0.997 1.91 0.997 1.91 0.033 -83.405
4866.958 0.032 -83.296 0.997 1.839 0.997 1.839 0.032 -83.296
4891.917 0.031 -83.174 0.997 1.769 0.997 1.769 0.031 -83.174
4916.875 0.03 -83.037 0.997 1.699 0.997 1.699 0.03 -83.037
4941.833 0.029 -82.884 0.997 1.63 0.997 1.63 0.029 -82.884
4966.792 0.027 -82.712 0.997 1.561 0.997 1.561 0.027 -82.712
4991.75 0.026 -82.519 0.997 1.492 0.997 1.492 0.026 -82.519
5016.708 0.025 -82.303 0.997 1.424 0.997 1.424 0.025 -82.303
5041.667 0.024 -82.059 0.997 1.356 0.997 1.356 0.024 -82.059
5066.625 0.023 -81.785 0.997 1.289 0.997 1.289 0.023 -81.785
5091.583 0.021 -81.475 0.997 1.222 0.997 1.222 0.021 -81.475
5116.542 0.02 -81.125 0.997 1.155 0.997 1.155 0.02 -81.125
5141.5 0.019 -80.726 0.997 1.088 0.997 1.088 0.019 -80.726
5166.458 0.018 -80.271 0.997 1.022 0.997 1.022 0.018 -80.271
5191.417 0.017 -79.748 0.997 0.957 0.997 0.957 0.017 -79.748
5216.375 0.016 -79.145 0.997 0.891 0.997 0.891 0.016 -79.145
5241.333 0.015 -78.443 0.997 0.826 0.997 0.826 0.015 -78.443
5266.292 0.014 -77.619 0.997 0.761 0.997 0.761 0.014 -77.619
5291.25 0.012 -76.642 0.997 0.697 0.997 0.697 0.012 -76.642
5316.208 0.011 -75.471 0.997 0.633 0.997 0.633 0.011 -75.471
5341.167 0.01 -74.048 0.997 0.569 0.997 0.569 0.01 -74.048
5366.125 9.238e-3 -72.288 0.997 0.506 0.997 0.506 9.238e-3 -72.288
5391.083 8.191e-3 -70.069 0.997 0.442 0.997 0.442 8.191e-3 -70.069
5416.042 7.166e-3 -67.203 0.997 0.38 0.997 0.38 7.166e-3 -67.203
5441 6.17e-3 -63.394 0.997 0.317 0.997 0.317 6.17e-3 -63.394
5465.958 5.218e-3 -58.161 0.997 0.255 0.997 0.255 5.218e-3 -58.161
5490.917 4.333e-3 -50.708 0.997 0.193 0.997 0.193 4.333e-3 -50.708
5515.875 3.563e-3 -39.777 0.997 0.131 0.997 0.131 3.563e-3 -39.777
5540.833 2.99e-3 -23.871 0.997 0.07 0.997 0.07 2.99e-3 -23.871
5565.792 2.737e-3 -3.048 0.997 8.361e-3 0.997 8.361e-3 2.737e-3 -3.048
5590.75 2.882e-3 18.491 0.997 -0.053 0.997 -0.053 2.882e-3 18.491
5615.708 3.371e-3 35.737 0.997 -0.113 0.997 -0.113 3.371e-3 35.737
5640.667 4.079e-3 47.759 0.997 -0.173 0.997 -0.173 4.079e-3 47.759
5665.625 4.908e-3 55.93 0.997 -0.234 0.997 -0.234 4.908e-3 55.93
5690.583 5.804e-3 61.619 0.997 -0.293 0.997 -0.293 5.804e-3 61.619
5715.542 6.739e-3 65.724 0.997 -0.353 0.997 -0.353 6.739e-3 65.724
5740.5 7.697e-3 68.792 0.997 -0.412 0.997 -0.412 7.697e-3 68.792
5765.458 8.668e-3 71.152 0.997 -0.471 0.997 -0.471 8.668e-3 71.152
5790.417 9.648e-3 73.016 0.997 -0.53 0.997 -0.53 9.648e-3 73.016
5815.375 0.011 74.518 0.997 -0.589 0.997 -0.589 0.011 74.518
5840.333 0.012 75.75 0.997 -0.647 0.997 -0.647 0.012 75.75
5865.292 0.013 76.776 0.997 -0.705 0.997 -0.705 0.013 76.776
5890.25 0.014 77.641 0.997 -0.763 0.997 -0.763 0.014 77.641
5915.208 0.015 78.378 0.997 -0.821 0.997 -0.821 0.015 78.378
5940.167 0.016 79.011 0.997 -0.878 0.997 -0.878 0.016 79.011
5965.125 0.017 79.561 0.997 -0.935 0.997 -0.935 0.017 79.561
5990.083 0.018 80.04 0.997 -0.992 0.997 -0.992 0.018 80.04
6015.042 0.019 80.461 0.997 -1.049 0.997 -1.049 0.019 80.461
6040 0.019 80.833 0.997 -1.105 0.997 -1.105 0.019 80.833
6064.958 0.02 81.163 0.997 -1.162 0.997 -1.162 0.02 81.163
6089.917 0.021 81.456 0.997 -1.218 0.997 -1.218 0.021 81.456
6114.875 0.022 81.719 0.997 -1.274 0.997 -1.274 0.022 81.719
6139.833 0.023 81.954 0.997 -1.329 0.997 -1.329 0.023 81.954
6164.792 0.024 82.165 0.997 -1.385 0.997 -1.385 0.024 82.165
6189.75 0.025 82.355 0.997 -1.44 0.997 -1.44 0.025 82.355
6214.708 0.026 82.527 0.997 -1.495 0.997 -1.495 0.026 82.527
6239.667 0.027 82.683 0.997 -1.55 0.997 -1.55 0.027 82.683
6264.625 0.028 82.823 0.997 -1.604 0.997 -1.604 0.028 82.823
6289.583 0.029 82.951 0.997 -1.659 0.997 -1.659 0.029 82.951
6314.542 0.03 83.066 0.997 -1.713 0.997 -1.713 0.03 83.066
6339.5 0.031 83.171 0.997 -1.767 0.997 -1.767 0.031 83.171
6364.458 0.032 83.266 0.997 -1.821 0.997 -1.821 0.032 83.266
6389.417 0.033 83.353 0.997 -1.875 0.997 -1.875 0.033 83.353
6414.375 0.034 83.431 0.997 -1.928 0.997 -1.928 0.034 83.431
6439.333 0.035 83.502 0.997 -1.982 0.997 -1.982 0.035 83.502
6464.292 0.036 83.567 0.997 -2.035 0.997 -2.035 0.036 83.567
6489.25 0.037 83.625 0.997 -2.088 0.997 -2.088 0.037 83.625
6514.208 0.037 83.678 0.997 -2.14 0.997 -2.14 0.037 83.678
6539.167 0.038 83.725 0.997 -2.193 0.997 -2.193 0.038 83.725
6564.125 0.039 83.768 0.997 -2.246 0.997 -2.246 0.039 83.768
6589.083 0.04 83.806 0.996 -2.298 0.996 -2.298 0.04 83.806
6614.042 0.041 83.84 0.996 -2.35 0.996 -2.35 0.041 83.84
6639 0.042 83.871 0.996 -2.402 0.996 -2.402 0.042 83.871
6663.958 0.043 83.897 0.996 -2.454 0.996 -2.454 0.043 83.897
6688.917 0.044 83.921 0.996 -2.505 0.996 -2.505 0.044 83.921
6713.875 0.045 83.941 0.996 -2.557 0.996 -2.557 0.045 83.941
6738.833 0.046 83.959 0.996 -2.608 0.996 -2.608 0.046 83.959
6763.792 0.046 83.973 0.996 -2.659 0.996 -2.659 0.046 83.973
6788.75 0.047 83.986 0.996 -2.71 0.996 -2.71 0.047 83.986
6813.708 0.048 83.996 0.996 -2.761 0.996 -2.761 0.048 83.996
6838.667 0.049 84.003 0.996 -2.812 0.996 -2.812 0.049 84.003
6863.625 0.05 84.009 0.996 -2.862 0.996 -2.862 0.05 84.009
6888.583 0.051 84.013 0.996 -2.912 0.996 -2.912 0.051 84.013
6913.542 0.052 84.015 0.996 -2.963 0.996 -2.963 0.052 84.015
6938.5 0.053 84.015 0.996 -3.013 0.996 -3.013 0.053 84.015
6963.458 0.053 84.013 0.996 -3.063 0.996 -3.063 0.053 84.013
6988.417 0.054 84.01 0.996 -3.112 0.996 -3.112 0.054 84.01
7013.375 0.055 84.006 0.996 -3.162 0.996 -3.162 0.055 84.006
7038.333 0.056 84 0.996 -3.212 0.996 -3.212 0.056 84
7063.292 0.057 83.993 0.996 -3.261 0.996 -3.261 0.057 83.993
7088.25 0.058 83.985 0.996 -3.31 0.996 -3.31 0.058 83.985
7113.208 0.059 83.975 0.996 -3.359 0.996 -3.359 0.059 83.975
7138.167 0.06 83.965 0.996 -3.408 0.996 -3.408 0.06 83.965
7163.125 0.06 83.953 0.995 -3.457 0.995 -3.457 0.06 83.953
7188.083 0.061 83.94 0.995 -3.506 0.995 -3.506 0.061 83.94
7213.042 0.062 83.927 0.995 -3.554 0.995 -3.554 0.062 83.927
7238 0.063 83.912 0.995 -3.603 0.995 -3.603 0.063 83.912
7262.958 0.064 83.897 0.995 -3.651 0.995 -3.651 0.064 83.897
7287.917 0.065 83.881 0.995 -3.699 0.995 -3.699 0.065 83.881
7312.875 0.065 83.864 0.995 -3.747 0.995 -3.747 0.065 83.864
7337.833 0.066 83.846 0.995 -3.795 0.995 -3.795 0.066 83.846
7362.792 0.067 83.827 0.995 -3.843 0.995 -3.843 0.067 83.827
7387.75 0.068 83.808 0.995 -3.89 0.995 -3.89 0.068 83.808
7412.708 0.069 83.789 0.995 -3.938 0.995 -3.938 0.069 83.789
7437.667 0.07 83.768 0.995 -3.985 0.995 -3.985 0.07 83.768
7462.625 0.07 83.747 0.995 -4.033 0.995 -4.033 0.07 83.747
7487.583 0.071 83.726 0.995 -4.08 0.995 -4.08 0.071 83.726
7512.542 0.072 83.704 0.995 -4.127 0.995 -4.127 0.072 83.704
7537.5 0.073 83.682 0.995 -4.174 0.995 -4.174 0.073 83.682
7562.458 0.074 83.659 0.995 -4.221 0.995 -4.221 0.074 83.659
7587.417 0.074 83.635 0.995 -4.267 0.995 -4.267 0.074 83.635
7612.375 0.075 83.611 0.994 -4.314 0.994 -4.314 0.075 83.611
7637.333 0.076 83.587 0.994 -4.361 0.994 -4.361 0.076 83.587
7662.292 0.077 83.562 0.994 -4.407 0.994 -4.407 0.077 83.562
7687.25 0.078 83.537 0.994 -4.453 0.994 -4.453 0.078 83.537
7712.208 0.078 83.512 0.994 -4.499 0.994 -4.499 0.078 83.512
7737.167 0.079 83.486 0.994 -4.545 0.994 -4.545 0.079 83.486
7762.125 0.08 83.46 0.994 -4.591 0.994 -4.591 0.08 83.46
7787.083 0.081 83.433 0.994 -4.637 0.994 -4.637 0.081 83.433
7812.042 0.082 83.406 0.994 -4.683 0.994 -4.683 0.082 83.406
7837 0.082 83.379 0.994 -4.729 0.994 -4.729 0.082 83.379
7861.958 0.083 83.352 0.994 -4.774 0.994 -4.774 0.083 83.352
7886.917 0.084 83.324 0.994 -4.819 0.994 -4.819 0.084 83.324
7911.875 0.085 83.296 0.994 -4.865 0.994 -4.865 0.085 83.296
7936.833 0.086 83.268 0.994 -4.91 0.994 -4.91 0.086 83.268
7961.792 0.086 83.239 0.994 -4.955 0.994 -4.955 0.086 83.239
7986.75 0.087 83.211 0.993 -5 0.993 -5 0.087 83.211
8011.708 0.088 83.182 0.993 -5.045 0.993 -5.045 0.088 83.182
8036.667 0.089 83.153 0.993 -5.09 0.993 -5.09 0.089 83.153
8061.625 0.09 83.123 0.993 -5.135 0.993 -5.135 0.09 83.123
8086.583 0.09 83.094 0.993 -5.179 0.993 -5.179 0.09 83.094
8111.542 0.091 83.064 0.993 -5.224 0.993 -5.224 0.091 83.064
8136.5 0.092 83.034 0.993 -5.268 0.993 -5.268 0.092 83.034
8161.458 0.093 83.004 0.993 -5.313 0.993 -5.313 0.093 83.004
8186.417 0.093 82.974 0.993 -5.357 0.993 -5.357 0.093 82.974
8211.375 0.094 82.943 0.993 -5.401 0.993 -5.401 0.094 82.943
8236.333 0.095 82.913 0.993 -5.445 0.993 -5.445 0.095 82.913
8261.292 0.096 82.882 0.993 -5.489 0.993 -5.489 0.096 82.882
8286.25 0.096 82.851 0.993 -5.533 0.993 -5.533 0.096 82.851
8311.208 0.097 82.82 0.993 -5.577 0.993 -5.577 0.097 82.82
8336.167 0.098 82.789 0.992 -5.621 0.992 -5.621 0.098 82.789
8361.125 0.099 82.758 0.992 -5.664 0.992 -5.664 0.099 82.758
8386.083 0.099 82.726 0.992 -5.708 0.992 -5.708 0.099 82.726
8411.042 0.1 82.695 0.992 -5.751 0.992 -5.751 0.1 82.695
8436 0.101 82.663 0.992 -5.795 0.992 -5.795 0.101 82.663
8460.958 0.102 82.631 0.992 -5.838 0.992 -5.838 0.102 82.631
8485.917 0.102 82.599 0.992 -5.881 0.992 -5.881 0.102 82.599
8510.875 0.103 82.567 0.992 -5.924 0.992 -5.924 0.103 82.567
8535.833 0.104 82.535 0.992 -5.967 0.992 -5.967 0.104 82.535
8560.792 0.105 82.503 0.992 -6.01 0.992 -6.01 0.105 82.503
8585.75 0.105 82.471 0.992 -6.053 0.992 -6.053 0.105 82.471
8610.708 0.106 82.438 0.992 -6.096 0.992 -6.096 0.106 82.438
8635.667 0.107 82.406 0.992 -6.139 0.992 -6.139 0.107 82.406
8660.625 0.108 82.373 0.991 -6.181 0.991 -6.181 0.108 82.373
8685.583 0.108 82.341 0.991 -6.224 0.991 -6.224 0.108 82.341
8710.542 0.109 82.308 0.991 -6.266 0.991 -6.266 0.109 82.308
8735.5 0.11 82.275 0.991 -6.309 0.991 -6.309 0.11 82.275
8760.458 0.111 82.243 0.991 -6.351 0.991 -6.351 0.111 82.243
8785.417 0.111 82.21 0.991 -6.393 0.991 -6.393 0.111 82.21
8810.375 0.112 82.177 0.991 -6.435 0.991 -6.435 0.112 82.177
8835.333 0.113 82.144 0.991 -6.478 0.991 -6.478 0.113 82.144
8860.292 0.114 82.111 0.991 -6.52 0.991 -6.52 0.114 82.111
8885.25 0.114 82.077 0.991 -6.561 0.991 -6.561 0.114 82.077
8910.208 0.115 82.044 0.991 -6.603 0.991 -6.603 0.115 82.044
8935.167 0.116 82.011 0.991 -6.645 0.991 -6.645 0.116 82.011
8960.125 0.116 81.978 0.99 -6.687 0.99 -6.687 0.116 81.978
8985.083 0.117 81.945 0.99 -6.729 0.99 -6.729 0.117 81.945
9010.042 0.118 81.911 0.99 -6.77 0.99 -6.77 0.118 81.911
9035 0.119 81.878 0.99 -6.812 0.99 -6.812 0.119 81.878
9059.958 0.119 81.844 0.99 -6.853 0.99 -6.853 0.119 81.844
9084.917 0.12 81.811 0.99 -6.895 0.99 -6.895 0.12 81.811
9109.875 0.121 81.777 0.99 -6.936 0.99 -6.936 0.121 81.777
9134.833 0.122 81.744 0.99 -6.977 0.99 -6.977 0.122 81.744
9159.792 0.122 81.71 0.99 -7.018 0.99 -7.018 0.122 81.71
9184.75 0.123 81.676 0.99 -7.059 0.99 -7.059 0.123 81.676
9209.708 0.124 81.643 0.99 -7.1 0.99 -7.1 0.124 81.643
9234.667 0.124 81.609 0.99 -7.141 0.99 -7.141 0.124 81.609
9259.625 0.125 81.575 0.989 -7.182 0.989 -7.182 0.125 81.575
9284.583 0.126 81.542 0.989 -7.223 0.989 -7.223 0.126 81.542
9309.542 0.126 81.508 0.989 -7.264 0.989 -7.264 0.126 81.508
9334.5 0.127 81.474 0.989 -7.305 0.989 -7.305 0.127 81.474
9359.458 0.128 81.44 0.989 -7.345 0.989 -7.345 0.128 81.44
9384.417 0.129 81.406 0.989 -7.386 0.989 -7.386 0.129 81.406
9409.375 0.129 81.373 0.989 -7.426 0.989 -7.426 0.129 81.373
9434.333 0.13 81.339 0.989 -7.467 0.989 -7.467 0.13 81.339
9459.292 0.131 81.305 0.989 -7.507 0.989 -7.507 0.131 81.305
9484.25 0.131 81.271 0.989 -7.547 0.989 -7.547 0.131 81.271
9509.208 0.132 81.237 0.989 -7.588 0.989 -7.588 0.132 81.237
9534.167 0.133 81.203 0.988 -7.628 0.988 -7.628 0.133 81.203
9559.125 0.133 81.169 0.988 -7.668 0.988 -7.668 0.133 81.169
9584.083 0.134 81.135 0.988 -7.708 0.988 -7.708 0.134 81.135
9609.042 0.135 81.101 0.988 -7.748 0.988 -7.748 0.135 81.101
9634 0.136 81.067 0.988 -7.788 0.988 -7.788 0.136 81.067
9658.958 0.136 81.033 0.988 -7.828 0.988 -7.828 0.136 81.033
9683.917 0.137 80.999 0.988 -7.868 0.988 -7.868 0.137 80.999
9708.875 0.138 80.965 0.988 -7.908 0.988 -7.908 0.138 80.965
9733.833 0.138 80.931 0.988 -7.947 0.988 -7.947 0.138 80.931
9758.792 0.139 80.897 0.988 -7.987 0.988 -7.987 0.139 80.897
9783.75 0.14 80.863 0.987 -8.027 0.987 -8.027 0.14 80.863
9808.708 0.14 80.829 0.987 -8.066 0.987 -8.066 0.14 80.829
9833.667 0.141 80.795 0.987 -8.106 0.987 -8.106 0.141 80.795
9858.625 0.142 80.761 0.987 -8.145 0.987 -8.145 0.142 80.761
9883.583 0.142 80.727 0.987 -8.185 0.987 -8.185 0.142 80.727
9908.542 0.143 80.693 0.987 -8.224 0.987 -8.224 0.143 80.693
9933.5 0.144 80.659 0.987 -8.263 0.987 -8.263 0.144 80.659
9958.458 0.144 80.625 0.987 -8.302 0.987 -8.302 0.144 80.625
9983.417 0.145 80.591 0.987 -8.342 0.987 -8.342 0.145 80.591
10008.375 0.146 80.557 0.987 -8.381 0.987 -8.381 0.146 80.557
10033.333 0.146 80.523 0.987 -8.42 0.987 -8.42 0.146 80.523
10058.292 0.147 80.488 0.986 -8.459 0.986 -8.459 0.147 80.488
10083.25 0.148 80.454 0.986 -8.498 0.986 -8.498 0.148 80.454
10108.208 0.148 80.42 0.986 -8.537 0.986 -8.537 0.148 80.42
10133.167 0.149 80.386 0.986 -8.575 0.986 -8.575 0.149 80.386
10158.125 0.15 80.352 0.986 -8.614 0.986 -8.614 0.15 80.352
10183.083 0.15 80.318 0.986 -8.653 0.986 -8.653 0.15 80.318
10208.042 0.151 80.284 0.986 -8.692 0.986 -8.692 0.151 80.284
10233 0.152 80.25 0.986 -8.73 0.986 -8.73 0.152 80.25
10257.958 0.152 80.216 0.986 -8.769 0.986 -8.769 0.152 80.216
10282.917 0.153 80.182 0.986 -8.807 0.986 -8.807 0.153 80.182
10307.875 0.154 80.148 0.985 -8.846 0.985 -8.846 0.154 80.148
10332.833 0.154 80.114 0.985 -8.884 0.985 -8.884 0.154 80.114
10357.792 0.155 80.08 0.985 -8.923 0.985 -8.923 0.155 80.08
10382.75 0.156 80.046 0.985 -8.961 0.985 -8.961 0.156 80.046
10407.708 0.156 80.012 0.985 -8.999 0.985 -8.999 0.156 80.012
10432.667 0.157 79.978 0.985 -9.038 0.985 -9.038 0.157 79.978
10457.625 0.158 79.944 0.985 -9.076 0.985 -9.076 0.158 79.944
10482.583 0.158 79.91 0.985 -9.114 0.985 -9.114 0.158 79.91
10507.542 0.159 79.876 0.985 -9.152 0.985 -9.152 0.159 79.876
10532.5 0.16 79.842 0.984 -9.19 0.984 -9.19 0.16 79.842
10557.458 0.16 79.808 0.984 -9.228 0.984 -9.228 0.16 79.808
10582.417 0.161 79.774 0.984 -9.266 0.984 -9.266 0.161 79.774
10607.375 0.162 79.74 0.984 -9.304 0.984 -9.304 0.162 79.74
10632.333 0.162 79.707 0.984 -9.342 0.984 -9.342 0.162 79.707
10657.292 0.163 79.673 0.984 -9.38 0.984 -9.38 0.163 79.673
10682.25 0.164 79.639 0.984 -9.417 0.984 -9.417 0.164 79.639
10707.208 0.164 79.605 0.984 -9.455 0.984 -9.455 0.164 79.605
10732.167 0.165 79.571 0.984 -9.493 0.984 -9.493 0.165 79.571
10757.125 0.166 79.537 0.984 -9.53 0.984 -9.53 0.166 79.537
10782.083 0.166 79.503 0.983 -9.568 0.983 -9.568 0.166 79.503
10807.042 0.167 79.469 0.983 -9.605 0.983 -9.605 0.167 79.469
10832 0.168 79.436 0.983 -9.643 0.983 -9.643 0.168 79.436
10856.958 0.168 79.402 0.983 -9.68 0.983 -9.68 0.168 79.402
10881.917 0.169 79.368 0.983 -9.718 0.983 -9.718 0.169 79.368
10906.875 0.169 79.334 0.983 -9.755 0.983 -9.755 0.169 79.334
10931.833 0.17 79.3 0.983 -9.792 0.983 -9.792 0.17 79.3
10956.792 0.171 79.267 0.983 -9.83 0.983 -9.83 0.171 79.267
10981.75 0.171 79.233 0.983 -9.867 0.983 -9.867 0.171 79.233
11006.708 0.172 79.199 0.982 -9.904 0.982 -9.904 0.172 79.199
11031.667 0.173 79.165 0.982 -9.941 0.982 -9.941 0.173 79.165
11056.625 0.173 79.132 0.982 -9.978 0.982 -9.978 0.173 79.132
11081.583 0.174 79.098 0.982 -10.015 0.982 -10.015 0.174 79.098
11106.542 0.175 79.064 0.982 -10.052 0.982 -10.052 0.175 79.064
11131.5 0.175 79.031 0.982 -10.089 0.982 -10.089 0.175 79.031
11156.458 0.176 78.997 0.982 -10.126 0.982 -10.126 0.176 78.997
11181.417 0.176 78.963 0.982 -10.163 0.982 -10.163 0.176 78.963
11206.375 0.177 78.93 0.982 -10.2 0.982 -10.2 0.177 78.93
11231.333 0.178 78.896 0.981 -10.237 0.981 -10.237 0.178 78.896
11256.292 0.178 78.862 0.981 -10.274 0.981 -10.274 0.178 78.862
11281.25 0.179 78.829 0.981 -10.31 0.981 -10.31 0.179 78.829
11306.208 0.18 78.795 0.981 -10.347 0.981 -10.347 0.18 78.795
11331.167 0.18 78.762 0.981 -10.384 0.981 -10.384 0.18 78.762
11356.125 0.181 78.728 0.981 -10.42 0.981 -10.42 0.181 78.728
11381.083 0.182 78.695 0.981 -10.457 0.981 -10.457 0.182 78.695
11406.042 0.182 78.661 0.981 -10.493 0.981 -10.493 0.182 78.661
11431 0.183 78.628 0.98 -10.53 0.98 -10.53 0.183 78.628
11455.958 0.183 78.594 0.98 -10.566 0.98 -10.566 0.183 78.594
11480.917 0.184 78.561 0.98 -10.603 0.98 -10.603 0.184 78.561
11505.875 0.185 78.527 0.98 -10.639 0.98 -10.639 0.185 78.527
11530.833 0.185 78.494 0.98 -10.676 0.98 -10.676 0.185 78.494
11555.792 0.186 78.46 0.98 -10.712 0.98 -10.712 0.186 78.46
11580.75 0.187 78.427 0.98 -10.748 0.98 -10.748 0.187 78.427
11605.708 0.187 78.394 0.98 -10.784 0.98 -10.784 0.187 78.394
11630.667 0.188 78.36 0.98 -10.82 0.98 -10.82 0.188 78.36
11655.625 0.188 78.327 0.979 -10.857 0.979 -10.857 0.188 78.327
11680.583 0.189 78.294 0.979 -10.893 0.979 -10.893 0.189 78.294
11705.542 0.19 78.26 0.979 -10.929 0.979 -10.929 0.19 78.26
11730.5 0.19 78.227 0.979 -10.965 0.979 -10.965 0.19 78.227
11755.458 0.191 78.194 0.979 -11.001 0.979 -11.001 0.191 78.194
11780.417 0.191 78.16 0.979 -11.037 0.979 -11.037 0.191 78.16
11805.375 0.192 78.127 0.979 -11.073 0.979 -11.073 0.192 78.127
11830.333 0.193 78.094 0.979 -11.109 0.979 -11.109 0.193 78.094
11855.292 0.193 78.061 0.978 -11.144 0.978 -11.144 0.193 78.061
11880.25 0.194 78.028 0.978 -11.18 0.978 -11.18 0.194 78.028
11905.208 0.195 77.994 0.978 -11.216 0.978 -11.216 0.195 77.994
11930.167 0.195 77.961 0.978 -11.252 0.978 -11.252 0.195 77.961
11955.125 0.196 77.928 0.978 -11.287 0.978 -11.287 0.196 77.928
11980.083 0.196 77.895 0.978 -11.323 0.978 -11.323 0.196 77.895
12005.042 0.197 77.862 0.978 -11.359 0.978 -11.359 0.197 77.862
12030 0.198 77.829 0.978 -11.394 0.978 -11.394 0.198 77.829
12054.958 0.198 77.796 0.977 -11.43 0.977 -11.43 0.198 77.796
12079.917 0.199 77.763 0.977 -11.465 0.977 -11.465 0.199 77.763
12104.875 0.199 77.73 0.977 -11.501 0.977 -11.501 0.199 77.73
12129.833 0.2 77.697 0.977 -11.536 0.977 -11.536 0.2 77.697
12154.792 0.201 77.664 0.977 -11.572 0.977 -11.572 0.201 77.664
12179.75 0.201 77.631 0.977 -11.607 0.977 -11.607 0.201 77.631
12204.708 0.202 77.598 0.977 -11.643 0.977 -11.643 0.202 77.598
12229.667 0.202 77.565 0.977 -11.678 0.977 -11.678 0.202 77.565
12254.625 0.203 77.532 0.977 -11.713 0.977 -11.713 0.203 77.532
12279.583 0.204 77.499 0.976 -11.748 0.976 -11.748 0.204 77.499
12304.542 0.204 77.466 0.976 -11.784 0.976 -11.784 0.204 77.466
12329.5 0.205 77.433 0.976 -11.819 0.976 -11.819 0.205 77.433
12354.458 0.205 77.4 0.976 -11.854 0.976 -11.854 0.205 77.4
12379.417 0.206 77.367 0.976 -11.889 0.976 -11.889 0.206 77.367
12404.375 0.207 77.334 0.976 -11.924 0.976 -11.924 0.207 77.334
12429.333 0.207 77.302 0.976 -11.959 0.976 -11.959 0.207 77.302
12454.292 0.208 77.269 0.975 -11.994 0.975 -11.994 0.208 77.269
12479.25 0.208 77.236 0.975 -12.029 0.975 -12.029 0.208 77.236
12504.208 0.209 77.203 0.975 -12.064 0.975 -12.064 0.209 77.203
12529.167 0.21 77.17 0.975 -12.099 0.975 -12.099 0.21 77.17
12554.125 0.21 77.138 0.975 -12.134 0.975 -12.134 0.21 77.138
12579.083 0.211 77.105 0.975 -12.169 0.975 -12.169 0.211 77.105
12604.042 0.211 77.072 0.975 -12.204 0.975 -12.204 0.211 77.072
12629 0.212 77.04 0.975 -12.239 0.975 -12.239 0.212 77.04
12653.958 0.213 77.007 0.974 -12.273 0.974 -12.273 0.213 77.007
12678.917 0.213 76.974 0.974 -12.308 0.974 -12.308 0.213 76.974
12703.875 0.214 76.942 0.974 -12.343 0.974 -12.343 0.214 76.942
12728.833 0.214 76.909 0.974 -12.377 0.974 -12.377 0.214 76.909
12753.792 0.215 76.876 0.974 -12.412 0.974 -12.412 0.215 76.876
12778.75 0.216 76.844 0.974 -12.447 0.974 -12.447 0.216 76.844
12803.708 0.216 76.811 0.974 -12.481 0.974 -12.481 0.216 76.811
12828.667 0.217 76.779 0.974 -12.516 0.974 -12.516 0.217 76.779
12853.625 0.217 76.746 0.973 -12.55 0.973 -12.55 0.217 76.746
12878.583 0.218 76.714 0.973 -12.585 0.973 -12.585 0.218 76.714
12903.542 0.218 76.681 0.973 -12.619 0.973 -12.619 0.218 76.681
12928.5 0.219 76.649 0.973 -12.654 0.973 -12.654 0.219 76.649
12953.458 0.22 76.616 0.973 -12.688 0.973 -12.688 0.22 76.616
12978.417 0.22 76.584 0.973 -12.723 0.973 -12.723 0.22 76.584
13003.375 0.221 76.552 0.973 -12.757 0.973 -12.757 0.221 76.552
13028.333 0.221 76.519 0.973 -12.791 0.973 -12.791 0.221 76.519
13053.292 0.222 76.487 0.972 -12.825 0.972 -12.825 0.222 76.487
13078.25 0.223 76.454 0.972 -12.86 0.972 -12.86 0.223 76.454
13103.208 0.223 76.422 0.972 -12.894 0.972 -12.894 0.223 76.422
13128.167 0.224 76.39 0.972 -12.928 0.972 -12.928 0.224 76.39
13153.125 0.224 76.358 0.972 -12.962 0.972 -12.962 0.224 76.358
13178.083 0.225 76.325 0.972 -12.996 0.972 -12.996 0.225 76.325
13203.042 0.225 76.293 0.972 -13.03 0.972 -13.03 0.225 76.293
13228 0.226 76.261 0.971 -13.065 0.971 -13.065 0.226 76.261
13252.958 0.227 76.228 0.971 -13.099 0.971 -13.099 0.227 76.228
13277.917 0.227 76.196 0.971 -13.133 0.971 -13.133 0.227 76.196
13302.875 0.228 76.164 0.971 -13.167 0.971 -13.167 0.228 76.164
13327.833 0.228 76.132 0.971 -13.201 0.971 -13.201 0.228 76.132
13352.792 0.229 76.1 0.971 -13.235 0.971 -13.235 0.229 76.1
13377.75 0.23 76.068 0.971 -13.268 0.971 -13.268 0.23 76.068
13402.708 0.23 76.035 0.971 -13.302 0.971 -13.302 0.23 76.035
13427.667 0.231 76.003 0.97 -13.336 0.97 -13.336 0.231 76.003
13452.625 0.231 75.971 0.97 -13.37 0.97 -13.37 0.231 75.971
13477.583 0.232 75.939 0.97 -13.404 0.97 -13.404 0.232 75.939
13502.542 0.232 75.907 0.97 -13.438 0.97 -13.438 0.232 75.907
13527.5 0.233 75.875 0.97 -13.471 0.97 -13.471 0.233 75.875
13552.458 0.234 75.843 0.97 -13.505 0.97 -13.505 0.234 75.843
13577.417 0.234 75.811 0.97 -13.539 0.97 -13.539 0.234 75.811
13602.375 0.235 75.779 0.969 -13.572 0.969 -13.572 0.235 75.779
13627.333 0.235 75.747 0.969 -13.606 0.969 -13.606 0.235 75.747
13652.292 0.236 75.715 0.969 -13.64 0.969 -13.64 0.236 75.715
13677.25 0.236 75.683 0.969 -13.673 0.969 -13.673 0.236 75.683
13702.208 0.237 75.651 0.969 -13.707 0.969 -13.707 0.237 75.651
13727.167 0.238 75.619 0.969 -13.74 0.969 -13.74 0.238 75.619
13752.125 0.238 75.588 0.969 -13.774 0.969 -13.774 0.238 75.588
13777.083 0.239 75.556 0.968 -13.807 0.968 -13.807 0.239 75.556
13802.042 0.239 75.524 0.968 -13.841 0.968 -13.841 0.239 75.524
13827 0.24 75.492 0.968 -13.874 0.968 -13.874 0.24 75.492
13851.958 0.24 75.46 0.968 -13.907 0.968 -13.907 0.24 75.46
13876.917 0.241 75.428 0.968 -13.941 0.968 -13.941 0.241 75.428
13901.875 0.241 75.397 0.968 -13.974 0.968 -13.974 0.241 75.397
13926.833 0.242 75.365 0.968 -14.007 0.968 -14.007 0.242 75.365
13951.792 0.243 75.333 0.967 -14.041 0.967 -14.041 0.243 75.333
13976.75 0.243 75.302 0.967 -14.074 0.967 -14.074 0.243 75.302
14001.708 0.244 75.27 0.967 -14.107 0.967 -14.107 0.244 75.27
14026.667 0.244 75.238 0.967 -14.14 0.967 -14.14 0.244 75.238
14051.625 0.245 75.206 0.967 -14.174 0.967 -14.174 0.245 75.206
14076.583 0.245 75.175 0.967 -14.207 0.967 -14.207 0.245 75.175
14101.542 0.246 75.143 0.967 -14.24 0.967 -14.24 0.246 75.143
14126.5 0.247 75.112 0.966 -14.273 0.966 -14.273 0.247 75.112
14151.458 0.247 75.08 0.966 -14.306 0.966 -14.306 0.247 75.08
14176.417 0.248 75.048 0.966 -14.339 0.966 -14.339 0.248 75.048
14201.375 0.248 75.017 0.966 -14.372 0.966 -14.372 0.248 75.017
14226.333 0.249 74.985 0.966 -14.405 0.966 -14.405 0.249 74.985
14251.292 0.249 74.954 0.966 -14.438 0.966 -14.438 0.249 74.954
14276.25 0.25 74.922 0.966 -14.471 0.966 -14.471 0.25 74.922
14301.208 0.25 74.891 0.965 -14.504 0.965 -14.504 0.25 74.891
14326.167 0.251 74.859 0.965 -14.537 0.965 -14.537 0.251 74.859
14351.125 0.252 74.828 0.965 -14.57 0.965 -14.57 0.252 74.828
14376.083 0.252 74.796 0.965 -14.603 0.965 -14.603 0.252 74.796
14401.042 0.253 74.765 0.965 -14.635 0.965 -14.635 0.253 74.765
14426 0.253 74.734 0.965 -14.668 0.965 -14.668 0.253 74.734
14450.958 0.254 74.702 0.965 -14.701 0.965 -14.701 0.254 74.702
14475.917 0.254 74.671 0.964 -14.734 0.964 -14.734 0.254 74.671
14500.875 0.255 74.64 0.964 -14.766 0.964 -14.766 0.255 74.64
14525.833 0.255 74.608 0.964 -14.799 0.964 -14.799 0.255 74.608
14550.792 0.256 74.577 0.964 -14.832 0.964 -14.832 0.256 74.577
14575.75 0.257 74.546 0.964 -14.864 0.964 -14.864 0.257 74.546
14600.708 0.257 74.514 0.964 -14.897 0.964 -14.897 0.257 74.514
14625.667 0.258 74.483 0.964 -14.93 0.964 -14.93 0.258 74.483
14650.625 0.258 74.452 0.963 -14.962 0.963 -14.962 0.258 74.452
14675.583 0.259 74.421 0.963 -14.995 0.963 -14.995 0.259 74.421
14700.542 0.259 74.389 0.963 -15.027 0.963 -15.027 0.259 74.389
14725.5 0.26 74.358 0.963 -15.06 0.963 -15.06 0.26 74.358
14750.458 0.26 74.327 0.963 -15.092 0.963 -15.092 0.26 74.327
14775.417 0.261 74.296 0.963 -15.125 0.963 -15.125 0.261 74.296
14800.375 0.261 74.265 0.963 -15.157 0.963 -15.157 0.261 74.265
14825.333 0.262 74.234 0.962 -15.19 0.962 -15.19 0.262 74.234
14850.292 0.263 74.202 0.962 -15.222 0.962 -15.222 0.263 74.202
14875.25 0.263 74.171 0.962 -15.254 0.962 -15.254 0.263 74.171
14900.208 0.264 74.14 0.962 -15.287 0.962 -15.287 0.264 74.14
14925.167 0.264 74.109 0.962 -15.319 0.962 -15.319 0.264 74.109
14950.125 0.265 74.078 0.962 -15.351 0.962 -15.351 0.265 74.078
14975.083 0.265 74.047 0.962 -15.384 0.962 -15.384 0.265 74.047
15000.042 0.266 74.016 0.961 -15.416 0.961 -15.416 0.266 74.016
15025 0.266 73.985 0.961 -15.448 0.961 -15.448 0.266 73.985
15049.958 0.267 73.954 0.961 -15.48 0.961 -15.48 0.267 73.954
15074.917 0.267 73.923 0.961 -15.513 0.961 -15.513 0.267 73.923
15099.875 0.268 73.892 0.961 -15.545 0.961 -15.545 0.268 73.892
15124.833 0.269 73.861 0.961 -15.577 0.961 -15.577 0.269 73.861
15149.792 0.269 73.831 0.96 -15.609 0.96 -15.609 0.269 73.831
15174.75 0.27 73.8 0.96 -15.641 0.96 -15.641 0.27 73.8
15199.708 0.27 73.769 0.96 -15.673 0.96 -15.673 0.27 73.769
15224.667 0.271 73.738 0.96 -15.705 0.96 -15.705 0.271 73.738
15249.625 0.271 73.707 0.96 -15.737 0.96 -15.737 0.271 73.707
15274.583 0.272 73.676 0.96 -15.769 0.96 -15.769 0.272 73.676
15299.542 0.272 73.645 0.96 -15.801 0.96 -15.801 0.272 73.645
15324.5 0.273 73.615 0.959 -15.833 0.959 -15.833 0.273 73.615
15349.458 0.273 73.584 0.959 -15.865 0.959 -15.865 0.273 73.584
15374.417 0.274 73.553 0.959 -15.897 0.959 -15.897 0.274 73.553
15399.375 0.274 73.522 0.959 -15.929 0.959 -15.929 0.274 73.522
15424.333 0.275 73.492 0.959 -15.961 0.959 -15.961 0.275 73.492
15449.292 0.276 73.461 0.959 -15.993 0.959 -15.993 0.276 73.461
15474.25 0.276 73.43 0.959 -16.024 0.959 -16.024 0.276 73.43
15499.208 0.277 73.4 0.958 -16.056 0.958 -16.056 0.277 73.4
15524.167 0.277 73.369 0.958 -16.088 0.958 -16.088 0.277 73.369
15549.125 0.278 73.338 0.958 -16.12 0.958 -16.12 0.278 73.338
15574.083 0.278 73.308 0.958 -16.152 0.958 -16.152 0.278 73.308
15599.042 0.279 73.277 0.958 -16.183 0.958 -16.183 0.279 73.277
15624 0.279 73.247 0.958 -16.215 0.958 -16.215 0.279 73.247
15648.958 0.28 73.216 0.957 -16.247 0.957 -16.247 0.28 73.216
15673.917 0.28 73.185 0.957 -16.278 0.957 -16.278 0.28 73.185
15698.875 0.281 73.155 0.957 -16.31 0.957 -16.31 0.281 73.155
15723.833 0.281 73.124 0.957 -16.342 0.957 -16.342 0.281 73.124
15748.792 0.282 73.094 0.957 -16.373 0.957 -16.373 0.282 73.094
15773.75 0.282 73.063 0.957 -16.405 0.957 -16.405 0.282 73.063
15798.708 0.283 73.033 0.957 -16.436 0.957 -16.436 0.283 73.033
15823.667 0.283 73.003 0.956 -16.468 0.956 -16.468 0.283 73.003
15848.625 0.284 72.972 0.956 -16.499 0.956 -16.499 0.284 72.972
15873.583 0.285 72.942 0.956 -16.531 0.956 -16.531 0.285 72.942
15898.542 0.285 72.911 0.956 -16.562 0.956 -16.562 0.285 72.911
15923.5 0.286 72.881 0.956 -16.594 0.956 -16.594 0.286 72.881
15948.458 0.286 72.851 0.956 -16.625 0.956 -16.625 0.286 72.851
15973.417 0.287 72.82 0.955 -16.656 0.955 -16.656 0.287 72.82
15998.375 0.287 72.79 0.955 -16.688 0.955 -16.688 0.287 72.79
16023.333 0.288 72.76 0.955 -16.719 0.955 -16.719 0.288 72.76
16048.292 0.288 72.729 0.955 -16.751 0.955 -16.751 0.288 72.729
16073.25 0.289 72.699 0.955 -16.782 0.955 -16.782 0.289 72.699
16098.208 0.289 72.669 0.955 -16.813 0.955 -16.813 0.289 72.669
16123.167 0.29 72.638 0.954 -16.844 0.954 -16.844 0.29 72.638
16148.125 0.29 72.608 0.954 -16.876 0.954 -16.876 0.29 72.608
16173.083 0.291 72.578 0.954 -16.907 0.954 -16.907 0.291 72.578
16198.042 0.291 72.548 0.954 -16.938 0.954 -16.938 0.291 72.548
16223 0.292 72.518 0.954 -16.969 0.954 -16.969 0.292 72.518
16247.958 0.292 72.487 0.954 -17.001 0.954 -17.001 0.292 72.487
16272.917 0.293 72.457 0.954 -17.032 0.954 -17.032 0.293 72.457
16297.875 0.293 72.427 0.953 -17.063 0.953 -17.063 0.293 72.427
16322.833 0.294 72.397 0.953 -17.094 0.953 -17.094 0.294 72.397
16347.792 0.294 72.367 0.953 -17.125 0.953 -17.125 0.294 72.367
16372.75 0.295 72.337 0.953 -17.156 0.953 -17.156 0.295 72.337
16397.708 0.296 72.307 0.953 -17.187 0.953 -17.187 0.296 72.307
16422.667 0.296 72.277 0.953 -17.218 0.953 -17.218 0.296 72.277
16447.625 0.297 72.247 0.952 -17.249 0.952 -17.249 0.297 72.247
16472.583 0.297 72.217 0.952 -17.28 0.952 -17.28 0.297 72.217
16497.542 0.298 72.187 0.952 -17.311 0.952 -17.311 0.298 72.187
16522.5 0.298 72.157 0.952 -17.342 0.952 -17.342 0.298 72.157
16547.458 0.299 72.127 0.952 -17.373 0.952 -17.373 0.299 72.127
16572.417 0.299 72.097 0.952 -17.404 0.952 -17.404 0.299 72.097
16597.375 0.3 72.067 0.951 -17.435 0.951 -17.435 0.3 72.067
16622.333 0.3 72.037 0.951 -17.466 0.951 -17.466 0.3 72.037
16647.292 0.301 72.007 0.951 -17.496 0.951 -17.496 0.301 72.007
16672.25 0.301 71.977 0.951 -17.527 0.951 -17.527 0.301 71.977
16697.208 0.302 71.947 0.951 -17.558 0.951 -17.558 0.302 71.947
16722.167 0.302 71.917 0.951 -17.589 0.951 -17.589 0.302 71.917
16747.125 0.303 71.887 0.95 -17.62 0.95 -17.62 0.303 71.887
16772.083 0.303 71.857 0.95 -17.65 0.95 -17.65 0.303 71.857
16797.042 0.304 71.828 0.95 -17.681 0.95 -17.681 0.304 71.828
16822 0.304 71.798 0.95 -17.712 0.95 -17.712 0.304 71.798
16846.958 0.305 71.768 0.95 -17.743 0.95 -17.743 0.305 71.768
16871.917 0.305 71.738 0.95 -17.773 0.95 -17.773 0.305 71.738
16896.875 0.306 71.709 0.95 -17.804 0.95 -17.804 0.306 71.709
16921.833 0.306 71.679 0.949 -17.835 0.949 -17.835 0.306 71.679
16946.792 0.307 71.649 0.949 -17.865 0.949 -17.865 0.307 71.649
16971.75 0.307 71.619 0.949 -17.896 0.949 -17.896 0.307 71.619
16996.708 0.308 71.59 0.949 -17.926 0.949 -17.926 0.308 71.59
17021.667 0.308 71.56 0.949 -17.957 0.949 -17.957 0.308 71.56
17046.625 0.309 71.53 0.949 -17.987 0.949 -17.987 0.309 71.53
17071.583 0.309 71.501 0.948 -18.018 0.948 -18.018 0.309 71.501
17096.542 0.31 71.471 0.948 -18.048 0.948 -18.048 0.31 71.471
17121.5 0.31 71.441 0.948 -18.079 0.948 -18.079 0.31 71.441
17146.458 0.311 71.412 0.948 -18.109 0.948 -18.109 0.311 71.412
17171.417 0.311 71.382 0.948 -18.14 0.948 -18.14 0.311 71.382
17196.375 0.312 71.353 0.948 -18.17 0.948 -18.17 0.312 71.353
17221.333 0.312 71.323 0.947 -18.201 0.947 -18.201 0.312 71.323
17246.292 0.313 71.294 0.947 -18.231 0.947 -18.231 0.313 71.294
17271.25 0.313 71.264 0.947 -18.261 0.947 -18.261 0.313 71.264
17296.208 0.314 71.235 0.947 -18.292 0.947 -18.292 0.314 71.235
17321.167 0.314 71.205 0.947 -18.322 0.947 -18.322 0.314 71.205
17346.125 0.315 71.176 0.947 -18.352 0.947 -18.352 0.315 71.176
17371.083 0.315 71.146 0.946 -18.383 0.946 -18.383 0.315 71.146
17396.042 0.316 71.117 0.946 -18.413 0.946 -18.413 0.316 71.117
17421 0.316 71.087 0.946 -18.443 0.946 -18.443 0.316 71.087
17445.958 0.317 71.058 0.946 -18.473 0.946 -18.473 0.317 71.058
17470.917 0.317 71.029 0.946 -18.504 0.946 -18.504 0.317 71.029
17495.875 0.318 70.999 0.946 -18.534 0.946 -18.534 0.318 70.999
17520.833 0.318 70.97 0.945 -18.564 0.945 -18.564 0.318 70.97
17545.792 0.319 70.94 0.945 -18.594 0.945 -18.594 0.319 70.94
17570.75 0.319 70.911 0.945 -18.624 0.945 -18.624 0.319 70.911
17595.708 0.32 70.882 0.945 -18.654 0.945 -18.654 0.32 70.882
17620.667 0.32 70.852 0.945 -18.685 0.945 -18.685 0.32 70.852
17645.625 0.321 70.823 0.945 -18.715 0.945 -18.715 0.321 70.823
17670.583 0.321 70.794 0.944 -18.745 0.944 -18.745 0.321 70.794
17695.542 0.322 70.765 0.944 -18.775 0.944 -18.775 0.322 70.765
17720.5 0.322 70.735 0.944 -18.805 0.944 -18.805 0.322 70.735
17745.458 0.323 70.706 0.944 -18.835 0.944 -18.835 0.323 70.706
17770.417 0.323 70.677 0.944 -18.865 0.944 -18.865 0.323 70.677
17795.375 0.324 70.648 0.944 -18.895 0.944 -18.895 0.324 70.648
17820.333 0.324 70.619 0.943 -18.925 0.943 -18.925 0.324 70.619
17845.292 0.325 70.589 0.943 -18.955 0.943 -18.955 0.325 70.589
17870.25 0.325 70.56 0.943 -18.985 0.943 -18.985 0.325 70.56
17895.208 0.326 70.531 0.943 -19.014 0.943 -19.014 0.326 70.531
17920.167 0.326 70.502 0.943 -19.044 0.943 -19.044 0.326 70.502
17945.125 0.327 70.473 0.943 -19.074 0.943 -19.074 0.327 70.473
17970.083 0.327 70.444 0.942 -19.104 0.942 -19.104 0.327 70.444
17995.042 0.328 70.415 0.942 -19.134 0.942 -19.134 0.328 70.415
18020 0.328 70.386 0.942 -19.164 0.942 -19.164 0.328 70.386
18044.958 0.329 70.357 0.942 -19.194 0.942 -19.194 0.329 70.357
18069.917 0.329 70.328 0.942 -19.223 0.942 -19.223 0.329 70.328
18094.875 0.33 70.299 0.941 -19.253 0.941 -19.253 0.33 70.299
18119.833 0.33 70.27 0.941 -19.283 0.941 -19.283 0.33 70.27
18144.792 0.331 70.241 0.941 -19.313 0.941 -19.313 0.331 70.241
18169.75 0.331 70.212 0.941 -19.342 0.941 -19.342 0.331 70.212
18194.708 0.332 70.183 0.941 -19.372 0.941 -19.372 0.332 70.183
18219.667 0.332 70.154 0.941 -19.402 0.941 -19.402 0.332 70.154
18244.625 0.333 70.125 0.94 -19.431 0.94 -19.431 0.333 70.125
18269.583 0.333 70.096 0.94 -19.461 0.94 -19.461 0.333 70.096
18294.542 0.334 70.067 0.94 -19.49 0.94 -19.49 0.334 70.067
18319.5 0.334 70.038 0.94 -19.52 0.94 -19.52 0.334 70.038
18344.458 0.335 70.009 0.94 -19.55 0.94 -19.55 0.335 70.009
18369.417 0.335 69.981 0.94 -19.579 0.94 -19.579 0.335 69.981
18394.375 0.336 69.952 0.939 -19.609 0.939 -19.609 0.336 69.952
18419.333 0.336 69.923 0.939 -19.638 0.939 -19.638 0.336 69.923
18444.292 0.337 69.894 0.939 -19.668 0.939 -19.668 0.337 69.894
18469.25 0.337 69.865 0.939 -19.697 0.939 -19.697 0.337 69.865
18494.208 0.338 69.837 0.939 -19.727 0.939 -19.727 0.338 69.837
18519.167 0.338 69.808 0.939 -19.756 0.939 -19.756 0.338 69.808
18544.125 0.339 69.779 0.938 -19.786 0.938 -19.786 0.339 69.779
18569.083 0.339 69.75 0.938 -19.815 0.938 -19.815 0.339 69.75
18594.042 0.339 69.722 0.938 -19.844 0.938 -19.844 0.339 69.722
18619 0.34 69.693 0.938 -19.874 0.938 -19.874 0.34 69.693
18643.958 0.34 69.664 0.938 -19.903 0.938 -19.903 0.34 69.664
18668.917 0.341 69.636 0.938 -19.933 0.938 -19.933 0.341 69.636
18693.875 0.341 69.607 0.937 -19.962 0.937 -19.962 0.341 69.607
18718.833 0.342 69.578 0.937 -19.991 0.937 -19.991 0.342 69.578
18743.792 0.342 69.55 0.937 -20.021 0.937 -20.021 0.342 69.55
18768.75 0.343 69.521 0.937 -20.05 0.937 -20.05 0.343 69.521
18793.708 0.343 69.493 0.937 -20.079 0.937 -20.079 0.343 69.493
18818.667 0.344 69.464 0.936 -20.108 0.936 -20.108 0.344 69.464
18843.625 0.344 69.435 0.936 -20.138 0.936 -20.138 0.344 69.435
18868.583 0.345 69.407 0.936 -20.167 0.936 -20.167 0.345 69.407
18893.542 0.345 69.378 0.936 -20.196 0.936 -20.196 0.345 69.378
18918.5 0.346 69.35 0.936 -20.225 0.936 -20.225 0.346 69.35
18943.458 0.346 69.321 0.936 -20.254 0.936 -20.254 0.346 69.321
18968.417 0.347 69.293 0.935 -20.284 0.935 -20.284 0.347 69.293
18993.375 0.347 69.264 0.935 -20.313 0.935 -20.313 0.347 69.264
19018.333 0.348 69.236 0.935 -20.342 0.935 -20.342 0.348 69.236
19043.292 0.348 69.207 0.935 -20.371 0.935 -20.371 0.348 69.207
19068.25 0.349 69.179 0.935 -20.4 0.935 -20.4 0.349 69.179
19093.208 0.349 69.151 0.935 -20.429 0.935 -20.429 0.349 69.151
19118.167 0.35 69.122 0.934 -20.458 0.934 -20.458 0.35 69.122
19143.125 0.35 69.094 0.934 -20.487 0.934 -20.487 0.35 69.094
19168.083 0.35 69.065 0.934 -20.516 0.934 -20.516 0.35 69.065
19193.042 0.351 69.037 0.934 -20.545 0.934 -20.545 0.351 69.037
19218 0.351 69.009 0.934 -20.574 0.934 -20.574 0.351 69.009
19242.958 0.352 68.98 0.933 -20.603 0.933 -20.603 0.352 68.98
19267.917 0.352 68.952 0.933 -20.632 0.933 -20.632 0.352 68.952
19292.875 0.353 68.924 0.933 -20.661 0.933 -20.661 0.353 68.924
19317.833 0.353 68.896 0.933 -20.69 0.933 -20.69 0.353 68.896
19342.792 0.354 68.867 0.933 -20.719 0.933 -20.719 0.354 68.867
19367.75 0.354 68.839 0.933 -20.748 0.933 -20.748 0.354 68.839
19392.708 0.355 68.811 0.932 -20.776 0.932 -20.776 0.355 68.811
19417.667 0.355 68.783 0.932 -20.805 0.932 -20.805 0.355 68.783
19442.625 0.356 68.754 0.932 -20.834 0.932 -20.834 0.356 68.754
19467.583 0.356 68.726 0.932 -20.863 0.932 -20.863 0.356 68.726
19492.542 0.357 68.698 0.932 -20.892 0.932 -20.892 0.357 68.698
19517.5 0.357 68.67 0.932 -20.92 0.932 -20.92 0.357 68.67
19542.458 0.358 68.642 0.931 -20.949 0.931 -20.949 0.358 68.642
19567.417 0.358 68.614 0.931 -20.978 0.931 -20.978 0.358 68.614
19592.375 0.358 68.586 0.931 -21.007 0.931 -21.007 0.358 68.586
19617.333 0.359 68.557 0.931 -21.035 0.931 -21.035 0.359 68.557
19642.292 0.359 68.529 0.931 -21.064 0.931 -21.064 0.359 68.529
19667.25 0.36 68.501 0.93 -21.093 0.93 -21.093 0.36 68.501
19692.208 0.36 68.473 0.93 -21.121 0.93 -21.121 0.36 68.473
19717.167 0.361 68.445 0.93 -21.15 0.93 -21.15 0.361 68.445
19742.125 0.361 68.417 0.93 -21.179 0.93 -21.179 0.361 68.417
19767.083 0.362 68.389 0.93 -21.207 0.93 -21.207 0.362 68.389
19792.042 0.362 68.361 0.93 -21.236 0.93 -21.236 0.362 68.361
19817 0.363 68.333 0.929 -21.265 0.929 -21.265 0.363 68.333
19841.958 0.363 68.305 0.929 -21.293 0.929 -21.293 0.363 68.305
19866.917 0.364 68.277 0.929 -21.322 0.929 -21.322 0.364 68.277
19891.875 0.364 68.249 0.929 -21.35 0.929 -21.35 0.364 68.249
19916.833 0.365 68.221 0.929 -21.379 0.929 -21.379 0.365 68.221
19941.792 0.365 68.193 0.928 -21.407 0.928 -21.407 0.365 68.193
19966.75 0.365 68.166 0.928 -21.436 0.928 -21.436 0.365 68.166
19991.708 0.366 68.138 0.928 -21.464 0.928 -21.464 0.366 68.138
20016.667 0.366 68.11 0.928 -21.493 0.928 -21.493 0.366 68.11
20041.625 0.367 68.082 0.928 -21.521 0.928 -21.521 0.367 68.082
20066.583 0.367 68.054 0.928 -21.549 0.928 -21.549 0.367 68.054
20091.542 0.368 68.026 0.927 -21.578 0.927 -21.578 0.368 68.026
20116.5 0.368 67.998 0.927 -21.606 0.927 -21.606 0.368 67.998
20141.458 0.369 67.971 0.927 -21.635 0.927 -21.635 0.369 67.971
20166.417 0.369 67.943 0.927 -21.663 0.927 -21.663 0.369 67.943
20191.375 0.37 67.915 0.927 -21.691 0.927 -21.691 0.37 67.915
20216.333 0.37 67.887 0.926 -21.72 0.926 -21.72 0.37 67.887
20241.292 0.371 67.86 0.926 -21.748 0.926 -21.748 0.371 67.86
20266.25 0.371 67.832 0.926 -21.776 0.926 -21.776 0.371 67.832
20291.208 0.371 67.804 0.926 -21.804 0.926 -21.804 0.371 67.804
20316.167 0.372 67.776 0.926 -21.833 0.926 -21.833 0.372 67.776
20341.125 0.372 67.749 0.926 -21.861 0.926 -21.861 0.372 67.749
20366.083 0.373 67.721 0.925 -21.889 0.925 -21.889 0.373 67.721
20391.042 0.373 67.693 0.925 -21.917 0.925 -21.917 0.373 67.693
20416 0.374 67.666 0.925 -21.946 0.925 -21.946 0.374 67.666
20440.958 0.374 67.638 0.925 -21.974 0.925 -21.974 0.374 67.638
20465.917 0.375 67.611 0.925 -22.002 0.925 -22.002 0.375 67.611
20490.875 0.375 67.583 0.924 -22.03 0.924 -22.03 0.375 67.583
20515.833 0.376 67.555 0.924 -22.058 0.924 -22.058 0.376 67.555
20540.792 0.376 67.528 0.924 -22.086 0.924 -22.086 0.376 67.528
20565.75 0.376 67.5 0.924 -22.114 0.924 -22.114 0.376 67.5
20590.708 0.377 67.473 0.924 -22.142 0.924 -22.142 0.377 67.473
20615.667 0.377 67.445 0.924 -22.171 0.924 -22.171 0.377 67.445
20640.625 0.378 67.418 0.923 -22.199 0.923 -22.199 0.378 67.418
20665.583 0.378 67.39 0.923 -22.227 0.923 -22.227 0.378 67.39
20690.542 0.379 67.363 0.923 -22.255 0.923 -22.255 0.379 67.363
20715.5 0.379 67.335 0.923 -22.283 0.923 -22.283 0.379 67.335
20740.458 0.38 67.308 0.923 -22.311 0.923 -22.311 0.38 67.308
20765.417 0.38 67.28 0.922 -22.339 0.922 -22.339 0.38 67.28
20790.375 0.381 67.253 0.922 -22.367 0.922 -22.367 0.381 67.253
20815.333 0.381 67.225 0.922 -22.395 0.922 -22.395 0.381 67.225
20840.292 0.381 67.198 0.922 -22.422 0.922 -22.422 0.381 67.198
20865.25 0.382 67.171 0.922 -22.45 0.922 -22.45 0.382 67.171
20890.208 0.382 67.143 0.921 -22.478 0.921 -22.478 0.382 67.143
20915.167 0.383 67.116 0.921 -22.506 0.921 -22.506 0.383 67.116
20940.125 0.383 67.089 0.921 -22.534 0.921 -22.534 0.383 67.089
20965.083 0.384 67.061 0.921 -22.562 0.921 -22.562 0.384 67.061
20990.042 0.384 67.034 0.921 -22.59 0.921 -22.59 0.384 67.034
21015 0.385 67.007 0.921 -22.617 0.921 -22.617 0.385 67.007
21039.958 0.385 66.979 0.92 -22.645 0.92 -22.645 0.385 66.979
21064.917 0.385 66.952 0.92 -22.673 0.92 -22.673 0.385 66.952
21089.875 0.386 66.925 0.92 -22.701 0.92 -22.701 0.386 66.925
21114.833 0.386 66.898 0.92 -22.729 0.92 -22.729 0.386 66.898
21139.792 0.387 66.87 0.92 -22.756 0.92 -22.756 0.387 66.87
21164.75 0.387 66.843 0.919 -22.784 0.919 -22.784 0.387 66.843
21189.708 0.388 66.816 0.919 -22.812 0.919 -22.812 0.388 66.816
21214.667 0.388 66.789 0.919 -22.839 0.919 -22.839 0.388 66.789
21239.625 0.389 66.762 0.919 -22.867 0.919 -22.867 0.389 66.762
21264.583 0.389 66.734 0.919 -22.895 0.919 -22.895 0.389 66.734
21289.542 0.389 66.707 0.919 -22.922 0.919 -22.922 0.389 66.707
21314.5 0.39 66.68 0.918 -22.95 0.918 -22.95 0.39 66.68
21339.458 0.39 66.653 0.918 -22.978 0.918 -22.978 0.39 66.653
21364.417 0.391 66.626 0.918 -23.005 0.918 -23.005 0.391 66.626
21389.375 0.391 66.599 0.918 -23.033 0.918 -23.033 0.391 66.599
21414.333 0.392 66.572 0.918 -23.06 0.918 -23.06 0.392 66.572
21439.292 0.392 66.545 0.917 -23.088 0.917 -23.088 0.392 66.545
21464.25 0.393 66.518 0.917 -23.115 0.917 -23.115 0.393 66.518
21489.208 0.393 66.491 0.917 -23.143 0.917 -23.143 0.393 66.491
21514.167 0.393 66.464 0.917 -23.17 0.917 -23.17 0.393 66.464
21539.125 0.394 66.437 0.917 -23.198 0.917 -23.198 0.394 66.437
21564.083 0.394 66.41 0.916 -23.225 0.916 -23.225 0.394 66.41
21589.042 0.395 66.383 0.916 -23.253 0.916 -23.253 0.395 66.383
21614 0.395 66.356 0.916 -23.28 0.916 -23.28 0.395 66.356
21638.958 0.396 66.329 0.916 -23.308 0.916 -23.308 0.396 66.329
21663.917 0.396 66.302 0.916 -23.335 0.916 -23.335 0.396 66.302
21688.875 0.397 66.275 0.916 -23.363 0.916 -23.363 0.397 66.275
21713.833 0.397 66.248 0.915 -23.39 0.915 -23.39 0.397 66.248
21738.792 0.397 66.221 0.915 -23.417 0.915 -23.417 0.397 66.221
21763.75 0.398 66.194 0.915 -23.445 0.915 -23.445 0.398 66.194
21788.708 0.398 66.167 0.915 -23.472 0.915 -23.472 0.398 66.167
21813.667 0.399 66.141 0.915 -23.499 0.915 -23.499 0.399 66.141
21838.625 0.399 66.114 0.914 -23.527 0.914 -23.527 0.399 66.114
21863.583 0.4 66.087 0.914 -23.554 0.914 -23.554 0.4 66.087
21888.542 0.4 66.06 0.914 -23.581 0.914 -23.581 0.4 66.06
21913.5 0.4 66.033 0.914 -23.608 0.914 -23.608 0.4 66.033
21938.458 0.401 66.006 0.914 -23.636 0.914 -23.636 0.401 66.006
21963.417 0.401 65.98 0.913 -23.663 0.913 -23.663 0.401 65.98
21988.375 0.402 65.953 0.913 -23.69 0.913 -23.69 0.402 65.953
22013.333 0.402 65.926 0.913 -23.717 0.913 -23.717 0.402 65.926
22038.292 0.403 65.899 0.913 -23.745 0.913 -23.745 0.403 65.899
22063.25 0.403 65.873 0.913 -23.772 0.913 -23.772 0.403 65.873
22088.208 0.404 65.846 0.912 -23.799 0.912 -23.799 0.404 65.846
22113.167 0.404 65.819 0.912 -23.826 0.912 -23.826 0.404 65.819
22138.125 0.404 65.793 0.912 -23.853 0.912 -23.853 0.404 65.793
22163.083 0.405 65.766 0.912 -23.88 0.912 -23.88 0.405 65.766
22188.042 0.405 65.739 0.912 -23.907 0.912 -23.907 0.405 65.739
22213 0.406 65.713 0.912 -23.934 0.912 -23.934 0.406 65.713
22237.958 0.406 65.686 0.911 -23.962 0.911 -23.962 0.406 65.686
22262.917 0.407 65.66 0.911 -23.989 0.911 -23.989 0.407 65.66
22287.875 0.407 65.633 0.911 -24.016 0.911 -24.016 0.407 65.633
22312.833 0.407 65.606 0.911 -24.043 0.911 -24.043 0.407 65.606
22337.792 0.408 65.58 0.911 -24.07 0.911 -24.07 0.408 65.58
22362.75 0.408 65.553 0.91 -24.097 0.91 -24.097 0.408 65.553
22387.708 0.409 65.527 0.91 -24.124 0.91 -24.124 0.409 65.527
22412.667 0.409 65.5 0.91 -24.151 0.91 -24.151 0.409 65.5
22437.625 0.41 65.474 0.91 -24.178 0.91 -24.178 0.41 65.474
22462.583 0.41 65.447 0.91 -24.204 0.91 -24.204 0.41 65.447
22487.542 0.41 65.421 0.909 -24.231 0.909 -24.231 0.41 65.421
22512.5 0.411 65.394 0.909 -24.258 0.909 -24.258 0.411 65.394
22537.458 0.411 65.368 0.909 -24.285 0.909 -24.285 0.411 65.368
22562.417 0.412 65.341 0.909 -24.312 0.909 -24.312 0.412 65.341
22587.375 0.412 65.315 0.909 -24.339 0.909 -24.339 0.412 65.315
22612.333 0.413 65.289 0.908 -24.366 0.908 -24.366 0.413 65.289
22637.292 0.413 65.262 0.908 -24.393 0.908 -24.393 0.413 65.262
22662.25 0.413 65.236 0.908 -24.419 0.908 -24.419 0.413 65.236
22687.208 0.414 65.209 0.908 -24.446 0.908 -24.446 0.414 65.209
22712.167 0.414 65.183 0.908 -24.473 0.908 -24.473 0.414 65.183
22737.125 0.415 65.157 0.907 -24.5 0.907 -24.5 0.415 65.157
22762.083 0.415 65.13 0.907 -24.526 0.907 -24.526 0.415 65.13
22787.042 0.416 65.104 0.907 -24.553 0.907 -24.553 0.416 65.104
22812 0.416 65.078 0.907 -24.58 0.907 -24.58 0.416 65.078
22836.958 0.416 65.051 0.907 -24.607 0.907 -24.607 0.416 65.051
22861.917 0.417 65.025 0.907 -24.633 0.907 -24.633 0.417 65.025
22886.875 0.417 64.999 0.906 -24.66 0.906 -24.66 0.417 64.999
22911.833 0.418 64.973 0.906 -24.687 0.906 -24.687 0.418 64.973
22936.792 0.418 64.946 0.906 -24.713 0.906 -24.713 0.418 64.946
22961.75 0.419 64.92 0.906 -24.74 0.906 -24.74 0.419 64.92
22986.708 0.419 64.894 0.906 -24.767 0.906 -24.767 0.419 64.894
23011.667 0.419 64.868 0.905 -24.793 0.905 -24.793 0.419 64.868
23036.625 0.42 64.842 0.905 -24.82 0.905 -24.82 0.42 64.842
23061.583 0.42 64.815 0.905 -24.846 0.905 -24.846 0.42 64.815
23086.542 0.421 64.789 0.905 -24.873 0.905 -24.873 0.421 64.789
23111.5 0.421 64.763 0.905 -24.899 0.905 -24.899 0.421 64.763
23136.458 0.421 64.737 0.904 -24.926 0.904 -24.926 0.421 64.737
23161.417 0.422 64.711 0.904 -24.953 0.904 -24.953 0.422 64.711
23186.375 0.422 64.685 0.904 -24.979 0.904 -24.979 0.422 64.685
23211.333 0.423 64.659 0.904 -25.006 0.904 -25.006 0.423 64.659
23236.292 0.423 64.633 0.904 -25.032 0.904 -25.032 0.423 64.633
23261.25 0.424 64.607 0.903 -25.058 0.903 -25.058 0.424 64.607
23286.208 0.424 64.581 0.903 -25.085 0.903 -25.085 0.424 64.581
23311.167 0.424 64.555 0.903 -25.111 0.903 -25.111 0.424 64.555
23336.125 0.425 64.528 0.903 -25.138 0.903 -25.138 0.425 64.528
23361.083 0.425 64.502 0.903 -25.164 0.903 -25.164 0.425 64.502
23386.042 0.426 64.476 0.902 -25.191 0.902 -25.191 0.426 64.476
23411 0.426 64.451 0.902 -25.217 0.902 -25.217 0.426 64.451
23435.958 0.426 64.425 0.902 -25.243 0.902 -25.243 0.426 64.425
23460.917 0.427 64.399 0.902 -25.27 0.902 -25.27 0.427 64.399
23485.875 0.427 64.373 0.902 -25.296 0.902 -25.296 0.427 64.373
23510.833 0.428 64.347 0.901 -25.322 0.901 -25.322 0.428 64.347
23535.792 0.428 64.321 0.901 -25.349 0.901 -25.349 0.428 64.321
23560.75 0.429 64.295 0.901 -25.375 0.901 -25.375 0.429 64.295
23585.708 0.429 64.269 0.901 -25.401 0.901 -25.401 0.429 64.269
23610.667 0.429 64.243 0.901 -25.427 0.901 -25.427 0.429 64.243
23635.625 0.43 64.217 0.9 -25.454 0.9 -25.454 0.43 64.217
23660.583 0.43 64.191 0.9 -25.48 0.9 -25.48 0.43 64.191
23685.542 0.431 64.166 0.9 -25.506 0.9 -25.506 0.431 64.166
23710.5 0.431 64.14 0.9 -25.532 0.9 -25.532 0.431 64.14
23735.458 0.431 64.114 0.9 -25.559 0.9 -25.559 0.431 64.114
23760.417 0.432 64.088 0.899 -25.585 0.899 -25.585 0.432 64.088
23785.375 0.432 64.062 0.899 -25.611 0.899 -25.611 0.432 64.062
23810.333 0.433 64.037 0.899 -25.637 0.899 -25.637 0.433 64.037
23835.292 0.433 64.011 0.899 -25.663 0.899 -25.663 0.433 64.011
23860.25 0.433 63.985 0.899 -25.689 0.899 -25.689 0.433 63.985
23885.208 0.434 63.959 0.898 -25.715 0.898 -25.715 0.434 63.959
23910.167 0.434 63.934 0.898 -25.741 0.898 -25.741 0.434 63.934
23935.125 0.435 63.908 0.898 -25.768 0.898 -25.768 0.435 63.908
23960.083 0.435 63.882 0.898 -25.794 0.898 -25.794 0.435 63.882
23985.042 0.436 63.857 0.898 -25.82 0.898 -25.82 0.436 63.857
24010 0.436 63.831 0.898 -25.846 0.898 -25.846 0.436 63.831
24034.958 0.436 63.805 0.897 -25.872 0.897 -25.872 0.436 63.805
24059.917 0.437 63.78 0.897 -25.898 0.897 -25.898 0.437 63.78
24084.875 0.437 63.754 0.897 -25.924 0.897 -25.924 0.437 63.754
24109.833 0.438 63.729 0.897 -25.95 0.897 -25.95 0.438 63.729
24134.792 0.438 63.703 0.897 -25.976 0.897 -25.976 0.438 63.703
24159.75 0.438 63.677 0.896 -26.002 0.896 -26.002 0.438 63.677
24184.708 0.439 63.652 0.896 -26.028 0.896 -26.028 0.439 63.652
24209.667 0.439 63.626 0.896 -26.053 0.896 -26.053 0.439 63.626
24234.625 0.44 63.601 0.896 -26.079 0.896 -26.079 0.44 63.601
24259.583 0.44 63.575 0.896 -26.105 0.896 -26.105 0.44 63.575
24284.542 0.44 63.55 0.895 -26.131 0.895 -26.131 0.44 63.55
24309.5 0.441 63.524 0.895 -26.157 0.895 -26.157 0.441 63.524
24334.458 0.441 63.499 0.895 -26.183 0.895 -26.183 0.441 63.499
24359.417 0.442 63.473 0.895 -26.209 0.895 -26.209 0.442 63.473
24384.375 0.442 63.448 0.895 -26.234 0.895 -26.234 0.442 63.448
24409.333 0.442 63.422 0.894 -26.26 0.894 -26.26 0.442 63.422
24434.292 0.443 63.397 0.894 -26.286 0.894 -26.286 0.443 63.397
24459.25 0.443 63.371 0.894 -26.312 0.894 -26.312 0.443 63.371
24484.208 0.444 63.346 0.894 -26.338 0.894 -26.338 0.444 63.346
24509.167 0.444 63.321 0.894 -26.363 0.894 -26.363 0.444 63.321
24534.125 0.444 63.295 0.893 -26.389 0.893 -26.389 0.444 63.295
24559.083 0.445 63.27 0.893 -26.415 0.893 -26.415 0.445 63.27
24584.042 0.445 63.245 0.893 -26.441 0.893 -26.441 0.445 63.245
24609 0.446 63.219 0.893 -26.466 0.893 -26.466 0.446 63.219
24633.958 0.446 63.194 0.893 -26.492 0.893 -26.492 0.446 63.194
24658.917 0.446 63.169 0.892 -26.518 0.892 -26.518 0.446 63.169
24683.875 0.447 63.143 0.892 -26.543 0.892 -26.543 0.447 63.143
24708.833 0.447 63.118 0.892 -26.569 0.892 -26.569 0.447 63.118
24733.792 0.448 63.093 0.892 -26.594 0.892 -26.594 0.448 63.093
24758.75 0.448 63.068 0.892 -26.62 0.892 -26.62 0.448 63.068
24783.708 0.448 63.042 0.891 -26.646 0.891 -26.646 0.448 63.042
24808.667 0.449 63.017 0.891 -26.671 0.891 -26.671 0.449 63.017
24833.625 0.449 62.992 0.891 -26.697 0.891 -26.697 0.449 62.992
24858.583 0.45 62.967 0.891 -26.722 0.891 -26.722 0.45 62.967
24883.542 0.45 62.941 0.891 -26.748 0.891 -26.748 0.45 62.941
24908.5 0.45 62.916 0.89 -26.773 0.89 -26.773 0.45 62.916
24933.458 0.451 62.891 0.89 -26.799 0.89 -26.799 0.451 62.891
24958.417 0.451 62.866 0.89 -26.824 0.89 -26.824 0.451 62.866
24983.375 0.452 62.841 0.89 -26.85 0.89 -26.85 0.452 62.841
25008.333 0.452 62.816 0.89 -26.875 0.89 -26.875 0.452 62.816
25033.292 0.452 62.791 0.889 -26.901 0.889 -26.901 0.452 62.791
25058.25 0.453 62.765 0.889 -26.926 0.889 -26.926 0.453 62.765
25083.208 0.453 62.74 0.889 -26.952 0.889 -26.952 0.453 62.74
25108.167 0.454 62.715 0.889 -26.977 0.889 -26.977 0.454 62.715
25133.125 0.454 62.69 0.889 -27.003 0.889 -27.003 0.454 62.69
25158.083 0.454 62.665 0.888 -27.028 0.888 -27.028 0.454 62.665
25183.042 0.455 62.64 0.888 -27.053 0.888 -27.053 0.455 62.64
25208 0.455 62.615 0.888 -27.079 0.888 -27.079 0.455 62.615
25232.958 0.456 62.59 0.888 -27.104 0.888 -27.104 0.456 62.59
25257.917 0.456 62.565 0.888 -27.129 0.888 -27.129 0.456 62.565
25282.875 0.456 62.54 0.887 -27.155 0.887 -27.155 0.456 62.54
25307.833 0.457 62.515 0.887 -27.18 0.887 -27.18 0.457 62.515
25332.792 0.457 62.49 0.887 -27.205 0.887 -27.205 0.457 62.49
25357.75 0.458 62.465 0.887 -27.231 0.887 -27.231 0.458 62.465
25382.708 0.458 62.44 0.887 -27.256 0.887 -27.256 0.458 62.44
25407.667 0.458 62.415 0.886 -27.281 0.886 -27.281 0.458 62.415
25432.625 0.459 62.39 0.886 -27.306 0.886 -27.306 0.459 62.39
25457.583 0.459 62.366 0.886 -27.331 0.886 -27.331 0.459 62.366
25482.542 0.46 62.341 0.886 -27.357 0.886 -27.357 0.46 62.341
25507.5 0.46 62.316 0.886 -27.382 0.886 -27.382 0.46 62.316
25532.458 0.46 62.291 0.885 -27.407 0.885 -27.407 0.46 62.291
25557.417 0.461 62.266 0.885 -27.432 0.885 -27.432 0.461 62.266
25582.375 0.461 62.241 0.885 -27.457 0.885 -27.457 0.461 62.241
25607.333 0.461 62.216 0.885 -27.483 0.885 -27.483 0.461 62.216
25632.292 0.462 62.192 0.885 -27.508 0.885 -27.508 0.462 62.192
25657.25 0.462 62.167 0.884 -27.533 0.884 -27.533 0.462 62.167
25682.208 0.463 62.142 0.884 -27.558 0.884 -27.558 0.463 62.142
25707.167 0.463 62.117 0.884 -27.583 0.884 -27.583 0.463 62.117
25732.125 0.463 62.093 0.884 -27.608 0.884 -27.608 0.463 62.093
25757.083 0.464 62.068 0.884 -27.633 0.884 -27.633 0.464 62.068
25782.042 0.464 62.043 0.883 -27.658 0.883 -27.658 0.464 62.043
25807 0.465 62.018 0.883 -27.683 0.883 -27.683 0.465 62.018
25831.958 0.465 61.994 0.883 -27.708 0.883 -27.708 0.465 61.994
25856.917 0.465 61.969 0.883 -27.733 0.883 -27.733 0.465 61.969
25881.875 0.466 61.944 0.883 -27.758 0.883 -27.758 0.466 61.944
25906.833 0.466 61.92 0.882 -27.783 0.882 -27.783 0.466 61.92
25931.792 0.467 61.895 0.882 -27.808 0.882 -27.808 0.467 61.895
25956.75 0.467 61.87 0.882 -27.833 0.882 -27.833 0.467 61.87
25981.708 0.467 61.846 0.882 -27.858 0.882 -27.858 0.467 61.846
26006.667 0.468 61.821 0.881 -27.883 0.881 -27.883 0.468 61.821
26031.625 0.468 61.797 0.881 -27.908 0.881 -27.908 0.468 61.797
26056.583 0.468 61.772 0.881 -27.933 0.881 -27.933 0.468 61.772
26081.542 0.469 61.747 0.881 -27.958 0.881 -27.958 0.469 61.747
26106.5 0.469 61.723 0.881 -27.982 0.881 -27.982 0.469 61.723
26131.458 0.47 61.698 0.88 -28.007 0.88 -28.007 0.47 61.698
26156.417 0.47 61.674 0.88 -28.032 0.88 -28.032 0.47 61.674
26181.375 0.47 61.649 0.88 -28.057 0.88 -28.057 0.47 61.649
26206.333 0.471 61.625 0.88 -28.082 0.88 -28.082 0.471 61.625
26231.292 0.471 61.6 0.88 -28.107 0.88 -28.107 0.471 61.6
26256.25 0.472 61.576 0.879 -28.131 0.879 -28.131 0.472 61.576
26281.208 0.472 61.551 0.879 -28.156 0.879 -28.156 0.472 61.551
26306.167 0.472 61.527 0.879 -28.181 0.879 -28.181 0.472 61.527
26331.125 0.473 61.502 0.879 -28.206 0.879 -28.206 0.473 61.502
26356.083 0.473 61.478 0.879 -28.23 0.879 -28.23 0.473 61.478
26381.042 0.473 61.454 0.878 -28.255 0.878 -28.255 0.473 61.454
26406 0.474 61.429 0.878 -28.28 0.878 -28.28 0.474 61.429
26430.958 0.474 61.405 0.878 -28.305 0.878 -28.305 0.474 61.405
26455.917 0.475 61.38 0.878 -28.329 0.878 -28.329 0.475 61.38
26480.875 0.475 61.356 0.878 -28.354 0.878 -28.354 0.475 61.356
26505.833 0.475 61.332 0.877 -28.378 0.877 -28.378 0.475 61.332
26530.792 0.476 61.307 0.877 -28.403 0.877 -28.403 0.476 61.307
26555.75 0.476 61.283 0.877 -28.428 0.877 -28.428 0.476 61.283
26580.708 0.476 61.259 0.877 -28.452 0.877 -28.452 0.476 61.259
26605.667 0.477 61.234 0.877 -28.477 0.877 -28.477 0.477 61.234
26630.625 0.477 61.21 0.876 -28.502 0.876 -28.502 0.477 61.21
26655.583 0.478 61.186 0.876 -28.526 0.876 -28.526 0.478 61.186
26680.542 0.478 61.162 0.876 -28.551 0.876 -28.551 0.478 61.162
26705.5 0.478 61.137 0.876 -28.575 0.876 -28.575 0.478 61.137
26730.458 0.479 61.113 0.876 -28.6 0.876 -28.6 0.479 61.113
26755.417 0.479 61.089 0.875 -28.624 0.875 -28.624 0.479 61.089
26780.375 0.479 61.065 0.875 -28.649 0.875 -28.649 0.479 61.065
26805.333 0.48 61.04 0.875 -28.673 0.875 -28.673 0.48 61.04
26830.292 0.48 61.016 0.875 -28.698 0.875 -28.698 0.48 61.016
26855.25 0.481 60.992 0.875 -28.722 0.875 -28.722 0.481 60.992
26880.208 0.481 60.968 0.874 -28.747 0.874 -28.747 0.481 60.968
26905.167 0.481 60.944 0.874 -28.771 0.874 -28.771 0.481 60.944
26930.125 0.482 60.92 0.874 -28.796 0.874 -28.796 0.482 60.92
26955.083 0.482 60.895 0.874 -28.82 0.874 -28.82 0.482 60.895
26980.042 0.482 60.871 0.874 -28.844 0.874 -28.844 0.482 60.871
27005 0.483 60.847 0.873 -28.869 0.873 -28.869 0.483 60.847
27029.958 0.483 60.823 0.873 -28.893 0.873 -28.893 0.483 60.823
27054.917 0.484 60.799 0.873 -28.917 0.873 -28.917 0.484 60.799
27079.875 0.484 60.775 0.873 -28.942 0.873 -28.942 0.484 60.775
27104.833 0.484 60.751 0.873 -28.966 0.873 -28.966 0.484 60.751
27129.792 0.485 60.727 0.872 -28.99 0.872 -28.99 0.485 60.727
27154.75 0.485 60.703 0.872 -29.015 0.872 -29.015 0.485 60.703
27179.708 0.485 60.679 0.872 -29.039 0.872 -29.039 0.485 60.679
27204.667 0.486 60.655 0.872 -29.063 0.872 -29.063 0.486 60.655
27229.625 0.486 60.631 0.871 -29.088 0.871 -29.088 0.486 60.631
27254.583 0.487 60.607 0.871 -29.112 0.871 -29.112 0.487 60.607
27279.542 0.487 60.583 0.871 -29.136 0.871 -29.136 0.487 60.583
27304.5 0.487 60.559 0.871 -29.16 0.871 -29.16 0.487 60.559
27329.458 0.488 60.535 0.871 -29.185 0.871 -29.185 0.488 60.535
27354.417 0.488 60.511 0.87 -29.209 0.87 -29.209 0.488 60.511
27379.375 0.488 60.487 0.87 -29.233 0.87 -29.233 0.488 60.487
27404.333 0.489 60.463 0.87 -29.257 0.87 -29.257 0.489 60.463
27429.292 0.489 60.44 0.87 -29.281 0.87 -29.281 0.489 60.44
27454.25 0.489 60.416 0.87 -29.305 0.87 -29.305 0.489 60.416
27479.208 0.49 60.392 0.869 -29.33 0.869 -29.33 0.49 60.392
27504.167 0.49 60.368 0.869 -29.354 0.869 -29.354 0.49 60.368
27529.125 0.491 60.344 0.869 -29.378 0.869 -29.378 0.491 60.344
27554.083 0.491 60.32 0.869 -29.402 0.869 -29.402 0.491 60.32
27579.042 0.491 60.296 0.869 -29.426 0.869 -29.426 0.491 60.296
27604 0.492 60.273 0.868 -29.45 0.868 -29.45 0.492 60.273
27628.958 0.492 60.249 0.868 -29.474 0.868 -29.474 0.492 60.249
27653.917 0.492 60.225 0.868 -29.498 0.868 -29.498 0.492 60.225
27678.875 0.493 60.201 0.868 -29.522 0.868 -29.522 0.493 60.201
27703.833 0.493 60.178 0.868 -29.546 0.868 -29.546 0.493 60.178
27728.792 0.493 60.154 0.867 -29.57 0.867 -29.57 0.493 60.154
27753.75 0.494 60.13 0.867 -29.594 0.867 -29.594 0.494 60.13
27778.708 0.494 60.106 0.867 -29.618 0.867 -29.618 0.494 60.106
27803.667 0.495 60.083 0.867 -29.642 0.867 -29.642 0.495 60.083
27828.625 0.495 60.059 0.867 -29.666 0.867 -29.666 0.495 60.059
27853.583 0.495 60.035 0.866 -29.69 0.866 -29.69 0.495 60.035
27878.542 0.496 60.012 0.866 -29.714 0.866 -29.714 0.496 60.012
27903.5 0.496 59.988 0.866 -29.738 0.866 -29.738 0.496 59.988
27928.458 0.496 59.964 0.866 -29.762 0.866 -29.762 0.496 59.964
27953.417 0.497 59.941 0.866 -29.786 0.866 -29.786 0.497 59.941
27978.375 0.497 59.917 0.865 -29.809 0.865 -29.809 0.497 59.917
28003.333 0.497 59.894 0.865 -29.833 0.865 -29.833 0.497 59.894
28028.292 0.498 59.87 0.865 -29.857 0.865 -29.857 0.498 59.87
28053.25 0.498 59.846 0.865 -29.881 0.865 -29.881 0.498 59.846
28078.208 0.499 59.823 0.864 -29.905 0.864 -29.905 0.499 59.823
28103.167 0.499 59.799 0.864 -29.929 0.864 -29.929 0.499 59.799
28128.125 0.499 59.776 0.864 -29.952 0.864 -29.952 0.499 59.776
28153.083 0.5 59.752 0.864 -29.976 0.864 -29.976 0.5 59.752
28178.042 0.5 59.729 0.864 -30 0.864 -30 0.5 59.729
28203 0.5 59.705 0.863 -30.024 0.863 -30.024 0.5 59.705
28227.958 0.501 59.682 0.863 -30.047 0.863 -30.047 0.501 59.682
28252.917 0.501 59.658 0.863 -30.071 0.863 -30.071 0.501 59.658
28277.875 0.501 59.635 0.863 -30.095 0.863 -30.095 0.501 59.635
28302.833 0.502 59.611 0.863 -30.119 0.863 -30.119 0.502 59.611
28327.792 0.502 59.588 0.862 -30.142 0.862 -30.142 0.502 59.588
28352.75 0.503 59.565 0.862 -30.166 0.862 -30.166 0.503 59.565
28377.708 0.503 59.541 0.862 -30.19 0.862 -30.19 0.503 59.541
28402.667 0.503 59.518 0.862 -30.213 0.862 -30.213 0.503 59.518
28427.625 0.504 59.494 0.862 -30.237 0.862 -30.237 0.504 59.494
28452.583 0.504 59.471 0.861 -30.261 0.861 -30.261 0.504 59.471
28477.542 0.504 59.448 0.861 -30.284 0.861 -30.284 0.504 59.448
28502.5 0.505 59.424 0.861 -30.308 0.861 -30.308 0.505 59.424
28527.458 0.505 59.401 0.861 -30.331 0.861 -30.331 0.505 59.401
28552.417 0.505 59.378 0.861 -30.355 0.861 -30.355 0.505 59.378
28577.375 0.506 59.354 0.86 -30.378 0.86 -30.378 0.506 59.354
28602.333 0.506 59.331 0.86 -30.402 0.86 -30.402 0.506 59.331
28627.292 0.506 59.308 0.86 -30.426 0.86 -30.426 0.506 59.308
28652.25 0.507 59.285 0.86 -30.449 0.86 -30.449 0.507 59.285
28677.208 0.507 59.261 0.86 -30.473 0.86 -30.473 0.507 59.261
28702.167 0.507 59.238 0.859 -30.496 0.859 -30.496 0.507 59.238
28727.125 0.508 59.215 0.859 -30.52 0.859 -30.52 0.508 59.215
28752.083 0.508 59.192 0.859 -30.543 0.859 -30.543 0.508 59.192
28777.042 0.509 59.168 0.859 -30.567 0.859 -30.567 0.509 59.168
28802 0.509 59.145 0.858 -30.59 0.858 -30.59 0.509 59.145
28826.958 0.509 59.122 0.858 -30.613 0.858 -30.613 0.509 59.122
28851.917 0.51 59.099 0.858 -30.637 0.858 -30.637 0.51 59.099
28876.875 0.51 59.076 0.858 -30.66 0.858 -30.66 0.51 59.076
28901.833 0.51 59.052 0.858 -30.684 0.858 -30.684 0.51 59.052
28926.792 0.511 59.029 0.857 -30.707 0.857 -30.707 0.511 59.029
28951.75 0.511 59.006 0.857 -30.73 0.857 -30.73 0.511 59.006
28976.708 0.511 58.983 0.857 -30.754 0.857 -30.754 0.511 58.983
29001.667 0.512 58.96 0.857 -30.777 0.857 -30.777 0.512 58.96
29026.625 0.512 58.937 0.857 -30.8 0.857 -30.8 0.512 58.937
29051.583 0.512 58.914 0.856 -30.824 0.856 -30.824 0.512 58.914
29076.542 0.513 58.891 0.856 -30.847 0.856 -30.847 0.513 58.891
29101.5 0.513 58.868 0.856 -30.87 0.856 -30.87 0.513 58.868
29126.458 0.513 58.845 0.856 -30.894 0.856 -30.894 0.513 58.845
29151.417 0.514 58.822 0.856 -30.917 0.856 -30.917 0.514 58.822
29176.375 0.514 58.799 0.855 -30.94 0.855 -30.94 0.514 58.799
29201.333 0.514 58.776 0.855 -30.963 0.855 -30.963 0.514 58.776
29226.292 0.515 58.753 0.855 -30.987 0.855 -30.987 0.515 58.753
29251.25 0.515 58.73 0.855 -31.01 0.855 -31.01 0.515 58.73
29276.208 0.516 58.707 0.855 -31.033 0.855 -31.033 0.516 58.707
29301.167 0.516 58.684 0.854 -31.056 0.854 -31.056 0.516 58.684
29326.125 0.516 58.661 0.854 -31.079 0.854 -31.079 0.516 58.661
29351.083 0.517 58.638 0.854 -31.103 0.854 -31.103 0.517 58.638
29376.042 0.517 58.615 0.854 -31.126 0.854 -31.126 0.517 58.615
29401 0.517 58.592 0.853 -31.149 0.853 -31.149 0.517 58.592
29425.958 0.518 58.569 0.853 -31.172 0.853 -31.172 0.518 58.569
29450.917 0.518 58.546 0.853 -31.195 0.853 -31.195 0.518 58.546
29475.875 0.518 58.523 0.853 -31.218 0.853 -31.218 0.518 58.523
29500.833 0.519 58.501 0.853 -31.241 0.853 -31.241 0.519 58.501
29525.792 0.519 58.478 0.852 -31.264 0.852 -31.264 0.519 58.478
29550.75 0.519 58.455 0.852 -31.287 0.852 -31.287 0.519 58.455
29575.708 0.52 58.432 0.852 -31.31 0.852 -31.31 0.52 58.432
29600.667 0.52 58.409 0.852 -31.333 0.852 -31.333 0.52 58.409
29625.625 0.52 58.386 0.852 -31.357 0.852 -31.357 0.52 58.386
29650.583 0.521 58.364 0.851 -31.38 0.851 -31.38 0.521 58.364
29675.542 0.521 58.341 0.851 -31.403 0.851 -31.403 0.521 58.341
29700.5 0.521 58.318 0.851 -31.426 0.851 -31.426 0.521 58.318
29725.458 0.522 58.295 0.851 -31.448 0.851 -31.448 0.522 58.295
29750.417 0.522 58.273 0.851 -31.471 0.851 -31.471 0.522 58.273
29775.375 0.522 58.25 0.85 -31.494 0.85 -31.494 0.522 58.25
29800.333 0.523 58.227 0.85 -31.517 0.85 -31.517 0.523 58.227
29825.292 0.523 58.205 0.85 -31.54 0.85 -31.54 0.523 58.205
29850.25 0.523 58.182 0.85 -31.563 0.85 -31.563 0.523 58.182
29875.208 0.524 58.159 0.85 -31.586 0.85 -31.586 0.524 58.159
29900.167 0.524 58.137 0.849 -31.609 0.849 -31.609 0.524 58.137
29925.125 0.524 58.114 0.849 -31.632 0.849 -31.632 0.524 58.114
29950.083 0.525 58.091 0.849 -31.655 0.849 -31.655 0.525 58.091
29975.042 0.525 58.069 0.849 -31.678 0.849 -31.678 0.525 58.069
30000 0.525 58.046 0.848 -31.7 0.848 -31.7 0.525 58.046
