!	AVX Thin Film Operation 	Date: April 2014		
!	Description: Accu-P® Series, Thin Film  SMD RF Capacitor
!	Part Number: 02013J3R3ABSTR					
!								
# MHZ S MA R 50

50 0.995 -5.919 0.103 84.067 0.103 84.067 0.995 -5.919
74.958 0.988 -8.836 0.154 81.143 0.154 81.143 0.988 -8.836
99.917 0.979 -11.709 0.203 78.263 0.203 78.263 0.979 -11.709
124.875 0.968 -14.524 0.251 75.441 0.251 75.441 0.968 -14.524
149.833 0.955 -17.272 0.297 72.686 0.297 72.686 0.955 -17.272
174.792 0.94 -19.942 0.341 70.009 0.341 70.009 0.94 -19.942
199.75 0.923 -22.528 0.383 67.416 0.383 67.416 0.923 -22.528
224.708 0.906 -25.023 0.423 64.915 0.423 64.915 0.906 -25.023
249.667 0.887 -27.423 0.461 62.507 0.461 62.507 0.887 -27.423
274.625 0.868 -29.727 0.496 60.197 0.496 60.197 0.868 -29.727
299.583 0.848 -31.933 0.529 57.984 0.529 57.984 0.848 -31.933
324.542 0.828 -34.041 0.56 55.869 0.56 55.869 0.828 -34.041
349.5 0.807 -36.053 0.589 53.85 0.589 53.85 0.807 -36.053
374.458 0.787 -37.97 0.615 51.925 0.615 51.925 0.787 -37.97
399.417 0.767 -39.797 0.64 50.092 0.64 50.092 0.767 -39.797
424.375 0.747 -41.534 0.663 48.347 0.663 48.347 0.747 -41.534
449.333 0.728 -43.187 0.684 46.686 0.684 46.686 0.728 -43.187
474.292 0.708 -44.759 0.704 45.107 0.704 45.107 0.708 -44.759
499.25 0.69 -46.254 0.722 43.606 0.722 43.606 0.69 -46.254
524.208 0.671 -47.675 0.739 42.177 0.739 42.177 0.671 -47.675
549.167 0.654 -49.026 0.755 40.819 0.755 40.819 0.654 -49.026
574.125 0.636 -50.312 0.77 39.526 0.77 39.526 0.636 -50.312
599.083 0.62 -51.535 0.783 38.295 0.783 38.295 0.62 -51.535
624.042 0.604 -52.7 0.795 37.123 0.795 37.123 0.604 -52.7
649 0.588 -53.81 0.807 36.006 0.807 36.006 0.588 -53.81
673.958 0.573 -54.867 0.818 34.942 0.818 34.942 0.573 -54.867
698.917 0.558 -55.875 0.828 33.926 0.828 33.926 0.558 -55.875
723.875 0.544 -56.837 0.837 32.957 0.837 32.957 0.544 -56.837
748.833 0.53 -57.756 0.846 32.031 0.846 32.031 0.53 -57.756
773.792 0.517 -58.633 0.854 31.146 0.854 31.146 0.517 -58.633
798.75 0.505 -59.472 0.861 30.299 0.861 30.299 0.505 -59.472
823.708 0.492 -60.275 0.868 29.489 0.868 29.489 0.492 -60.275
848.667 0.48 -61.043 0.875 28.712 0.875 28.712 0.48 -61.043
873.625 0.469 -61.779 0.881 27.969 0.881 27.969 0.469 -61.779
898.583 0.458 -62.485 0.887 27.255 0.887 27.255 0.458 -62.485
923.542 0.447 -63.162 0.892 26.57 0.892 26.57 0.447 -63.162
948.5 0.437 -63.813 0.897 25.912 0.897 25.912 0.437 -63.813
973.458 0.427 -64.437 0.902 25.28 0.902 25.28 0.427 -64.437
998.417 0.417 -65.037 0.907 24.671 0.907 24.671 0.417 -65.037
1023.375 0.408 -65.615 0.911 24.086 0.911 24.086 0.408 -65.615
1048.333 0.399 -66.171 0.915 23.522 0.915 23.522 0.399 -66.171
1073.292 0.39 -66.706 0.919 22.978 0.919 22.978 0.39 -66.706
1098.25 0.382 -67.222 0.922 22.454 0.922 22.454 0.382 -67.222
1123.208 0.374 -67.72 0.925 21.948 0.925 21.948 0.374 -67.72
1148.167 0.366 -68.2 0.929 21.46 0.929 21.46 0.366 -68.2
1173.125 0.358 -68.663 0.931 20.988 0.931 20.988 0.358 -68.663
1198.083 0.351 -69.111 0.934 20.532 0.934 20.532 0.351 -69.111
1223.042 0.344 -69.544 0.937 20.09 0.937 20.09 0.344 -69.544
1248 0.336 -69.963 0.939 19.663 0.939 19.663 0.336 -69.963
1272.958 0.33 -70.368 0.942 19.249 0.942 19.249 0.33 -70.368
1297.917 0.323 -70.76 0.944 18.848 0.944 18.848 0.323 -70.76
1322.875 0.317 -71.14 0.946 18.459 0.946 18.459 0.317 -71.14
1347.833 0.31 -71.508 0.948 18.082 0.948 18.082 0.31 -71.508
1372.792 0.304 -71.865 0.95 17.716 0.95 17.716 0.304 -71.865
1397.75 0.298 -72.211 0.952 17.361 0.952 17.361 0.298 -72.211
1422.708 0.293 -72.547 0.954 17.015 0.954 17.015 0.293 -72.547
1447.667 0.287 -72.874 0.956 16.68 0.956 16.68 0.287 -72.874
1472.625 0.282 -73.191 0.957 16.353 0.957 16.353 0.282 -73.191
1497.583 0.276 -73.499 0.959 16.036 0.959 16.036 0.276 -73.499
1522.542 0.271 -73.798 0.96 15.727 0.96 15.727 0.271 -73.798
1547.5 0.266 -74.089 0.962 15.426 0.962 15.426 0.266 -74.089
1572.458 0.261 -74.373 0.963 15.132 0.963 15.132 0.261 -74.373
1597.417 0.256 -74.649 0.964 14.847 0.964 14.847 0.256 -74.649
1622.375 0.252 -74.917 0.966 14.568 0.966 14.568 0.252 -74.917
1647.333 0.247 -75.179 0.967 14.296 0.967 14.296 0.247 -75.179
1672.292 0.242 -75.434 0.968 14.031 0.968 14.031 0.242 -75.434
1697.25 0.238 -75.682 0.969 13.772 0.969 13.772 0.238 -75.682
1722.208 0.234 -75.924 0.97 13.519 0.97 13.519 0.234 -75.924
1747.167 0.23 -76.161 0.971 13.272 0.971 13.272 0.23 -76.161
1772.125 0.225 -76.391 0.972 13.031 0.972 13.031 0.225 -76.391
1797.083 0.221 -76.616 0.973 12.795 0.973 12.795 0.221 -76.616
1822.042 0.218 -76.836 0.974 12.564 0.974 12.564 0.218 -76.836
1847 0.214 -77.05 0.975 12.338 0.975 12.338 0.214 -77.05
1871.958 0.21 -77.26 0.975 12.117 0.975 12.117 0.21 -77.26
1896.917 0.206 -77.464 0.976 11.901 0.976 11.901 0.206 -77.464
1921.875 0.203 -77.664 0.977 11.689 0.977 11.689 0.203 -77.664
1946.833 0.199 -77.86 0.978 11.482 0.978 11.482 0.199 -77.86
1971.792 0.196 -78.051 0.978 11.278 0.978 11.278 0.196 -78.051
1996.75 0.192 -78.238 0.979 11.079 0.979 11.079 0.192 -78.238
2021.708 0.189 -78.421 0.98 10.884 0.98 10.884 0.189 -78.421
2046.667 0.186 -78.6 0.98 10.692 0.98 10.692 0.186 -78.6
2071.625 0.182 -78.775 0.981 10.504 0.981 10.504 0.182 -78.775
2096.583 0.179 -78.946 0.982 10.319 0.982 10.319 0.179 -78.946
2121.542 0.176 -79.114 0.982 10.138 0.982 10.138 0.176 -79.114
2146.5 0.173 -79.278 0.983 9.96 0.983 9.96 0.173 -79.278
2171.458 0.17 -79.439 0.983 9.786 0.983 9.786 0.17 -79.439
2196.417 0.167 -79.596 0.984 9.614 0.984 9.614 0.167 -79.596
2221.375 0.164 -79.75 0.984 9.446 0.984 9.446 0.164 -79.75
2246.333 0.161 -79.902 0.985 9.28 0.985 9.28 0.161 -79.902
2271.292 0.158 -80.05 0.985 9.117 0.985 9.117 0.158 -80.05
2296.25 0.156 -80.195 0.986 8.957 0.986 8.957 0.156 -80.195
2321.208 0.153 -80.337 0.986 8.799 0.986 8.799 0.153 -80.337
2346.167 0.15 -80.476 0.986 8.644 0.986 8.644 0.15 -80.476
2371.125 0.148 -80.613 0.987 8.491 0.987 8.491 0.148 -80.613
2396.083 0.145 -80.746 0.987 8.341 0.987 8.341 0.145 -80.746
2421.042 0.143 -80.878 0.987 8.193 0.987 8.193 0.143 -80.878
2446 0.14 -81.006 0.988 8.048 0.988 8.048 0.14 -81.006
2470.958 0.138 -81.132 0.988 7.905 0.988 7.905 0.138 -81.132
2495.917 0.135 -81.256 0.989 7.763 0.989 7.763 0.135 -81.256
2520.875 0.133 -81.377 0.989 7.624 0.989 7.624 0.133 -81.377
2545.833 0.13 -81.495 0.989 7.487 0.989 7.487 0.13 -81.495
2570.792 0.128 -81.612 0.989 7.352 0.989 7.352 0.128 -81.612
2595.75 0.126 -81.725 0.99 7.219 0.99 7.219 0.126 -81.725
2620.708 0.123 -81.837 0.99 7.087 0.99 7.087 0.123 -81.837
2645.667 0.121 -81.946 0.99 6.957 0.99 6.957 0.121 -81.946
2670.625 0.119 -82.054 0.991 6.83 0.991 6.83 0.119 -82.054
2695.583 0.117 -82.159 0.991 6.703 0.991 6.703 0.117 -82.159
2720.542 0.115 -82.261 0.991 6.579 0.991 6.579 0.115 -82.261
2745.5 0.112 -82.362 0.991 6.456 0.991 6.456 0.112 -82.362
2770.458 0.11 -82.46 0.992 6.335 0.992 6.335 0.11 -82.46
2795.417 0.108 -82.557 0.992 6.215 0.992 6.215 0.108 -82.557
2820.375 0.106 -82.651 0.992 6.097 0.992 6.097 0.106 -82.651
2845.333 0.104 -82.743 0.992 5.98 0.992 5.98 0.104 -82.743
2870.292 0.102 -82.833 0.992 5.865 0.992 5.865 0.102 -82.833
2895.25 0.1 -82.921 0.993 5.751 0.993 5.751 0.1 -82.921
2920.208 0.098 -83.007 0.993 5.638 0.993 5.638 0.098 -83.007
2945.167 0.096 -83.091 0.993 5.527 0.993 5.527 0.096 -83.091
2970.125 0.094 -83.173 0.993 5.417 0.993 5.417 0.094 -83.173
2995.083 0.093 -83.252 0.993 5.308 0.993 5.308 0.093 -83.252
3020.042 0.091 -83.33 0.994 5.201 0.994 5.201 0.091 -83.33
3045 0.089 -83.405 0.994 5.094 0.994 5.094 0.089 -83.405
3069.958 0.087 -83.479 0.994 4.989 0.994 4.989 0.087 -83.479
3094.917 0.085 -83.55 0.994 4.885 0.994 4.885 0.085 -83.55
3119.875 0.083 -83.619 0.994 4.782 0.994 4.782 0.083 -83.619
3144.833 0.082 -83.686 0.994 4.681 0.994 4.681 0.082 -83.686
3169.792 0.08 -83.751 0.994 4.58 0.994 4.58 0.08 -83.751
3194.75 0.078 -83.813 0.995 4.48 0.995 4.48 0.078 -83.813
3219.708 0.076 -83.873 0.995 4.382 0.995 4.382 0.076 -83.873
3244.667 0.075 -83.931 0.995 4.284 0.995 4.284 0.075 -83.931
3269.625 0.073 -83.986 0.995 4.187 0.995 4.187 0.073 -83.986
3294.583 0.071 -84.039 0.995 4.092 0.995 4.092 0.071 -84.039
3319.542 0.07 -84.089 0.995 3.997 0.995 3.997 0.07 -84.089
3344.5 0.068 -84.137 0.995 3.903 0.995 3.903 0.068 -84.137
3369.458 0.066 -84.182 0.995 3.81 0.995 3.81 0.066 -84.182
3394.417 0.065 -84.224 0.996 3.718 0.996 3.718 0.065 -84.224
3419.375 0.063 -84.264 0.996 3.627 0.996 3.627 0.063 -84.264
3444.333 0.062 -84.3 0.996 3.536 0.996 3.536 0.062 -84.3
3469.292 0.06 -84.333 0.996 3.447 0.996 3.447 0.06 -84.333
3494.25 0.059 -84.363 0.996 3.358 0.996 3.358 0.059 -84.363
3519.208 0.057 -84.39 0.996 3.27 0.996 3.27 0.057 -84.39
3544.167 0.056 -84.413 0.996 3.183 0.996 3.183 0.056 -84.413
3569.125 0.054 -84.432 0.996 3.096 0.996 3.096 0.054 -84.432
3594.083 0.053 -84.448 0.996 3.01 0.996 3.01 0.053 -84.448
3619.042 0.051 -84.459 0.996 2.925 0.996 2.925 0.051 -84.459
3644 0.05 -84.465 0.996 2.841 0.996 2.841 0.05 -84.465
3668.958 0.048 -84.467 0.997 2.757 0.997 2.757 0.048 -84.467
3693.917 0.047 -84.464 0.997 2.675 0.997 2.675 0.047 -84.464
3718.875 0.045 -84.456 0.997 2.592 0.997 2.592 0.045 -84.456
3743.833 0.044 -84.441 0.997 2.511 0.997 2.511 0.044 -84.441
3768.792 0.042 -84.421 0.997 2.43 0.997 2.43 0.042 -84.421
3793.75 0.041 -84.394 0.997 2.349 0.997 2.349 0.041 -84.394
3818.708 0.04 -84.359 0.997 2.27 0.997 2.27 0.04 -84.359
3843.667 0.038 -84.317 0.997 2.191 0.997 2.191 0.038 -84.317
3868.625 0.037 -84.265 0.997 2.112 0.997 2.112 0.037 -84.265
3893.583 0.036 -84.205 0.997 2.034 0.997 2.034 0.036 -84.205
3918.542 0.034 -84.134 0.997 1.957 0.997 1.957 0.034 -84.134
3943.5 0.033 -84.051 0.997 1.88 0.997 1.88 0.033 -84.051
3968.458 0.032 -83.956 0.997 1.804 0.997 1.804 0.032 -83.956
3993.417 0.03 -83.847 0.997 1.728 0.997 1.728 0.03 -83.847
4018.375 0.029 -83.722 0.997 1.653 0.997 1.653 0.029 -83.722
4043.333 0.028 -83.578 0.997 1.578 0.997 1.578 0.028 -83.578
4068.292 0.026 -83.415 0.997 1.504 0.997 1.504 0.026 -83.415
4093.25 0.025 -83.228 0.997 1.431 0.997 1.431 0.025 -83.228
4118.208 0.024 -83.016 0.997 1.357 0.997 1.357 0.024 -83.016
4143.167 0.023 -82.772 0.997 1.285 0.997 1.285 0.023 -82.772
4168.125 0.021 -82.493 0.997 1.213 0.997 1.213 0.021 -82.493
4193.083 0.02 -82.173 0.997 1.141 0.997 1.141 0.02 -82.173
4218.042 0.019 -81.804 0.997 1.07 0.997 1.07 0.019 -81.804
4243 0.018 -81.375 0.998 0.999 0.998 0.999 0.018 -81.375
4267.958 0.016 -80.876 0.998 0.929 0.998 0.929 0.016 -80.876
4292.917 0.015 -80.289 0.998 0.859 0.998 0.859 0.015 -80.289
4317.875 0.014 -79.593 0.998 0.789 0.998 0.789 0.014 -79.593
4342.833 0.013 -78.76 0.998 0.72 0.998 0.72 0.013 -78.76
4367.792 0.012 -77.75 0.998 0.652 0.998 0.652 0.012 -77.75
4392.75 0.01 -76.506 0.998 0.584 0.998 0.584 0.01 -76.506
4417.708 9.3e-3 -74.945 0.998 0.516 0.998 0.516 9.3e-3 -74.945
4442.667 8.166e-3 -72.94 0.998 0.448 0.998 0.448 8.166e-3 -72.94
4467.625 7.054e-3 -70.29 0.998 0.381 0.998 0.381 7.054e-3 -70.29
4492.583 5.969e-3 -66.66 0.998 0.315 0.998 0.315 5.969e-3 -66.66
4517.542 4.926e-3 -61.458 0.998 0.249 0.998 0.249 4.926e-3 -61.458
4542.5 3.951e-3 -53.596 0.998 0.183 0.998 0.183 3.951e-3 -53.596
4567.458 3.103e-3 -41.088 0.998 0.117 0.998 0.117 3.103e-3 -41.088
4592.417 2.505e-3 -21.185 0.998 0.052 0.998 0.052 2.505e-3 -21.185
4617.375 2.345e-3 5.456 0.998 -0.013 0.998 -0.013 2.345e-3 5.456
4642.333 2.696e-3 29.928 0.998 -0.077 0.998 -0.077 2.696e-3 29.928
4667.292 3.397e-3 46.436 0.998 -0.141 0.998 -0.141 3.397e-3 46.436
4692.25 4.274e-3 56.682 0.998 -0.205 0.998 -0.205 4.274e-3 56.682
4717.208 5.236e-3 63.251 0.998 -0.269 0.998 -0.269 5.236e-3 63.251
4742.167 6.241e-3 67.701 0.998 -0.332 0.998 -0.332 6.241e-3 67.701
4767.125 7.269e-3 70.871 0.998 -0.394 0.998 -0.394 7.269e-3 70.871
4792.083 8.309e-3 73.223 0.998 -0.457 0.998 -0.457 8.309e-3 73.223
4817.042 9.354e-3 75.028 0.998 -0.519 0.998 -0.519 9.354e-3 75.028
4842 0.01 76.45 0.998 -0.581 0.998 -0.581 0.01 76.45
4866.958 0.011 77.595 0.998 -0.642 0.998 -0.642 0.011 77.595
4891.917 0.013 78.532 0.998 -0.704 0.998 -0.704 0.013 78.532
4916.875 0.014 79.312 0.998 -0.765 0.998 -0.765 0.014 79.312
4941.833 0.015 79.967 0.998 -0.825 0.998 -0.825 0.015 79.967
4966.792 0.016 80.525 0.998 -0.886 0.998 -0.886 0.016 80.525
4991.75 0.017 81.003 0.998 -0.946 0.998 -0.946 0.017 81.003
5016.708 0.018 81.417 0.998 -1.005 0.998 -1.005 0.018 81.417
5041.667 0.019 81.776 0.997 -1.065 0.997 -1.065 0.019 81.776
5066.625 0.02 82.091 0.997 -1.124 0.997 -1.124 0.02 82.091
5091.583 0.021 82.367 0.997 -1.183 0.997 -1.183 0.021 82.367
5116.542 0.022 82.611 0.997 -1.242 0.997 -1.242 0.022 82.611
5141.5 0.023 82.827 0.997 -1.3 0.997 -1.3 0.023 82.827
5166.458 0.024 83.019 0.997 -1.359 0.997 -1.359 0.024 83.019
5191.417 0.025 83.19 0.997 -1.417 0.997 -1.417 0.025 83.19
5216.375 0.026 83.342 0.997 -1.474 0.997 -1.474 0.026 83.342
5241.333 0.027 83.478 0.997 -1.532 0.997 -1.532 0.027 83.478
5266.292 0.028 83.6 0.997 -1.589 0.997 -1.589 0.028 83.6
5291.25 0.029 83.709 0.997 -1.646 0.997 -1.646 0.029 83.709
5316.208 0.03 83.807 0.997 -1.703 0.997 -1.703 0.03 83.807
5341.167 0.031 83.894 0.997 -1.759 0.997 -1.759 0.031 83.894
5366.125 0.032 83.972 0.997 -1.816 0.997 -1.816 0.032 83.972
5391.083 0.033 84.042 0.997 -1.872 0.997 -1.872 0.033 84.042
5416.042 0.034 84.104 0.997 -1.927 0.997 -1.927 0.034 84.104
5441 0.035 84.159 0.997 -1.983 0.997 -1.983 0.035 84.159
5465.958 0.036 84.209 0.997 -2.039 0.997 -2.039 0.036 84.209
5490.917 0.037 84.252 0.997 -2.094 0.997 -2.094 0.037 84.252
5515.875 0.038 84.291 0.997 -2.149 0.997 -2.149 0.038 84.291
5540.833 0.039 84.324 0.997 -2.203 0.997 -2.203 0.039 84.324
5565.792 0.039 84.353 0.997 -2.258 0.997 -2.258 0.039 84.353
5590.75 0.04 84.379 0.997 -2.312 0.997 -2.312 0.04 84.379
5615.708 0.041 84.4 0.997 -2.367 0.997 -2.367 0.041 84.4
5640.667 0.042 84.418 0.997 -2.421 0.997 -2.421 0.042 84.418
5665.625 0.043 84.433 0.997 -2.474 0.997 -2.474 0.043 84.433
5690.583 0.044 84.445 0.997 -2.528 0.997 -2.528 0.044 84.445
5715.542 0.045 84.454 0.997 -2.581 0.997 -2.581 0.045 84.454
5740.5 0.046 84.461 0.997 -2.634 0.997 -2.634 0.046 84.461
5765.458 0.047 84.465 0.997 -2.688 0.997 -2.688 0.047 84.465
5790.417 0.048 84.467 0.997 -2.74 0.997 -2.74 0.048 84.467
5815.375 0.049 84.467 0.996 -2.793 0.996 -2.793 0.049 84.467
5840.333 0.05 84.465 0.996 -2.845 0.996 -2.845 0.05 84.465
5865.292 0.051 84.461 0.996 -2.898 0.996 -2.898 0.051 84.461
5890.25 0.052 84.456 0.996 -2.95 0.996 -2.95 0.052 84.456
5915.208 0.052 84.449 0.996 -3.002 0.996 -3.002 0.052 84.449
5940.167 0.053 84.44 0.996 -3.054 0.996 -3.054 0.053 84.44
5965.125 0.054 84.43 0.996 -3.105 0.996 -3.105 0.054 84.43
5990.083 0.055 84.419 0.996 -3.157 0.996 -3.157 0.055 84.419
6015.042 0.056 84.407 0.996 -3.208 0.996 -3.208 0.056 84.407
6040 0.057 84.393 0.996 -3.259 0.996 -3.259 0.057 84.393
6064.958 0.058 84.378 0.996 -3.31 0.996 -3.31 0.058 84.378
6089.917 0.059 84.362 0.996 -3.361 0.996 -3.361 0.059 84.362
6114.875 0.06 84.346 0.996 -3.411 0.996 -3.411 0.06 84.346
6139.833 0.06 84.328 0.996 -3.462 0.996 -3.462 0.06 84.328
6164.792 0.061 84.309 0.996 -3.512 0.996 -3.512 0.061 84.309
6189.75 0.062 84.29 0.996 -3.562 0.996 -3.562 0.062 84.29
6214.708 0.063 84.27 0.996 -3.613 0.996 -3.613 0.063 84.27
6239.667 0.064 84.249 0.996 -3.662 0.996 -3.662 0.064 84.249
6264.625 0.065 84.227 0.996 -3.712 0.996 -3.712 0.065 84.227
6289.583 0.066 84.205 0.996 -3.762 0.996 -3.762 0.066 84.205
6314.542 0.067 84.182 0.995 -3.811 0.995 -3.811 0.067 84.182
6339.5 0.067 84.158 0.995 -3.86 0.995 -3.86 0.067 84.158
6364.458 0.068 84.134 0.995 -3.91 0.995 -3.91 0.068 84.134
6389.417 0.069 84.109 0.995 -3.959 0.995 -3.959 0.069 84.109
6414.375 0.07 84.084 0.995 -4.008 0.995 -4.008 0.07 84.084
6439.333 0.071 84.058 0.995 -4.056 0.995 -4.056 0.071 84.058
6464.292 0.072 84.032 0.995 -4.105 0.995 -4.105 0.072 84.032
6489.25 0.072 84.005 0.995 -4.153 0.995 -4.153 0.072 84.005
6514.208 0.073 83.978 0.995 -4.202 0.995 -4.202 0.073 83.978
6539.167 0.074 83.95 0.995 -4.25 0.995 -4.25 0.074 83.95
6564.125 0.075 83.923 0.995 -4.298 0.995 -4.298 0.075 83.923
6589.083 0.076 83.894 0.995 -4.346 0.995 -4.346 0.076 83.894
6614.042 0.077 83.866 0.995 -4.394 0.995 -4.394 0.077 83.866
6639 0.077 83.837 0.995 -4.442 0.995 -4.442 0.077 83.837
6663.958 0.078 83.807 0.995 -4.489 0.995 -4.489 0.078 83.807
6688.917 0.079 83.778 0.995 -4.537 0.995 -4.537 0.079 83.778
6713.875 0.08 83.748 0.994 -4.584 0.994 -4.584 0.08 83.748
6738.833 0.081 83.718 0.994 -4.631 0.994 -4.631 0.081 83.718
6763.792 0.082 83.687 0.994 -4.679 0.994 -4.679 0.082 83.687
6788.75 0.082 83.657 0.994 -4.726 0.994 -4.726 0.082 83.657
6813.708 0.083 83.626 0.994 -4.772 0.994 -4.772 0.083 83.626
6838.667 0.084 83.595 0.994 -4.819 0.994 -4.819 0.084 83.595
6863.625 0.085 83.563 0.994 -4.866 0.994 -4.866 0.085 83.563
6888.583 0.086 83.532 0.994 -4.912 0.994 -4.912 0.086 83.532
6913.542 0.086 83.5 0.994 -4.959 0.994 -4.959 0.086 83.5
6938.5 0.087 83.468 0.994 -5.005 0.994 -5.005 0.087 83.468
6963.458 0.088 83.436 0.994 -5.051 0.994 -5.051 0.088 83.436
6988.417 0.089 83.403 0.994 -5.098 0.994 -5.098 0.089 83.403
7013.375 0.09 83.371 0.994 -5.144 0.994 -5.144 0.09 83.371
7038.333 0.09 83.338 0.994 -5.189 0.994 -5.189 0.09 83.338
7063.292 0.091 83.305 0.994 -5.235 0.994 -5.235 0.091 83.305
7088.25 0.092 83.272 0.993 -5.281 0.993 -5.281 0.092 83.272
7113.208 0.093 83.239 0.993 -5.327 0.993 -5.327 0.093 83.239
7138.167 0.094 83.206 0.993 -5.372 0.993 -5.372 0.094 83.206
7163.125 0.094 83.172 0.993 -5.417 0.993 -5.417 0.094 83.172
7188.083 0.095 83.139 0.993 -5.463 0.993 -5.463 0.095 83.139
7213.042 0.096 83.105 0.993 -5.508 0.993 -5.508 0.096 83.105
7238 0.097 83.071 0.993 -5.553 0.993 -5.553 0.097 83.071
7262.958 0.098 83.037 0.993 -5.598 0.993 -5.598 0.098 83.037
7287.917 0.098 83.003 0.993 -5.643 0.993 -5.643 0.098 83.003
7312.875 0.099 82.969 0.993 -5.688 0.993 -5.688 0.099 82.969
7337.833 0.1 82.935 0.993 -5.732 0.993 -5.732 0.1 82.935
7362.792 0.101 82.901 0.993 -5.777 0.993 -5.777 0.101 82.901
7387.75 0.101 82.867 0.993 -5.822 0.993 -5.822 0.101 82.867
7412.708 0.102 82.832 0.992 -5.866 0.992 -5.866 0.102 82.832
7437.667 0.103 82.798 0.992 -5.91 0.992 -5.91 0.103 82.798
7462.625 0.104 82.763 0.992 -5.955 0.992 -5.955 0.104 82.763
7487.583 0.105 82.728 0.992 -5.999 0.992 -5.999 0.105 82.728
7512.542 0.105 82.694 0.992 -6.043 0.992 -6.043 0.105 82.694
7537.5 0.106 82.659 0.992 -6.087 0.992 -6.087 0.106 82.659
7562.458 0.107 82.624 0.992 -6.131 0.992 -6.131 0.107 82.624
7587.417 0.108 82.589 0.992 -6.175 0.992 -6.175 0.108 82.589
7612.375 0.108 82.554 0.992 -6.218 0.992 -6.218 0.108 82.554
7637.333 0.109 82.519 0.992 -6.262 0.992 -6.262 0.109 82.519
7662.292 0.11 82.484 0.992 -6.306 0.992 -6.306 0.11 82.484
7687.25 0.111 82.449 0.992 -6.349 0.992 -6.349 0.111 82.449
7712.208 0.111 82.414 0.991 -6.393 0.991 -6.393 0.111 82.414
7737.167 0.112 82.378 0.991 -6.436 0.991 -6.436 0.112 82.378
7762.125 0.113 82.343 0.991 -6.479 0.991 -6.479 0.113 82.343
7787.083 0.114 82.308 0.991 -6.522 0.991 -6.522 0.114 82.308
7812.042 0.114 82.272 0.991 -6.565 0.991 -6.565 0.114 82.272
7837 0.115 82.237 0.991 -6.608 0.991 -6.608 0.115 82.237
7861.958 0.116 82.202 0.991 -6.651 0.991 -6.651 0.116 82.202
7886.917 0.117 82.166 0.991 -6.694 0.991 -6.694 0.117 82.166
7911.875 0.117 82.131 0.991 -6.737 0.991 -6.737 0.117 82.131
7936.833 0.118 82.095 0.991 -6.78 0.991 -6.78 0.118 82.095
7961.792 0.119 82.06 0.991 -6.822 0.991 -6.822 0.119 82.06
7986.75 0.12 82.024 0.991 -6.865 0.991 -6.865 0.12 82.024
8011.708 0.12 81.989 0.99 -6.907 0.99 -6.907 0.12 81.989
8036.667 0.121 81.953 0.99 -6.95 0.99 -6.95 0.121 81.953
8061.625 0.122 81.917 0.99 -6.992 0.99 -6.992 0.122 81.917
8086.583 0.122 81.882 0.99 -7.034 0.99 -7.034 0.122 81.882
8111.542 0.123 81.846 0.99 -7.076 0.99 -7.076 0.123 81.846
8136.5 0.124 81.81 0.99 -7.119 0.99 -7.119 0.124 81.81
8161.458 0.125 81.775 0.99 -7.161 0.99 -7.161 0.125 81.775
8186.417 0.125 81.739 0.99 -7.203 0.99 -7.203 0.125 81.739
8211.375 0.126 81.703 0.99 -7.244 0.99 -7.244 0.126 81.703
8236.333 0.127 81.668 0.99 -7.286 0.99 -7.286 0.127 81.668
8261.292 0.128 81.632 0.99 -7.328 0.99 -7.328 0.128 81.632
8286.25 0.128 81.596 0.989 -7.37 0.989 -7.37 0.128 81.596
8311.208 0.129 81.56 0.989 -7.411 0.989 -7.411 0.129 81.56
8336.167 0.13 81.525 0.989 -7.453 0.989 -7.453 0.13 81.525
8361.125 0.13 81.489 0.989 -7.494 0.989 -7.494 0.13 81.489
8386.083 0.131 81.453 0.989 -7.536 0.989 -7.536 0.131 81.453
8411.042 0.132 81.417 0.989 -7.577 0.989 -7.577 0.132 81.417
8436 0.133 81.381 0.989 -7.619 0.989 -7.619 0.133 81.381
8460.958 0.133 81.346 0.989 -7.66 0.989 -7.66 0.133 81.346
8485.917 0.134 81.31 0.989 -7.701 0.989 -7.701 0.134 81.31
8510.875 0.135 81.274 0.989 -7.742 0.989 -7.742 0.135 81.274
8535.833 0.135 81.238 0.988 -7.783 0.988 -7.783 0.135 81.238
8560.792 0.136 81.202 0.988 -7.824 0.988 -7.824 0.136 81.202
8585.75 0.137 81.167 0.988 -7.865 0.988 -7.865 0.137 81.167
8610.708 0.138 81.131 0.988 -7.906 0.988 -7.906 0.138 81.131
8635.667 0.138 81.095 0.988 -7.947 0.988 -7.947 0.138 81.095
8660.625 0.139 81.059 0.988 -7.987 0.988 -7.987 0.139 81.059
8685.583 0.14 81.023 0.988 -8.028 0.988 -8.028 0.14 81.023
8710.542 0.14 80.988 0.988 -8.069 0.988 -8.069 0.14 80.988
8735.5 0.141 80.952 0.988 -8.109 0.988 -8.109 0.141 80.952
8760.458 0.142 80.916 0.988 -8.15 0.988 -8.15 0.142 80.916
8785.417 0.142 80.88 0.987 -8.19 0.987 -8.19 0.142 80.88
8810.375 0.143 80.845 0.987 -8.231 0.987 -8.231 0.143 80.845
8835.333 0.144 80.809 0.987 -8.271 0.987 -8.271 0.144 80.809
8860.292 0.145 80.773 0.987 -8.311 0.987 -8.311 0.145 80.773
8885.25 0.145 80.737 0.987 -8.352 0.987 -8.352 0.145 80.737
8910.208 0.146 80.702 0.987 -8.392 0.987 -8.392 0.146 80.702
8935.167 0.147 80.666 0.987 -8.432 0.987 -8.432 0.147 80.666
8960.125 0.147 80.63 0.987 -8.472 0.987 -8.472 0.147 80.63
8985.083 0.148 80.594 0.987 -8.512 0.987 -8.512 0.148 80.594
9010.042 0.149 80.559 0.987 -8.552 0.987 -8.552 0.149 80.559
9035 0.149 80.523 0.986 -8.592 0.986 -8.592 0.149 80.523
9059.958 0.15 80.487 0.986 -8.632 0.986 -8.632 0.15 80.487
9084.917 0.151 80.452 0.986 -8.671 0.986 -8.671 0.151 80.452
9109.875 0.151 80.416 0.986 -8.711 0.986 -8.711 0.151 80.416
9134.833 0.152 80.38 0.986 -8.751 0.986 -8.751 0.152 80.38
9159.792 0.153 80.345 0.986 -8.79 0.986 -8.79 0.153 80.345
9184.75 0.154 80.309 0.986 -8.83 0.986 -8.83 0.154 80.309
9209.708 0.154 80.273 0.986 -8.869 0.986 -8.869 0.154 80.273
9234.667 0.155 80.238 0.986 -8.909 0.986 -8.909 0.155 80.238
9259.625 0.156 80.202 0.986 -8.948 0.986 -8.948 0.156 80.202
9284.583 0.156 80.167 0.985 -8.988 0.985 -8.988 0.156 80.167
9309.542 0.157 80.131 0.985 -9.027 0.985 -9.027 0.157 80.131
9334.5 0.158 80.095 0.985 -9.066 0.985 -9.066 0.158 80.095
9359.458 0.158 80.06 0.985 -9.105 0.985 -9.105 0.158 80.06
9384.417 0.159 80.024 0.985 -9.145 0.985 -9.145 0.159 80.024
9409.375 0.16 79.989 0.985 -9.184 0.985 -9.184 0.16 79.989
9434.333 0.16 79.953 0.985 -9.223 0.985 -9.223 0.16 79.953
9459.292 0.161 79.918 0.985 -9.262 0.985 -9.262 0.161 79.918
9484.25 0.162 79.882 0.985 -9.301 0.985 -9.301 0.162 79.882
9509.208 0.162 79.847 0.984 -9.34 0.984 -9.34 0.162 79.847
9534.167 0.163 79.812 0.984 -9.379 0.984 -9.379 0.163 79.812
9559.125 0.164 79.776 0.984 -9.417 0.984 -9.417 0.164 79.776
9584.083 0.164 79.741 0.984 -9.456 0.984 -9.456 0.164 79.741
9609.042 0.165 79.705 0.984 -9.495 0.984 -9.495 0.165 79.705
9634 0.166 79.67 0.984 -9.534 0.984 -9.534 0.166 79.67
9658.958 0.166 79.635 0.984 -9.572 0.984 -9.572 0.166 79.635
9683.917 0.167 79.599 0.984 -9.611 0.984 -9.611 0.167 79.599
9708.875 0.168 79.564 0.984 -9.649 0.984 -9.649 0.168 79.564
9733.833 0.168 79.529 0.983 -9.688 0.983 -9.688 0.168 79.529
9758.792 0.169 79.493 0.983 -9.726 0.983 -9.726 0.169 79.493
9783.75 0.17 79.458 0.983 -9.765 0.983 -9.765 0.17 79.458
9808.708 0.17 79.423 0.983 -9.803 0.983 -9.803 0.17 79.423
9833.667 0.171 79.387 0.983 -9.842 0.983 -9.842 0.171 79.387
9858.625 0.172 79.352 0.983 -9.88 0.983 -9.88 0.172 79.352
9883.583 0.172 79.317 0.983 -9.918 0.983 -9.918 0.172 79.317
9908.542 0.173 79.282 0.983 -9.956 0.983 -9.956 0.173 79.282
9933.5 0.174 79.247 0.983 -9.994 0.983 -9.994 0.174 79.247
9958.458 0.174 79.211 0.982 -10.032 0.982 -10.032 0.174 79.211
9983.417 0.175 79.176 0.982 -10.071 0.982 -10.071 0.175 79.176
10008.375 0.176 79.141 0.982 -10.109 0.982 -10.109 0.176 79.141
10033.333 0.176 79.106 0.982 -10.147 0.982 -10.147 0.176 79.106
10058.292 0.177 79.071 0.982 -10.184 0.982 -10.184 0.177 79.071
10083.25 0.177 79.036 0.982 -10.222 0.982 -10.222 0.177 79.036
10108.208 0.178 79.001 0.982 -10.26 0.982 -10.26 0.178 79.001
10133.167 0.179 78.966 0.982 -10.298 0.982 -10.298 0.179 78.966
10158.125 0.179 78.931 0.981 -10.336 0.981 -10.336 0.179 78.931
10183.083 0.18 78.896 0.981 -10.374 0.981 -10.374 0.18 78.896
10208.042 0.181 78.861 0.981 -10.411 0.981 -10.411 0.181 78.861
10233 0.181 78.826 0.981 -10.449 0.981 -10.449 0.181 78.826
10257.958 0.182 78.791 0.981 -10.487 0.981 -10.487 0.182 78.791
10282.917 0.183 78.756 0.981 -10.524 0.981 -10.524 0.183 78.756
10307.875 0.183 78.721 0.981 -10.562 0.981 -10.562 0.183 78.721
10332.833 0.184 78.686 0.981 -10.599 0.981 -10.599 0.184 78.686
10357.792 0.185 78.651 0.981 -10.637 0.981 -10.637 0.185 78.651
10382.75 0.185 78.616 0.98 -10.674 0.98 -10.674 0.185 78.616
10407.708 0.186 78.581 0.98 -10.711 0.98 -10.711 0.186 78.581
10432.667 0.187 78.547 0.98 -10.749 0.98 -10.749 0.187 78.547
10457.625 0.187 78.512 0.98 -10.786 0.98 -10.786 0.187 78.512
10482.583 0.188 78.477 0.98 -10.823 0.98 -10.823 0.188 78.477
10507.542 0.188 78.442 0.98 -10.861 0.98 -10.861 0.188 78.442
10532.5 0.189 78.408 0.98 -10.898 0.98 -10.898 0.189 78.408
10557.458 0.19 78.373 0.98 -10.935 0.98 -10.935 0.19 78.373
10582.417 0.19 78.338 0.979 -10.972 0.979 -10.972 0.19 78.338
10607.375 0.191 78.303 0.979 -11.009 0.979 -11.009 0.191 78.303
10632.333 0.192 78.269 0.979 -11.046 0.979 -11.046 0.192 78.269
10657.292 0.192 78.234 0.979 -11.083 0.979 -11.083 0.192 78.234
10682.25 0.193 78.199 0.979 -11.12 0.979 -11.12 0.193 78.199
10707.208 0.194 78.165 0.979 -11.157 0.979 -11.157 0.194 78.165
10732.167 0.194 78.13 0.979 -11.194 0.979 -11.194 0.194 78.13
10757.125 0.195 78.096 0.979 -11.231 0.979 -11.231 0.195 78.096
10782.083 0.195 78.061 0.978 -11.268 0.978 -11.268 0.195 78.061
10807.042 0.196 78.027 0.978 -11.304 0.978 -11.304 0.196 78.027
10832 0.197 77.992 0.978 -11.341 0.978 -11.341 0.197 77.992
10856.958 0.197 77.957 0.978 -11.378 0.978 -11.378 0.197 77.957
10881.917 0.198 77.923 0.978 -11.414 0.978 -11.414 0.198 77.923
10906.875 0.199 77.889 0.978 -11.451 0.978 -11.451 0.199 77.889
10931.833 0.199 77.854 0.978 -11.488 0.978 -11.488 0.199 77.854
10956.792 0.2 77.82 0.978 -11.524 0.978 -11.524 0.2 77.82
10981.75 0.2 77.785 0.977 -11.561 0.977 -11.561 0.2 77.785
11006.708 0.201 77.751 0.977 -11.597 0.977 -11.597 0.201 77.751
11031.667 0.202 77.717 0.977 -11.634 0.977 -11.634 0.202 77.717
11056.625 0.202 77.682 0.977 -11.67 0.977 -11.67 0.202 77.682
11081.583 0.203 77.648 0.977 -11.707 0.977 -11.707 0.203 77.648
11106.542 0.204 77.614 0.977 -11.743 0.977 -11.743 0.204 77.614
11131.5 0.204 77.579 0.977 -11.779 0.977 -11.779 0.204 77.579
11156.458 0.205 77.545 0.977 -11.816 0.977 -11.816 0.205 77.545
11181.417 0.205 77.511 0.976 -11.852 0.976 -11.852 0.205 77.511
11206.375 0.206 77.476 0.976 -11.888 0.976 -11.888 0.206 77.476
11231.333 0.207 77.442 0.976 -11.924 0.976 -11.924 0.207 77.442
11256.292 0.207 77.408 0.976 -11.96 0.976 -11.96 0.207 77.408
11281.25 0.208 77.374 0.976 -11.997 0.976 -11.997 0.208 77.374
11306.208 0.208 77.34 0.976 -12.033 0.976 -12.033 0.208 77.34
11331.167 0.209 77.306 0.976 -12.069 0.976 -12.069 0.209 77.306
11356.125 0.21 77.271 0.975 -12.105 0.975 -12.105 0.21 77.271
11381.083 0.21 77.237 0.975 -12.141 0.975 -12.141 0.21 77.237
11406.042 0.211 77.203 0.975 -12.177 0.975 -12.177 0.211 77.203
11431 0.212 77.169 0.975 -12.213 0.975 -12.213 0.212 77.169
11455.958 0.212 77.135 0.975 -12.249 0.975 -12.249 0.212 77.135
11480.917 0.213 77.101 0.975 -12.285 0.975 -12.285 0.213 77.101
11505.875 0.213 77.067 0.975 -12.32 0.975 -12.32 0.213 77.067
11530.833 0.214 77.033 0.975 -12.356 0.975 -12.356 0.214 77.033
11555.792 0.215 76.999 0.974 -12.392 0.974 -12.392 0.215 76.999
11580.75 0.215 76.965 0.974 -12.428 0.974 -12.428 0.215 76.965
11605.708 0.216 76.931 0.974 -12.463 0.974 -12.463 0.216 76.931
11630.667 0.216 76.897 0.974 -12.499 0.974 -12.499 0.216 76.897
11655.625 0.217 76.864 0.974 -12.535 0.974 -12.535 0.217 76.864
11680.583 0.218 76.83 0.974 -12.57 0.974 -12.57 0.218 76.83
11705.542 0.218 76.796 0.974 -12.606 0.974 -12.606 0.218 76.796
11730.5 0.219 76.762 0.973 -12.642 0.973 -12.642 0.219 76.762
11755.458 0.219 76.728 0.973 -12.677 0.973 -12.677 0.219 76.728
11780.417 0.22 76.694 0.973 -12.713 0.973 -12.713 0.22 76.694
11805.375 0.221 76.661 0.973 -12.748 0.973 -12.748 0.221 76.661
11830.333 0.221 76.627 0.973 -12.784 0.973 -12.784 0.221 76.627
11855.292 0.222 76.593 0.973 -12.819 0.973 -12.819 0.222 76.593
11880.25 0.222 76.559 0.973 -12.854 0.973 -12.854 0.222 76.559
11905.208 0.223 76.526 0.973 -12.89 0.973 -12.89 0.223 76.526
11930.167 0.224 76.492 0.972 -12.925 0.972 -12.925 0.224 76.492
11955.125 0.224 76.458 0.972 -12.96 0.972 -12.96 0.224 76.458
11980.083 0.225 76.425 0.972 -12.996 0.972 -12.996 0.225 76.425
12005.042 0.225 76.391 0.972 -13.031 0.972 -13.031 0.225 76.391
12030 0.226 76.358 0.972 -13.066 0.972 -13.066 0.226 76.358
12054.958 0.227 76.324 0.972 -13.101 0.972 -13.101 0.227 76.324
12079.917 0.227 76.29 0.972 -13.136 0.972 -13.136 0.227 76.29
12104.875 0.228 76.257 0.971 -13.172 0.971 -13.172 0.228 76.257
12129.833 0.228 76.223 0.971 -13.207 0.971 -13.207 0.228 76.223
12154.792 0.229 76.19 0.971 -13.242 0.971 -13.242 0.229 76.19
12179.75 0.23 76.156 0.971 -13.277 0.971 -13.277 0.23 76.156
12204.708 0.23 76.123 0.971 -13.312 0.971 -13.312 0.23 76.123
12229.667 0.231 76.089 0.971 -13.347 0.971 -13.347 0.231 76.089
12254.625 0.231 76.056 0.971 -13.382 0.971 -13.382 0.231 76.056
12279.583 0.232 76.023 0.97 -13.417 0.97 -13.417 0.232 76.023
12304.542 0.233 75.989 0.97 -13.452 0.97 -13.452 0.233 75.989
12329.5 0.233 75.956 0.97 -13.486 0.97 -13.486 0.233 75.956
12354.458 0.234 75.922 0.97 -13.521 0.97 -13.521 0.234 75.922
12379.417 0.234 75.889 0.97 -13.556 0.97 -13.556 0.234 75.889
12404.375 0.235 75.856 0.97 -13.591 0.97 -13.591 0.235 75.856
12429.333 0.236 75.822 0.97 -13.626 0.97 -13.626 0.236 75.822
12454.292 0.236 75.789 0.969 -13.66 0.969 -13.66 0.236 75.789
12479.25 0.237 75.756 0.969 -13.695 0.969 -13.695 0.237 75.756
12504.208 0.237 75.723 0.969 -13.73 0.969 -13.73 0.237 75.723
12529.167 0.238 75.689 0.969 -13.764 0.969 -13.764 0.238 75.689
12554.125 0.239 75.656 0.969 -13.799 0.969 -13.799 0.239 75.656
12579.083 0.239 75.623 0.969 -13.834 0.969 -13.834 0.239 75.623
12604.042 0.24 75.59 0.969 -13.868 0.969 -13.868 0.24 75.59
12629 0.24 75.557 0.968 -13.903 0.968 -13.903 0.24 75.557
12653.958 0.241 75.524 0.968 -13.937 0.968 -13.937 0.241 75.524
12678.917 0.241 75.49 0.968 -13.972 0.968 -13.972 0.241 75.49
12703.875 0.242 75.457 0.968 -14.006 0.968 -14.006 0.242 75.457
12728.833 0.243 75.424 0.968 -14.041 0.968 -14.041 0.243 75.424
12753.792 0.243 75.391 0.968 -14.075 0.968 -14.075 0.243 75.391
12778.75 0.244 75.358 0.968 -14.11 0.968 -14.11 0.244 75.358
12803.708 0.244 75.325 0.967 -14.144 0.967 -14.144 0.244 75.325
12828.667 0.245 75.292 0.967 -14.178 0.967 -14.178 0.245 75.292
12853.625 0.246 75.259 0.967 -14.213 0.967 -14.213 0.246 75.259
12878.583 0.246 75.226 0.967 -14.247 0.967 -14.247 0.246 75.226
12903.542 0.247 75.193 0.967 -14.281 0.967 -14.281 0.247 75.193
12928.5 0.247 75.16 0.967 -14.315 0.967 -14.315 0.247 75.16
12953.458 0.248 75.127 0.967 -14.35 0.967 -14.35 0.248 75.127
12978.417 0.248 75.095 0.966 -14.384 0.966 -14.384 0.248 75.095
13003.375 0.249 75.062 0.966 -14.418 0.966 -14.418 0.249 75.062
13028.333 0.25 75.029 0.966 -14.452 0.966 -14.452 0.25 75.029
13053.292 0.25 74.996 0.966 -14.486 0.966 -14.486 0.25 74.996
13078.25 0.251 74.963 0.966 -14.52 0.966 -14.52 0.251 74.963
13103.208 0.251 74.93 0.966 -14.554 0.966 -14.554 0.251 74.93
13128.167 0.252 74.898 0.966 -14.588 0.966 -14.588 0.252 74.898
13153.125 0.252 74.865 0.965 -14.623 0.965 -14.623 0.252 74.865
13178.083 0.253 74.832 0.965 -14.657 0.965 -14.657 0.253 74.832
13203.042 0.254 74.799 0.965 -14.69 0.965 -14.69 0.254 74.799
13228 0.254 74.767 0.965 -14.724 0.965 -14.724 0.254 74.767
13252.958 0.255 74.734 0.965 -14.758 0.965 -14.758 0.255 74.734
13277.917 0.255 74.701 0.965 -14.792 0.965 -14.792 0.255 74.701
13302.875 0.256 74.669 0.964 -14.826 0.964 -14.826 0.256 74.669
13327.833 0.256 74.636 0.964 -14.86 0.964 -14.86 0.256 74.636
13352.792 0.257 74.603 0.964 -14.894 0.964 -14.894 0.257 74.603
13377.75 0.258 74.571 0.964 -14.928 0.964 -14.928 0.258 74.571
13402.708 0.258 74.538 0.964 -14.961 0.964 -14.961 0.258 74.538
13427.667 0.259 74.505 0.964 -14.995 0.964 -14.995 0.259 74.505
13452.625 0.259 74.473 0.964 -15.029 0.964 -15.029 0.259 74.473
13477.583 0.26 74.44 0.963 -15.063 0.963 -15.063 0.26 74.44
13502.542 0.26 74.408 0.963 -15.096 0.963 -15.096 0.26 74.408
13527.5 0.261 74.375 0.963 -15.13 0.963 -15.13 0.261 74.375
13552.458 0.262 74.343 0.963 -15.163 0.963 -15.163 0.262 74.343
13577.417 0.262 74.31 0.963 -15.197 0.963 -15.197 0.262 74.31
13602.375 0.263 74.278 0.963 -15.231 0.963 -15.231 0.263 74.278
13627.333 0.263 74.246 0.962 -15.264 0.962 -15.264 0.263 74.246
13652.292 0.264 74.213 0.962 -15.298 0.962 -15.298 0.264 74.213
13677.25 0.264 74.181 0.962 -15.331 0.962 -15.331 0.264 74.181
13702.208 0.265 74.148 0.962 -15.365 0.962 -15.365 0.265 74.148
13727.167 0.266 74.116 0.962 -15.398 0.962 -15.398 0.266 74.116
13752.125 0.266 74.084 0.962 -15.432 0.962 -15.432 0.266 74.084
13777.083 0.267 74.051 0.962 -15.465 0.962 -15.465 0.267 74.051
13802.042 0.267 74.019 0.961 -15.499 0.961 -15.499 0.267 74.019
13827 0.268 73.987 0.961 -15.532 0.961 -15.532 0.268 73.987
13851.958 0.268 73.955 0.961 -15.565 0.961 -15.565 0.268 73.955
13876.917 0.269 73.922 0.961 -15.599 0.961 -15.599 0.269 73.922
13901.875 0.269 73.89 0.961 -15.632 0.961 -15.632 0.269 73.89
13926.833 0.27 73.858 0.961 -15.665 0.961 -15.665 0.27 73.858
13951.792 0.271 73.826 0.96 -15.698 0.96 -15.698 0.271 73.826
13976.75 0.271 73.793 0.96 -15.732 0.96 -15.732 0.271 73.793
14001.708 0.272 73.761 0.96 -15.765 0.96 -15.765 0.272 73.761
14026.667 0.272 73.729 0.96 -15.798 0.96 -15.798 0.272 73.729
14051.625 0.273 73.697 0.96 -15.831 0.96 -15.831 0.273 73.697
14076.583 0.273 73.665 0.96 -15.864 0.96 -15.864 0.273 73.665
14101.542 0.274 73.633 0.96 -15.898 0.96 -15.898 0.274 73.633
14126.5 0.274 73.601 0.959 -15.931 0.959 -15.931 0.274 73.601
14151.458 0.275 73.569 0.959 -15.964 0.959 -15.964 0.275 73.569
14176.417 0.276 73.537 0.959 -15.997 0.959 -15.997 0.276 73.537
14201.375 0.276 73.505 0.959 -16.03 0.959 -16.03 0.276 73.505
14226.333 0.277 73.473 0.959 -16.063 0.959 -16.063 0.277 73.473
14251.292 0.277 73.441 0.959 -16.096 0.959 -16.096 0.277 73.441
14276.25 0.278 73.409 0.958 -16.129 0.958 -16.129 0.278 73.409
14301.208 0.278 73.377 0.958 -16.162 0.958 -16.162 0.278 73.377
14326.167 0.279 73.345 0.958 -16.195 0.958 -16.195 0.279 73.345
14351.125 0.279 73.313 0.958 -16.228 0.958 -16.228 0.279 73.313
14376.083 0.28 73.281 0.958 -16.26 0.958 -16.26 0.28 73.281
14401.042 0.281 73.249 0.958 -16.293 0.958 -16.293 0.281 73.249
14426 0.281 73.217 0.957 -16.326 0.957 -16.326 0.281 73.217
14450.958 0.282 73.185 0.957 -16.359 0.957 -16.359 0.282 73.185
14475.917 0.282 73.153 0.957 -16.392 0.957 -16.392 0.282 73.153
14500.875 0.283 73.122 0.957 -16.425 0.957 -16.425 0.283 73.122
14525.833 0.283 73.09 0.957 -16.457 0.957 -16.457 0.283 73.09
14550.792 0.284 73.058 0.957 -16.49 0.957 -16.49 0.284 73.058
14575.75 0.284 73.026 0.956 -16.523 0.956 -16.523 0.284 73.026
14600.708 0.285 72.995 0.956 -16.555 0.956 -16.555 0.285 72.995
14625.667 0.285 72.963 0.956 -16.588 0.956 -16.588 0.285 72.963
14650.625 0.286 72.931 0.956 -16.621 0.956 -16.621 0.286 72.931
14675.583 0.287 72.899 0.956 -16.653 0.956 -16.653 0.287 72.899
14700.542 0.287 72.868 0.956 -16.686 0.956 -16.686 0.287 72.868
14725.5 0.288 72.836 0.955 -16.719 0.955 -16.719 0.288 72.836
14750.458 0.288 72.804 0.955 -16.751 0.955 -16.751 0.288 72.804
14775.417 0.289 72.773 0.955 -16.784 0.955 -16.784 0.289 72.773
14800.375 0.289 72.741 0.955 -16.816 0.955 -16.816 0.289 72.741
14825.333 0.29 72.71 0.955 -16.849 0.955 -16.849 0.29 72.71
14850.292 0.29 72.678 0.955 -16.881 0.955 -16.881 0.29 72.678
14875.25 0.291 72.646 0.955 -16.914 0.955 -16.914 0.291 72.646
14900.208 0.291 72.615 0.954 -16.946 0.954 -16.946 0.291 72.615
14925.167 0.292 72.583 0.954 -16.979 0.954 -16.979 0.292 72.583
14950.125 0.293 72.552 0.954 -17.011 0.954 -17.011 0.293 72.552
14975.083 0.293 72.52 0.954 -17.043 0.954 -17.043 0.293 72.52
15000.042 0.294 72.489 0.954 -17.076 0.954 -17.076 0.294 72.489
15025 0.294 72.457 0.954 -17.108 0.954 -17.108 0.294 72.457
15049.958 0.295 72.426 0.953 -17.14 0.953 -17.14 0.295 72.426
15074.917 0.295 72.394 0.953 -17.173 0.953 -17.173 0.295 72.394
15099.875 0.296 72.363 0.953 -17.205 0.953 -17.205 0.296 72.363
15124.833 0.296 72.332 0.953 -17.237 0.953 -17.237 0.296 72.332
15149.792 0.297 72.3 0.953 -17.269 0.953 -17.269 0.297 72.3
15174.75 0.297 72.269 0.953 -17.302 0.953 -17.302 0.297 72.269
15199.708 0.298 72.238 0.952 -17.334 0.952 -17.334 0.298 72.238
15224.667 0.298 72.206 0.952 -17.366 0.952 -17.366 0.298 72.206
15249.625 0.299 72.175 0.952 -17.398 0.952 -17.398 0.299 72.175
15274.583 0.3 72.144 0.952 -17.43 0.952 -17.43 0.3 72.144
15299.542 0.3 72.112 0.952 -17.462 0.952 -17.462 0.3 72.112
15324.5 0.301 72.081 0.952 -17.494 0.952 -17.494 0.301 72.081
15349.458 0.301 72.05 0.951 -17.527 0.951 -17.527 0.301 72.05
15374.417 0.302 72.019 0.951 -17.559 0.951 -17.559 0.302 72.019
15399.375 0.302 71.987 0.951 -17.591 0.951 -17.591 0.302 71.987
15424.333 0.303 71.956 0.951 -17.623 0.951 -17.623 0.303 71.956
15449.292 0.303 71.925 0.951 -17.655 0.951 -17.655 0.303 71.925
15474.25 0.304 71.894 0.951 -17.687 0.951 -17.687 0.304 71.894
15499.208 0.304 71.863 0.95 -17.719 0.95 -17.719 0.304 71.863
15524.167 0.305 71.832 0.95 -17.751 0.95 -17.751 0.305 71.832
15549.125 0.305 71.8 0.95 -17.782 0.95 -17.782 0.305 71.8
15574.083 0.306 71.769 0.95 -17.814 0.95 -17.814 0.306 71.769
15599.042 0.306 71.738 0.95 -17.846 0.95 -17.846 0.306 71.738
15624 0.307 71.707 0.949 -17.878 0.949 -17.878 0.307 71.707
15648.958 0.308 71.676 0.949 -17.91 0.949 -17.91 0.308 71.676
15673.917 0.308 71.645 0.949 -17.942 0.949 -17.942 0.308 71.645
15698.875 0.309 71.614 0.949 -17.974 0.949 -17.974 0.309 71.614
15723.833 0.309 71.583 0.949 -18.005 0.949 -18.005 0.309 71.583
15748.792 0.31 71.552 0.949 -18.037 0.949 -18.037 0.31 71.552
15773.75 0.31 71.521 0.948 -18.069 0.948 -18.069 0.31 71.521
15798.708 0.311 71.49 0.948 -18.101 0.948 -18.101 0.311 71.49
15823.667 0.311 71.459 0.948 -18.132 0.948 -18.132 0.311 71.459
15848.625 0.312 71.428 0.948 -18.164 0.948 -18.164 0.312 71.428
15873.583 0.312 71.397 0.948 -18.196 0.948 -18.196 0.312 71.397
15898.542 0.313 71.367 0.948 -18.227 0.948 -18.227 0.313 71.367
15923.5 0.313 71.336 0.947 -18.259 0.947 -18.259 0.313 71.336
15948.458 0.314 71.305 0.947 -18.29 0.947 -18.29 0.314 71.305
15973.417 0.314 71.274 0.947 -18.322 0.947 -18.322 0.314 71.274
15998.375 0.315 71.243 0.947 -18.354 0.947 -18.354 0.315 71.243
16023.333 0.315 71.212 0.947 -18.385 0.947 -18.385 0.315 71.212
16048.292 0.316 71.182 0.947 -18.417 0.947 -18.417 0.316 71.182
16073.25 0.316 71.151 0.946 -18.448 0.946 -18.448 0.316 71.151
16098.208 0.317 71.12 0.946 -18.48 0.946 -18.48 0.317 71.12
16123.167 0.317 71.089 0.946 -18.511 0.946 -18.511 0.317 71.089
16148.125 0.318 71.059 0.946 -18.543 0.946 -18.543 0.318 71.059
16173.083 0.319 71.028 0.946 -18.574 0.946 -18.574 0.319 71.028
16198.042 0.319 70.997 0.946 -18.605 0.946 -18.605 0.319 70.997
16223 0.32 70.966 0.945 -18.637 0.945 -18.637 0.32 70.966
16247.958 0.32 70.936 0.945 -18.668 0.945 -18.668 0.32 70.936
16272.917 0.321 70.905 0.945 -18.7 0.945 -18.7 0.321 70.905
16297.875 0.321 70.875 0.945 -18.731 0.945 -18.731 0.321 70.875
16322.833 0.322 70.844 0.945 -18.762 0.945 -18.762 0.322 70.844
16347.792 0.322 70.813 0.944 -18.794 0.944 -18.794 0.322 70.813
16372.75 0.323 70.783 0.944 -18.825 0.944 -18.825 0.323 70.783
16397.708 0.323 70.752 0.944 -18.856 0.944 -18.856 0.323 70.752
16422.667 0.324 70.722 0.944 -18.887 0.944 -18.887 0.324 70.722
16447.625 0.324 70.691 0.944 -18.919 0.944 -18.919 0.324 70.691
16472.583 0.325 70.661 0.944 -18.95 0.944 -18.95 0.325 70.661
16497.542 0.325 70.63 0.943 -18.981 0.943 -18.981 0.325 70.63
16522.5 0.326 70.6 0.943 -19.012 0.943 -19.012 0.326 70.6
16547.458 0.326 70.569 0.943 -19.043 0.943 -19.043 0.326 70.569
16572.417 0.327 70.539 0.943 -19.074 0.943 -19.074 0.327 70.539
16597.375 0.327 70.508 0.943 -19.106 0.943 -19.106 0.327 70.508
16622.333 0.328 70.478 0.943 -19.137 0.943 -19.137 0.328 70.478
16647.292 0.328 70.447 0.942 -19.168 0.942 -19.168 0.328 70.447
16672.25 0.329 70.417 0.942 -19.199 0.942 -19.199 0.329 70.417
16697.208 0.329 70.387 0.942 -19.23 0.942 -19.23 0.329 70.387
16722.167 0.33 70.356 0.942 -19.261 0.942 -19.261 0.33 70.356
16747.125 0.33 70.326 0.942 -19.292 0.942 -19.292 0.33 70.326
16772.083 0.331 70.296 0.941 -19.323 0.941 -19.323 0.331 70.296
16797.042 0.331 70.265 0.941 -19.354 0.941 -19.354 0.331 70.265
16822 0.332 70.235 0.941 -19.385 0.941 -19.385 0.332 70.235
16846.958 0.332 70.205 0.941 -19.416 0.941 -19.416 0.332 70.205
16871.917 0.333 70.174 0.941 -19.447 0.941 -19.447 0.333 70.174
16896.875 0.333 70.144 0.941 -19.478 0.941 -19.478 0.333 70.144
16921.833 0.334 70.114 0.94 -19.508 0.94 -19.508 0.334 70.114
16946.792 0.334 70.084 0.94 -19.539 0.94 -19.539 0.334 70.084
16971.75 0.335 70.054 0.94 -19.57 0.94 -19.57 0.335 70.054
16996.708 0.335 70.023 0.94 -19.601 0.94 -19.601 0.335 70.023
17021.667 0.336 69.993 0.94 -19.632 0.94 -19.632 0.336 69.993
17046.625 0.336 69.963 0.939 -19.663 0.939 -19.663 0.336 69.963
17071.583 0.337 69.933 0.939 -19.693 0.939 -19.693 0.337 69.933
17096.542 0.337 69.903 0.939 -19.724 0.939 -19.724 0.337 69.903
17121.5 0.338 69.873 0.939 -19.755 0.939 -19.755 0.338 69.873
17146.458 0.339 69.843 0.939 -19.785 0.939 -19.785 0.339 69.843
17171.417 0.339 69.813 0.939 -19.816 0.939 -19.816 0.339 69.813
17196.375 0.34 69.782 0.938 -19.847 0.938 -19.847 0.34 69.782
17221.333 0.34 69.752 0.938 -19.878 0.938 -19.878 0.34 69.752
17246.292 0.341 69.722 0.938 -19.908 0.938 -19.908 0.341 69.722
17271.25 0.341 69.692 0.938 -19.939 0.938 -19.939 0.341 69.692
17296.208 0.342 69.662 0.938 -19.969 0.938 -19.969 0.342 69.662
17321.167 0.342 69.632 0.937 -20 0.937 -20 0.342 69.632
17346.125 0.343 69.602 0.937 -20.031 0.937 -20.031 0.343 69.602
17371.083 0.343 69.573 0.937 -20.061 0.937 -20.061 0.343 69.573
17396.042 0.344 69.543 0.937 -20.092 0.937 -20.092 0.344 69.543
17421 0.344 69.513 0.937 -20.122 0.937 -20.122 0.344 69.513
17445.958 0.345 69.483 0.937 -20.153 0.937 -20.153 0.345 69.483
17470.917 0.345 69.453 0.936 -20.183 0.936 -20.183 0.345 69.453
17495.875 0.346 69.423 0.936 -20.214 0.936 -20.214 0.346 69.423
17520.833 0.346 69.393 0.936 -20.244 0.936 -20.244 0.346 69.393
17545.792 0.347 69.363 0.936 -20.275 0.936 -20.275 0.347 69.363
17570.75 0.347 69.333 0.936 -20.305 0.936 -20.305 0.347 69.333
17595.708 0.348 69.304 0.935 -20.335 0.935 -20.335 0.348 69.304
17620.667 0.348 69.274 0.935 -20.366 0.935 -20.366 0.348 69.274
17645.625 0.349 69.244 0.935 -20.396 0.935 -20.396 0.349 69.244
17670.583 0.349 69.214 0.935 -20.426 0.935 -20.426 0.349 69.214
17695.542 0.35 69.185 0.935 -20.457 0.935 -20.457 0.35 69.185
17720.5 0.35 69.155 0.935 -20.487 0.935 -20.487 0.35 69.155
17745.458 0.35 69.125 0.934 -20.517 0.934 -20.517 0.35 69.125
17770.417 0.351 69.095 0.934 -20.548 0.934 -20.548 0.351 69.095
17795.375 0.351 69.066 0.934 -20.578 0.934 -20.578 0.351 69.066
17820.333 0.352 69.036 0.934 -20.608 0.934 -20.608 0.352 69.036
17845.292 0.352 69.006 0.934 -20.638 0.934 -20.638 0.352 69.006
17870.25 0.353 68.977 0.933 -20.669 0.933 -20.669 0.353 68.977
17895.208 0.353 68.947 0.933 -20.699 0.933 -20.699 0.353 68.947
17920.167 0.354 68.918 0.933 -20.729 0.933 -20.729 0.354 68.918
17945.125 0.354 68.888 0.933 -20.759 0.933 -20.759 0.354 68.888
17970.083 0.355 68.858 0.933 -20.789 0.933 -20.789 0.355 68.858
17995.042 0.355 68.829 0.933 -20.819 0.933 -20.819 0.355 68.829
18020 0.356 68.799 0.932 -20.849 0.932 -20.849 0.356 68.799
18044.958 0.356 68.77 0.932 -20.88 0.932 -20.88 0.356 68.77
18069.917 0.357 68.74 0.932 -20.91 0.932 -20.91 0.357 68.74
18094.875 0.357 68.711 0.932 -20.94 0.932 -20.94 0.357 68.711
18119.833 0.358 68.681 0.932 -20.97 0.932 -20.97 0.358 68.681
18144.792 0.358 68.652 0.931 -21 0.931 -21 0.358 68.652
18169.75 0.359 68.622 0.931 -21.03 0.931 -21.03 0.359 68.622
18194.708 0.359 68.593 0.931 -21.06 0.931 -21.06 0.359 68.593
18219.667 0.36 68.563 0.931 -21.09 0.931 -21.09 0.36 68.563
18244.625 0.36 68.534 0.931 -21.12 0.931 -21.12 0.36 68.534
18269.583 0.361 68.505 0.93 -21.15 0.93 -21.15 0.361 68.505
18294.542 0.361 68.475 0.93 -21.18 0.93 -21.18 0.361 68.475
18319.5 0.362 68.446 0.93 -21.209 0.93 -21.209 0.362 68.446
18344.458 0.362 68.416 0.93 -21.239 0.93 -21.239 0.362 68.416
18369.417 0.363 68.387 0.93 -21.269 0.93 -21.269 0.363 68.387
18394.375 0.363 68.358 0.93 -21.299 0.93 -21.299 0.363 68.358
18419.333 0.364 68.329 0.929 -21.329 0.929 -21.329 0.364 68.329
18444.292 0.364 68.299 0.929 -21.359 0.929 -21.359 0.364 68.299
18469.25 0.365 68.27 0.929 -21.388 0.929 -21.388 0.365 68.27
18494.208 0.365 68.241 0.929 -21.418 0.929 -21.418 0.365 68.241
18519.167 0.366 68.211 0.929 -21.448 0.929 -21.448 0.366 68.211
18544.125 0.366 68.182 0.928 -21.478 0.928 -21.478 0.366 68.182
18569.083 0.367 68.153 0.928 -21.507 0.928 -21.507 0.367 68.153
18594.042 0.367 68.124 0.928 -21.537 0.928 -21.537 0.367 68.124
18619 0.368 68.095 0.928 -21.567 0.928 -21.567 0.368 68.095
18643.958 0.368 68.065 0.928 -21.597 0.928 -21.597 0.368 68.065
18668.917 0.369 68.036 0.927 -21.626 0.927 -21.626 0.369 68.036
18693.875 0.369 68.007 0.927 -21.656 0.927 -21.656 0.369 68.007
18718.833 0.37 67.978 0.927 -21.686 0.927 -21.686 0.37 67.978
18743.792 0.37 67.949 0.927 -21.715 0.927 -21.715 0.37 67.949
18768.75 0.37 67.92 0.927 -21.745 0.927 -21.745 0.37 67.92
18793.708 0.371 67.891 0.926 -21.774 0.926 -21.774 0.371 67.891
18818.667 0.371 67.862 0.926 -21.804 0.926 -21.804 0.371 67.862
18843.625 0.372 67.833 0.926 -21.833 0.926 -21.833 0.372 67.833
18868.583 0.372 67.804 0.926 -21.863 0.926 -21.863 0.372 67.804
18893.542 0.373 67.775 0.926 -21.892 0.926 -21.892 0.373 67.775
18918.5 0.373 67.746 0.926 -21.922 0.926 -21.922 0.373 67.746
18943.458 0.374 67.717 0.925 -21.951 0.925 -21.951 0.374 67.717
18968.417 0.374 67.688 0.925 -21.981 0.925 -21.981 0.374 67.688
18993.375 0.375 67.659 0.925 -22.01 0.925 -22.01 0.375 67.659
19018.333 0.375 67.63 0.925 -22.04 0.925 -22.04 0.375 67.63
19043.292 0.376 67.601 0.925 -22.069 0.925 -22.069 0.376 67.601
19068.25 0.376 67.572 0.924 -22.099 0.924 -22.099 0.376 67.572
19093.208 0.377 67.543 0.924 -22.128 0.924 -22.128 0.377 67.543
19118.167 0.377 67.514 0.924 -22.157 0.924 -22.157 0.377 67.514
19143.125 0.378 67.485 0.924 -22.187 0.924 -22.187 0.378 67.485
19168.083 0.378 67.456 0.924 -22.216 0.924 -22.216 0.378 67.456
19193.042 0.379 67.428 0.923 -22.245 0.923 -22.245 0.379 67.428
19218 0.379 67.399 0.923 -22.275 0.923 -22.275 0.379 67.399
19242.958 0.38 67.37 0.923 -22.304 0.923 -22.304 0.38 67.37
19267.917 0.38 67.341 0.923 -22.333 0.923 -22.333 0.38 67.341
19292.875 0.38 67.312 0.923 -22.362 0.923 -22.362 0.38 67.312
19317.833 0.381 67.284 0.922 -22.392 0.922 -22.392 0.381 67.284
19342.792 0.381 67.255 0.922 -22.421 0.922 -22.421 0.381 67.255
19367.75 0.382 67.226 0.922 -22.45 0.922 -22.45 0.382 67.226
19392.708 0.382 67.197 0.922 -22.479 0.922 -22.479 0.382 67.197
19417.667 0.383 67.169 0.922 -22.508 0.922 -22.508 0.383 67.169
19442.625 0.383 67.14 0.921 -22.538 0.921 -22.538 0.383 67.14
19467.583 0.384 67.111 0.921 -22.567 0.921 -22.567 0.384 67.111
19492.542 0.384 67.083 0.921 -22.596 0.921 -22.596 0.384 67.083
19517.5 0.385 67.054 0.921 -22.625 0.921 -22.625 0.385 67.054
19542.458 0.385 67.025 0.921 -22.654 0.921 -22.654 0.385 67.025
19567.417 0.386 66.997 0.92 -22.683 0.92 -22.683 0.386 66.997
19592.375 0.386 66.968 0.92 -22.712 0.92 -22.712 0.386 66.968
19617.333 0.387 66.94 0.92 -22.741 0.92 -22.741 0.387 66.94
19642.292 0.387 66.911 0.92 -22.77 0.92 -22.77 0.387 66.911
19667.25 0.388 66.883 0.92 -22.799 0.92 -22.799 0.388 66.883
19692.208 0.388 66.854 0.92 -22.828 0.92 -22.828 0.388 66.854
19717.167 0.388 66.825 0.919 -22.857 0.919 -22.857 0.388 66.825
19742.125 0.389 66.797 0.919 -22.886 0.919 -22.886 0.389 66.797
19767.083 0.389 66.768 0.919 -22.915 0.919 -22.915 0.389 66.768
19792.042 0.39 66.74 0.919 -22.944 0.919 -22.944 0.39 66.74
19817 0.39 66.712 0.919 -22.973 0.919 -22.973 0.39 66.712
19841.958 0.391 66.683 0.918 -23.002 0.918 -23.002 0.391 66.683
19866.917 0.391 66.655 0.918 -23.031 0.918 -23.031 0.391 66.655
19891.875 0.392 66.626 0.918 -23.06 0.918 -23.06 0.392 66.626
19916.833 0.392 66.598 0.918 -23.088 0.918 -23.088 0.392 66.598
19941.792 0.393 66.569 0.918 -23.117 0.918 -23.117 0.393 66.569
19966.75 0.393 66.541 0.917 -23.146 0.917 -23.146 0.393 66.541
19991.708 0.394 66.513 0.917 -23.175 0.917 -23.175 0.394 66.513
20016.667 0.394 66.484 0.917 -23.204 0.917 -23.204 0.394 66.484
20041.625 0.394 66.456 0.917 -23.232 0.917 -23.232 0.394 66.456
20066.583 0.395 66.428 0.917 -23.261 0.917 -23.261 0.395 66.428
20091.542 0.395 66.399 0.916 -23.29 0.916 -23.29 0.395 66.399
20116.5 0.396 66.371 0.916 -23.319 0.916 -23.319 0.396 66.371
20141.458 0.396 66.343 0.916 -23.347 0.916 -23.347 0.396 66.343
20166.417 0.397 66.315 0.916 -23.376 0.916 -23.376 0.397 66.315
20191.375 0.397 66.286 0.916 -23.405 0.916 -23.405 0.397 66.286
20216.333 0.398 66.258 0.915 -23.433 0.915 -23.433 0.398 66.258
20241.292 0.398 66.23 0.915 -23.462 0.915 -23.462 0.398 66.23
20266.25 0.399 66.202 0.915 -23.491 0.915 -23.491 0.399 66.202
20291.208 0.399 66.173 0.915 -23.519 0.915 -23.519 0.399 66.173
20316.167 0.4 66.145 0.915 -23.548 0.915 -23.548 0.4 66.145
20341.125 0.4 66.117 0.914 -23.576 0.914 -23.576 0.4 66.117
20366.083 0.4 66.089 0.914 -23.605 0.914 -23.605 0.4 66.089
20391.042 0.401 66.061 0.914 -23.633 0.914 -23.633 0.401 66.061
20416 0.401 66.033 0.914 -23.662 0.914 -23.662 0.401 66.033
20440.958 0.402 66.005 0.914 -23.69 0.914 -23.69 0.402 66.005
20465.917 0.402 65.977 0.913 -23.719 0.913 -23.719 0.402 65.977
20490.875 0.403 65.949 0.913 -23.747 0.913 -23.747 0.403 65.949
20515.833 0.403 65.92 0.913 -23.776 0.913 -23.776 0.403 65.92
20540.792 0.404 65.892 0.913 -23.804 0.913 -23.804 0.404 65.892
20565.75 0.404 65.864 0.913 -23.833 0.913 -23.833 0.404 65.864
20590.708 0.405 65.836 0.912 -23.861 0.912 -23.861 0.405 65.836
20615.667 0.405 65.808 0.912 -23.89 0.912 -23.89 0.405 65.808
20640.625 0.405 65.78 0.912 -23.918 0.912 -23.918 0.405 65.78
20665.583 0.406 65.752 0.912 -23.946 0.912 -23.946 0.406 65.752
20690.542 0.406 65.725 0.912 -23.975 0.912 -23.975 0.406 65.725
20715.5 0.407 65.697 0.911 -24.003 0.911 -24.003 0.407 65.697
20740.458 0.407 65.669 0.911 -24.031 0.911 -24.031 0.407 65.669
20765.417 0.408 65.641 0.911 -24.06 0.911 -24.06 0.408 65.641
20790.375 0.408 65.613 0.911 -24.088 0.911 -24.088 0.408 65.613
20815.333 0.409 65.585 0.911 -24.116 0.911 -24.116 0.409 65.585
20840.292 0.409 65.557 0.91 -24.144 0.91 -24.144 0.409 65.557
20865.25 0.409 65.529 0.91 -24.173 0.91 -24.173 0.409 65.529
20890.208 0.41 65.501 0.91 -24.201 0.91 -24.201 0.41 65.501
20915.167 0.41 65.474 0.91 -24.229 0.91 -24.229 0.41 65.474
20940.125 0.411 65.446 0.91 -24.257 0.91 -24.257 0.411 65.446
20965.083 0.411 65.418 0.909 -24.285 0.909 -24.285 0.411 65.418
20990.042 0.412 65.39 0.909 -24.314 0.909 -24.314 0.412 65.39
21015 0.412 65.362 0.909 -24.342 0.909 -24.342 0.412 65.362
21039.958 0.413 65.335 0.909 -24.37 0.909 -24.37 0.413 65.335
21064.917 0.413 65.307 0.909 -24.398 0.909 -24.398 0.413 65.307
21089.875 0.414 65.279 0.908 -24.426 0.908 -24.426 0.414 65.279
21114.833 0.414 65.252 0.908 -24.454 0.908 -24.454 0.414 65.252
21139.792 0.414 65.224 0.908 -24.482 0.908 -24.482 0.414 65.224
21164.75 0.415 65.196 0.908 -24.51 0.908 -24.51 0.415 65.196
21189.708 0.415 65.169 0.908 -24.538 0.908 -24.538 0.415 65.169
21214.667 0.416 65.141 0.907 -24.566 0.907 -24.566 0.416 65.141
21239.625 0.416 65.113 0.907 -24.594 0.907 -24.594 0.416 65.113
21264.583 0.417 65.086 0.907 -24.622 0.907 -24.622 0.417 65.086
21289.542 0.417 65.058 0.907 -24.65 0.907 -24.65 0.417 65.058
21314.5 0.418 65.03 0.907 -24.678 0.907 -24.678 0.418 65.03
21339.458 0.418 65.003 0.906 -24.706 0.906 -24.706 0.418 65.003
21364.417 0.418 64.975 0.906 -24.734 0.906 -24.734 0.418 64.975
21389.375 0.419 64.948 0.906 -24.762 0.906 -24.762 0.419 64.948
21414.333 0.419 64.92 0.906 -24.79 0.906 -24.79 0.419 64.92
21439.292 0.42 64.893 0.906 -24.818 0.906 -24.818 0.42 64.893
21464.25 0.42 64.865 0.905 -24.846 0.905 -24.846 0.42 64.865
21489.208 0.421 64.838 0.905 -24.874 0.905 -24.874 0.421 64.838
21514.167 0.421 64.81 0.905 -24.902 0.905 -24.902 0.421 64.81
21539.125 0.422 64.783 0.905 -24.929 0.905 -24.929 0.422 64.783
21564.083 0.422 64.755 0.905 -24.957 0.905 -24.957 0.422 64.755
21589.042 0.422 64.728 0.904 -24.985 0.904 -24.985 0.422 64.728
21614 0.423 64.701 0.904 -25.013 0.904 -25.013 0.423 64.701
21638.958 0.423 64.673 0.904 -25.04 0.904 -25.04 0.423 64.673
21663.917 0.424 64.646 0.904 -25.068 0.904 -25.068 0.424 64.646
21688.875 0.424 64.618 0.903 -25.096 0.903 -25.096 0.424 64.618
21713.833 0.425 64.591 0.903 -25.124 0.903 -25.124 0.425 64.591
21738.792 0.425 64.564 0.903 -25.151 0.903 -25.151 0.425 64.564
21763.75 0.425 64.536 0.903 -25.179 0.903 -25.179 0.425 64.536
21788.708 0.426 64.509 0.903 -25.207 0.903 -25.207 0.426 64.509
21813.667 0.426 64.482 0.902 -25.234 0.902 -25.234 0.426 64.482
21838.625 0.427 64.454 0.902 -25.262 0.902 -25.262 0.427 64.454
21863.583 0.427 64.427 0.902 -25.29 0.902 -25.29 0.427 64.427
21888.542 0.428 64.4 0.902 -25.317 0.902 -25.317 0.428 64.4
21913.5 0.428 64.373 0.902 -25.345 0.902 -25.345 0.428 64.373
21938.458 0.429 64.345 0.901 -25.372 0.901 -25.372 0.429 64.345
21963.417 0.429 64.318 0.901 -25.4 0.901 -25.4 0.429 64.318
21988.375 0.429 64.291 0.901 -25.428 0.901 -25.428 0.429 64.291
22013.333 0.43 64.264 0.901 -25.455 0.901 -25.455 0.43 64.264
22038.292 0.43 64.237 0.901 -25.483 0.901 -25.483 0.43 64.237
22063.25 0.431 64.21 0.9 -25.51 0.9 -25.51 0.431 64.21
22088.208 0.431 64.182 0.9 -25.538 0.9 -25.538 0.431 64.182
22113.167 0.432 64.155 0.9 -25.565 0.9 -25.565 0.432 64.155
22138.125 0.432 64.128 0.9 -25.593 0.9 -25.593 0.432 64.128
22163.083 0.432 64.101 0.9 -25.62 0.9 -25.62 0.432 64.101
22188.042 0.433 64.074 0.899 -25.647 0.899 -25.647 0.433 64.074
22213 0.433 64.047 0.899 -25.675 0.899 -25.675 0.433 64.047
22237.958 0.434 64.02 0.899 -25.702 0.899 -25.702 0.434 64.02
22262.917 0.434 63.993 0.899 -25.73 0.899 -25.73 0.434 63.993
22287.875 0.435 63.966 0.899 -25.757 0.899 -25.757 0.435 63.966
22312.833 0.435 63.939 0.898 -25.784 0.898 -25.784 0.435 63.939
22337.792 0.435 63.912 0.898 -25.812 0.898 -25.812 0.435 63.912
22362.75 0.436 63.885 0.898 -25.839 0.898 -25.839 0.436 63.885
22387.708 0.436 63.858 0.898 -25.866 0.898 -25.866 0.436 63.858
22412.667 0.437 63.831 0.898 -25.894 0.898 -25.894 0.437 63.831
22437.625 0.437 63.804 0.897 -25.921 0.897 -25.921 0.437 63.804
22462.583 0.438 63.777 0.897 -25.948 0.897 -25.948 0.438 63.777
22487.542 0.438 63.75 0.897 -25.975 0.897 -25.975 0.438 63.75
22512.5 0.438 63.723 0.897 -26.003 0.897 -26.003 0.438 63.723
22537.458 0.439 63.696 0.896 -26.03 0.896 -26.03 0.439 63.696
22562.417 0.439 63.669 0.896 -26.057 0.896 -26.057 0.439 63.669
22587.375 0.44 63.643 0.896 -26.084 0.896 -26.084 0.44 63.643
22612.333 0.44 63.616 0.896 -26.111 0.896 -26.111 0.44 63.616
22637.292 0.441 63.589 0.896 -26.138 0.896 -26.138 0.441 63.589
22662.25 0.441 63.562 0.895 -26.166 0.895 -26.166 0.441 63.562
22687.208 0.441 63.535 0.895 -26.193 0.895 -26.193 0.441 63.535
22712.167 0.442 63.508 0.895 -26.22 0.895 -26.22 0.442 63.508
22737.125 0.442 63.482 0.895 -26.247 0.895 -26.247 0.442 63.482
22762.083 0.443 63.455 0.895 -26.274 0.895 -26.274 0.443 63.455
22787.042 0.443 63.428 0.894 -26.301 0.894 -26.301 0.443 63.428
22812 0.444 63.401 0.894 -26.328 0.894 -26.328 0.444 63.401
22836.958 0.444 63.375 0.894 -26.355 0.894 -26.355 0.444 63.375
22861.917 0.444 63.348 0.894 -26.382 0.894 -26.382 0.444 63.348
22886.875 0.445 63.321 0.894 -26.409 0.894 -26.409 0.445 63.321
22911.833 0.445 63.295 0.893 -26.436 0.893 -26.436 0.445 63.295
22936.792 0.446 63.268 0.893 -26.463 0.893 -26.463 0.446 63.268
22961.75 0.446 63.241 0.893 -26.49 0.893 -26.49 0.446 63.241
22986.708 0.446 63.215 0.893 -26.517 0.893 -26.517 0.446 63.215
23011.667 0.447 63.188 0.893 -26.544 0.893 -26.544 0.447 63.188
23036.625 0.447 63.162 0.892 -26.571 0.892 -26.571 0.447 63.162
23061.583 0.448 63.135 0.892 -26.598 0.892 -26.598 0.448 63.135
23086.542 0.448 63.108 0.892 -26.625 0.892 -26.625 0.448 63.108
23111.5 0.449 63.082 0.892 -26.652 0.892 -26.652 0.449 63.082
23136.458 0.449 63.055 0.891 -26.678 0.891 -26.678 0.449 63.055
23161.417 0.449 63.029 0.891 -26.705 0.891 -26.705 0.449 63.029
23186.375 0.45 63.002 0.891 -26.732 0.891 -26.732 0.45 63.002
23211.333 0.45 62.976 0.891 -26.759 0.891 -26.759 0.45 62.976
23236.292 0.451 62.949 0.891 -26.786 0.891 -26.786 0.451 62.949
23261.25 0.451 62.923 0.89 -26.812 0.89 -26.812 0.451 62.923
23286.208 0.451 62.896 0.89 -26.839 0.89 -26.839 0.451 62.896
23311.167 0.452 62.87 0.89 -26.866 0.89 -26.866 0.452 62.87
23336.125 0.452 62.843 0.89 -26.893 0.89 -26.893 0.452 62.843
23361.083 0.453 62.817 0.89 -26.919 0.89 -26.919 0.453 62.817
23386.042 0.453 62.791 0.889 -26.946 0.889 -26.946 0.453 62.791
23411 0.454 62.764 0.889 -26.973 0.889 -26.973 0.454 62.764
23435.958 0.454 62.738 0.889 -27 0.889 -27 0.454 62.738
23460.917 0.454 62.712 0.889 -27.026 0.889 -27.026 0.454 62.712
23485.875 0.455 62.685 0.889 -27.053 0.889 -27.053 0.455 62.685
23510.833 0.455 62.659 0.888 -27.079 0.888 -27.079 0.455 62.659
23535.792 0.456 62.633 0.888 -27.106 0.888 -27.106 0.456 62.633
23560.75 0.456 62.606 0.888 -27.133 0.888 -27.133 0.456 62.606
23585.708 0.456 62.58 0.888 -27.159 0.888 -27.159 0.456 62.58
23610.667 0.457 62.554 0.887 -27.186 0.887 -27.186 0.457 62.554
23635.625 0.457 62.527 0.887 -27.212 0.887 -27.212 0.457 62.527
23660.583 0.458 62.501 0.887 -27.239 0.887 -27.239 0.458 62.501
23685.542 0.458 62.475 0.887 -27.266 0.887 -27.266 0.458 62.475
23710.5 0.459 62.449 0.887 -27.292 0.887 -27.292 0.459 62.449
23735.458 0.459 62.422 0.886 -27.319 0.886 -27.319 0.459 62.422
23760.417 0.459 62.396 0.886 -27.345 0.886 -27.345 0.459 62.396
23785.375 0.46 62.37 0.886 -27.371 0.886 -27.371 0.46 62.37
23810.333 0.46 62.344 0.886 -27.398 0.886 -27.398 0.46 62.344
23835.292 0.461 62.318 0.886 -27.424 0.886 -27.424 0.461 62.318
23860.25 0.461 62.292 0.885 -27.451 0.885 -27.451 0.461 62.292
23885.208 0.461 62.266 0.885 -27.477 0.885 -27.477 0.461 62.266
23910.167 0.462 62.239 0.885 -27.504 0.885 -27.504 0.462 62.239
23935.125 0.462 62.213 0.885 -27.53 0.885 -27.53 0.462 62.213
23960.083 0.463 62.187 0.884 -27.556 0.884 -27.556 0.463 62.187
23985.042 0.463 62.161 0.884 -27.583 0.884 -27.583 0.463 62.161
24010 0.463 62.135 0.884 -27.609 0.884 -27.609 0.463 62.135
24034.958 0.464 62.109 0.884 -27.635 0.884 -27.635 0.464 62.109
24059.917 0.464 62.083 0.884 -27.662 0.884 -27.662 0.464 62.083
24084.875 0.465 62.057 0.883 -27.688 0.883 -27.688 0.465 62.057
24109.833 0.465 62.031 0.883 -27.714 0.883 -27.714 0.465 62.031
24134.792 0.465 62.005 0.883 -27.741 0.883 -27.741 0.465 62.005
24159.75 0.466 61.979 0.883 -27.767 0.883 -27.767 0.466 61.979
24184.708 0.466 61.953 0.883 -27.793 0.883 -27.793 0.466 61.953
24209.667 0.467 61.927 0.882 -27.819 0.882 -27.819 0.467 61.927
24234.625 0.467 61.901 0.882 -27.845 0.882 -27.845 0.467 61.901
24259.583 0.467 61.875 0.882 -27.872 0.882 -27.872 0.467 61.875
24284.542 0.468 61.849 0.882 -27.898 0.882 -27.898 0.468 61.849
24309.5 0.468 61.824 0.882 -27.924 0.882 -27.924 0.468 61.824
24334.458 0.469 61.798 0.881 -27.95 0.881 -27.95 0.469 61.798
24359.417 0.469 61.772 0.881 -27.976 0.881 -27.976 0.469 61.772
24384.375 0.47 61.746 0.881 -28.002 0.881 -28.002 0.47 61.746
24409.333 0.47 61.72 0.881 -28.029 0.881 -28.029 0.47 61.72
24434.292 0.47 61.694 0.88 -28.055 0.88 -28.055 0.47 61.694
24459.25 0.471 61.669 0.88 -28.081 0.88 -28.081 0.471 61.669
24484.208 0.471 61.643 0.88 -28.107 0.88 -28.107 0.471 61.643
24509.167 0.472 61.617 0.88 -28.133 0.88 -28.133 0.472 61.617
24534.125 0.472 61.591 0.88 -28.159 0.88 -28.159 0.472 61.591
24559.083 0.472 61.565 0.879 -28.185 0.879 -28.185 0.472 61.565
24584.042 0.473 61.54 0.879 -28.211 0.879 -28.211 0.473 61.54
24609 0.473 61.514 0.879 -28.237 0.879 -28.237 0.473 61.514
24633.958 0.474 61.488 0.879 -28.263 0.879 -28.263 0.474 61.488
24658.917 0.474 61.463 0.879 -28.289 0.879 -28.289 0.474 61.463
24683.875 0.474 61.437 0.878 -28.315 0.878 -28.315 0.474 61.437
24708.833 0.475 61.411 0.878 -28.341 0.878 -28.341 0.475 61.411
24733.792 0.475 61.386 0.878 -28.367 0.878 -28.367 0.475 61.386
24758.75 0.476 61.36 0.878 -28.393 0.878 -28.393 0.476 61.36
24783.708 0.476 61.334 0.877 -28.418 0.877 -28.418 0.476 61.334
24808.667 0.476 61.309 0.877 -28.444 0.877 -28.444 0.476 61.309
24833.625 0.477 61.283 0.877 -28.47 0.877 -28.47 0.477 61.283
24858.583 0.477 61.258 0.877 -28.496 0.877 -28.496 0.477 61.258
24883.542 0.477 61.232 0.877 -28.522 0.877 -28.522 0.477 61.232
24908.5 0.478 61.206 0.876 -28.548 0.876 -28.548 0.478 61.206
24933.458 0.478 61.181 0.876 -28.573 0.876 -28.573 0.478 61.181
24958.417 0.479 61.155 0.876 -28.599 0.876 -28.599 0.479 61.155
24983.375 0.479 61.13 0.876 -28.625 0.876 -28.625 0.479 61.13
25008.333 0.479 61.104 0.876 -28.651 0.876 -28.651 0.479 61.104
25033.292 0.48 61.079 0.875 -28.677 0.875 -28.677 0.48 61.079
25058.25 0.48 61.053 0.875 -28.702 0.875 -28.702 0.48 61.053
25083.208 0.481 61.028 0.875 -28.728 0.875 -28.728 0.481 61.028
25108.167 0.481 61.002 0.875 -28.754 0.875 -28.754 0.481 61.002
25133.125 0.481 60.977 0.874 -28.779 0.874 -28.779 0.481 60.977
25158.083 0.482 60.952 0.874 -28.805 0.874 -28.805 0.482 60.952
25183.042 0.482 60.926 0.874 -28.831 0.874 -28.831 0.482 60.926
25208 0.483 60.901 0.874 -28.856 0.874 -28.856 0.483 60.901
25232.958 0.483 60.875 0.874 -28.882 0.874 -28.882 0.483 60.875
25257.917 0.483 60.85 0.873 -28.908 0.873 -28.908 0.483 60.85
25282.875 0.484 60.825 0.873 -28.933 0.873 -28.933 0.484 60.825
25307.833 0.484 60.799 0.873 -28.959 0.873 -28.959 0.484 60.799
25332.792 0.485 60.774 0.873 -28.984 0.873 -28.984 0.485 60.774
25357.75 0.485 60.749 0.872 -29.01 0.872 -29.01 0.485 60.749
25382.708 0.485 60.723 0.872 -29.035 0.872 -29.035 0.485 60.723
25407.667 0.486 60.698 0.872 -29.061 0.872 -29.061 0.486 60.698
25432.625 0.486 60.673 0.872 -29.087 0.872 -29.087 0.486 60.673
25457.583 0.487 60.648 0.872 -29.112 0.872 -29.112 0.487 60.648
25482.542 0.487 60.622 0.871 -29.138 0.871 -29.138 0.487 60.622
25507.5 0.487 60.597 0.871 -29.163 0.871 -29.163 0.487 60.597
25532.458 0.488 60.572 0.871 -29.188 0.871 -29.188 0.488 60.572
25557.417 0.488 60.547 0.871 -29.214 0.871 -29.214 0.488 60.547
25582.375 0.488 60.522 0.871 -29.239 0.871 -29.239 0.488 60.522
25607.333 0.489 60.496 0.87 -29.265 0.87 -29.265 0.489 60.496
25632.292 0.489 60.471 0.87 -29.29 0.87 -29.29 0.489 60.471
25657.25 0.49 60.446 0.87 -29.316 0.87 -29.316 0.49 60.446
25682.208 0.49 60.421 0.87 -29.341 0.87 -29.341 0.49 60.421
25707.167 0.49 60.396 0.869 -29.366 0.869 -29.366 0.49 60.396
25732.125 0.491 60.371 0.869 -29.392 0.869 -29.392 0.491 60.371
25757.083 0.491 60.346 0.869 -29.417 0.869 -29.417 0.491 60.346
25782.042 0.492 60.321 0.869 -29.442 0.869 -29.442 0.492 60.321
25807 0.492 60.296 0.869 -29.468 0.869 -29.468 0.492 60.296
25831.958 0.492 60.271 0.868 -29.493 0.868 -29.493 0.492 60.271
25856.917 0.493 60.246 0.868 -29.518 0.868 -29.518 0.493 60.246
25881.875 0.493 60.22 0.868 -29.543 0.868 -29.543 0.493 60.22
25906.833 0.493 60.195 0.868 -29.569 0.868 -29.569 0.493 60.195
25931.792 0.494 60.17 0.868 -29.594 0.868 -29.594 0.494 60.17
25956.75 0.494 60.146 0.867 -29.619 0.867 -29.619 0.494 60.146
25981.708 0.495 60.121 0.867 -29.644 0.867 -29.644 0.495 60.121
26006.667 0.495 60.096 0.867 -29.67 0.867 -29.67 0.495 60.096
26031.625 0.495 60.071 0.867 -29.695 0.867 -29.695 0.495 60.071
26056.583 0.496 60.046 0.866 -29.72 0.866 -29.72 0.496 60.046
26081.542 0.496 60.021 0.866 -29.745 0.866 -29.745 0.496 60.021
26106.5 0.497 59.996 0.866 -29.77 0.866 -29.77 0.497 59.996
26131.458 0.497 59.971 0.866 -29.795 0.866 -29.795 0.497 59.971
26156.417 0.497 59.946 0.866 -29.82 0.866 -29.82 0.497 59.946
26181.375 0.498 59.921 0.865 -29.846 0.865 -29.846 0.498 59.921
26206.333 0.498 59.896 0.865 -29.871 0.865 -29.871 0.498 59.896
26231.292 0.498 59.872 0.865 -29.896 0.865 -29.896 0.498 59.872
26256.25 0.499 59.847 0.865 -29.921 0.865 -29.921 0.499 59.847
26281.208 0.499 59.822 0.864 -29.946 0.864 -29.946 0.499 59.822
26306.167 0.5 59.797 0.864 -29.971 0.864 -29.971 0.5 59.797
26331.125 0.5 59.772 0.864 -29.996 0.864 -29.996 0.5 59.772
26356.083 0.5 59.748 0.864 -30.021 0.864 -30.021 0.5 59.748
26381.042 0.501 59.723 0.864 -30.046 0.864 -30.046 0.501 59.723
26406 0.501 59.698 0.863 -30.071 0.863 -30.071 0.501 59.698
26430.958 0.501 59.673 0.863 -30.096 0.863 -30.096 0.501 59.673
26455.917 0.502 59.649 0.863 -30.121 0.863 -30.121 0.502 59.649
26480.875 0.502 59.624 0.863 -30.146 0.863 -30.146 0.502 59.624
26505.833 0.503 59.599 0.863 -30.17 0.863 -30.17 0.503 59.599
26530.792 0.503 59.575 0.862 -30.195 0.862 -30.195 0.503 59.575
26555.75 0.503 59.55 0.862 -30.22 0.862 -30.22 0.503 59.55
26580.708 0.504 59.525 0.862 -30.245 0.862 -30.245 0.504 59.525
26605.667 0.504 59.501 0.862 -30.27 0.862 -30.27 0.504 59.501
26630.625 0.504 59.476 0.861 -30.295 0.861 -30.295 0.504 59.476
26655.583 0.505 59.452 0.861 -30.32 0.861 -30.32 0.505 59.452
26680.542 0.505 59.427 0.861 -30.344 0.861 -30.344 0.505 59.427
26705.5 0.506 59.402 0.861 -30.369 0.861 -30.369 0.506 59.402
26730.458 0.506 59.378 0.861 -30.394 0.861 -30.394 0.506 59.378
26755.417 0.506 59.353 0.86 -30.419 0.86 -30.419 0.506 59.353
26780.375 0.507 59.329 0.86 -30.444 0.86 -30.444 0.507 59.329
26805.333 0.507 59.304 0.86 -30.468 0.86 -30.468 0.507 59.304
26830.292 0.507 59.28 0.86 -30.493 0.86 -30.493 0.507 59.28
26855.25 0.508 59.255 0.859 -30.518 0.859 -30.518 0.508 59.255
26880.208 0.508 59.231 0.859 -30.542 0.859 -30.542 0.508 59.231
26905.167 0.509 59.206 0.859 -30.567 0.859 -30.567 0.509 59.206
26930.125 0.509 59.182 0.859 -30.592 0.859 -30.592 0.509 59.182
26955.083 0.509 59.157 0.859 -30.616 0.859 -30.616 0.509 59.157
26980.042 0.51 59.133 0.858 -30.641 0.858 -30.641 0.51 59.133
27005 0.51 59.109 0.858 -30.666 0.858 -30.666 0.51 59.109
27029.958 0.51 59.084 0.858 -30.69 0.858 -30.69 0.51 59.084
27054.917 0.511 59.06 0.858 -30.715 0.858 -30.715 0.511 59.06
27079.875 0.511 59.035 0.857 -30.74 0.857 -30.74 0.511 59.035
27104.833 0.512 59.011 0.857 -30.764 0.857 -30.764 0.512 59.011
27129.792 0.512 58.987 0.857 -30.789 0.857 -30.789 0.512 58.987
27154.75 0.512 58.962 0.857 -30.813 0.857 -30.813 0.512 58.962
27179.708 0.513 58.938 0.857 -30.838 0.857 -30.838 0.513 58.938
27204.667 0.513 58.914 0.856 -30.862 0.856 -30.862 0.513 58.914
27229.625 0.513 58.889 0.856 -30.887 0.856 -30.887 0.513 58.889
27254.583 0.514 58.865 0.856 -30.911 0.856 -30.911 0.514 58.865
27279.542 0.514 58.841 0.856 -30.936 0.856 -30.936 0.514 58.841
27304.5 0.514 58.817 0.856 -30.96 0.856 -30.96 0.514 58.817
27329.458 0.515 58.792 0.855 -30.985 0.855 -30.985 0.515 58.792
27354.417 0.515 58.768 0.855 -31.009 0.855 -31.009 0.515 58.768
27379.375 0.516 58.744 0.855 -31.034 0.855 -31.034 0.516 58.744
27404.333 0.516 58.72 0.855 -31.058 0.855 -31.058 0.516 58.72
27429.292 0.516 58.696 0.854 -31.082 0.854 -31.082 0.516 58.696
27454.25 0.517 58.671 0.854 -31.107 0.854 -31.107 0.517 58.671
27479.208 0.517 58.647 0.854 -31.131 0.854 -31.131 0.517 58.647
27504.167 0.517 58.623 0.854 -31.156 0.854 -31.156 0.517 58.623
27529.125 0.518 58.599 0.854 -31.18 0.854 -31.18 0.518 58.599
27554.083 0.518 58.575 0.853 -31.204 0.853 -31.204 0.518 58.575
27579.042 0.518 58.551 0.853 -31.229 0.853 -31.229 0.518 58.551
27604 0.519 58.527 0.853 -31.253 0.853 -31.253 0.519 58.527
27628.958 0.519 58.503 0.853 -31.277 0.853 -31.277 0.519 58.503
27653.917 0.52 58.479 0.852 -31.301 0.852 -31.301 0.52 58.479
27678.875 0.52 58.454 0.852 -31.326 0.852 -31.326 0.52 58.454
27703.833 0.52 58.43 0.852 -31.35 0.852 -31.35 0.52 58.43
27728.792 0.521 58.406 0.852 -31.374 0.852 -31.374 0.521 58.406
27753.75 0.521 58.382 0.852 -31.398 0.852 -31.398 0.521 58.382
27778.708 0.521 58.358 0.851 -31.423 0.851 -31.423 0.521 58.358
27803.667 0.522 58.334 0.851 -31.447 0.851 -31.447 0.522 58.334
27828.625 0.522 58.31 0.851 -31.471 0.851 -31.471 0.522 58.31
27853.583 0.522 58.286 0.851 -31.495 0.851 -31.495 0.522 58.286
27878.542 0.523 58.263 0.85 -31.519 0.85 -31.519 0.523 58.263
27903.5 0.523 58.239 0.85 -31.543 0.85 -31.543 0.523 58.239
27928.458 0.524 58.215 0.85 -31.568 0.85 -31.568 0.524 58.215
27953.417 0.524 58.191 0.85 -31.592 0.85 -31.592 0.524 58.191
27978.375 0.524 58.167 0.85 -31.616 0.85 -31.616 0.524 58.167
28003.333 0.525 58.143 0.849 -31.64 0.849 -31.64 0.525 58.143
28028.292 0.525 58.119 0.849 -31.664 0.849 -31.664 0.525 58.119
28053.25 0.525 58.095 0.849 -31.688 0.849 -31.688 0.525 58.095
28078.208 0.526 58.071 0.849 -31.712 0.849 -31.712 0.526 58.071
28103.167 0.526 58.048 0.848 -31.736 0.848 -31.736 0.526 58.048
28128.125 0.526 58.024 0.848 -31.76 0.848 -31.76 0.526 58.024
28153.083 0.527 58 0.848 -31.784 0.848 -31.784 0.527 58
28178.042 0.527 57.976 0.848 -31.808 0.848 -31.808 0.527 57.976
28203 0.527 57.952 0.848 -31.832 0.848 -31.832 0.527 57.952
28227.958 0.528 57.929 0.847 -31.856 0.847 -31.856 0.528 57.929
28252.917 0.528 57.905 0.847 -31.88 0.847 -31.88 0.528 57.905
28277.875 0.528 57.881 0.847 -31.904 0.847 -31.904 0.528 57.881
28302.833 0.529 57.857 0.847 -31.928 0.847 -31.928 0.529 57.857
28327.792 0.529 57.834 0.847 -31.952 0.847 -31.952 0.529 57.834
28352.75 0.53 57.81 0.846 -31.976 0.846 -31.976 0.53 57.81
28377.708 0.53 57.786 0.846 -31.999 0.846 -31.999 0.53 57.786
28402.667 0.53 57.763 0.846 -32.023 0.846 -32.023 0.53 57.763
28427.625 0.531 57.739 0.846 -32.047 0.846 -32.047 0.531 57.739
28452.583 0.531 57.715 0.845 -32.071 0.845 -32.071 0.531 57.715
28477.542 0.531 57.692 0.845 -32.095 0.845 -32.095 0.531 57.692
28502.5 0.532 57.668 0.845 -32.119 0.845 -32.119 0.532 57.668
28527.458 0.532 57.645 0.845 -32.143 0.845 -32.143 0.532 57.645
28552.417 0.532 57.621 0.845 -32.166 0.845 -32.166 0.532 57.621
28577.375 0.533 57.597 0.844 -32.19 0.844 -32.19 0.533 57.597
28602.333 0.533 57.574 0.844 -32.214 0.844 -32.214 0.533 57.574
28627.292 0.533 57.55 0.844 -32.238 0.844 -32.238 0.533 57.55
28652.25 0.534 57.527 0.844 -32.261 0.844 -32.261 0.534 57.527
28677.208 0.534 57.503 0.843 -32.285 0.843 -32.285 0.534 57.503
28702.167 0.534 57.48 0.843 -32.309 0.843 -32.309 0.534 57.48
28727.125 0.535 57.456 0.843 -32.332 0.843 -32.332 0.535 57.456
28752.083 0.535 57.433 0.843 -32.356 0.843 -32.356 0.535 57.433
28777.042 0.536 57.409 0.843 -32.38 0.843 -32.38 0.536 57.409
28802 0.536 57.386 0.842 -32.403 0.842 -32.403 0.536 57.386
28826.958 0.536 57.362 0.842 -32.427 0.842 -32.427 0.536 57.362
28851.917 0.537 57.339 0.842 -32.451 0.842 -32.451 0.537 57.339
28876.875 0.537 57.315 0.842 -32.474 0.842 -32.474 0.537 57.315
28901.833 0.537 57.292 0.841 -32.498 0.841 -32.498 0.537 57.292
28926.792 0.538 57.269 0.841 -32.521 0.841 -32.521 0.538 57.269
28951.75 0.538 57.245 0.841 -32.545 0.841 -32.545 0.538 57.245
28976.708 0.538 57.222 0.841 -32.569 0.841 -32.569 0.538 57.222
29001.667 0.539 57.199 0.841 -32.592 0.841 -32.592 0.539 57.199
29026.625 0.539 57.175 0.84 -32.616 0.84 -32.616 0.539 57.175
29051.583 0.539 57.152 0.84 -32.639 0.84 -32.639 0.539 57.152
29076.542 0.54 57.129 0.84 -32.663 0.84 -32.663 0.54 57.129
29101.5 0.54 57.105 0.84 -32.686 0.84 -32.686 0.54 57.105
29126.458 0.54 57.082 0.839 -32.71 0.839 -32.71 0.54 57.082
29151.417 0.541 57.059 0.839 -32.733 0.839 -32.733 0.541 57.059
29176.375 0.541 57.035 0.839 -32.757 0.839 -32.757 0.541 57.035
29201.333 0.541 57.012 0.839 -32.78 0.839 -32.78 0.541 57.012
29226.292 0.542 56.989 0.839 -32.803 0.839 -32.803 0.542 56.989
29251.25 0.542 56.966 0.838 -32.827 0.838 -32.827 0.542 56.966
29276.208 0.542 56.943 0.838 -32.85 0.838 -32.85 0.542 56.943
29301.167 0.543 56.919 0.838 -32.874 0.838 -32.874 0.543 56.919
29326.125 0.543 56.896 0.838 -32.897 0.838 -32.897 0.543 56.896
29351.083 0.543 56.873 0.837 -32.92 0.837 -32.92 0.543 56.873
29376.042 0.544 56.85 0.837 -32.944 0.837 -32.944 0.544 56.85
29401 0.544 56.827 0.837 -32.967 0.837 -32.967 0.544 56.827
29425.958 0.545 56.804 0.837 -32.99 0.837 -32.99 0.545 56.804
29450.917 0.545 56.78 0.837 -33.014 0.837 -33.014 0.545 56.78
29475.875 0.545 56.757 0.836 -33.037 0.836 -33.037 0.545 56.757
29500.833 0.546 56.734 0.836 -33.06 0.836 -33.06 0.546 56.734
29525.792 0.546 56.711 0.836 -33.084 0.836 -33.084 0.546 56.711
29550.75 0.546 56.688 0.836 -33.107 0.836 -33.107 0.546 56.688
29575.708 0.547 56.665 0.835 -33.13 0.835 -33.13 0.547 56.665
29600.667 0.547 56.642 0.835 -33.153 0.835 -33.153 0.547 56.642
29625.625 0.547 56.619 0.835 -33.176 0.835 -33.176 0.547 56.619
29650.583 0.548 56.596 0.835 -33.2 0.835 -33.2 0.548 56.596
29675.542 0.548 56.573 0.835 -33.223 0.835 -33.223 0.548 56.573
29700.5 0.548 56.55 0.834 -33.246 0.834 -33.246 0.548 56.55
29725.458 0.549 56.527 0.834 -33.269 0.834 -33.269 0.549 56.527
29750.417 0.549 56.504 0.834 -33.292 0.834 -33.292 0.549 56.504
29775.375 0.549 56.481 0.834 -33.315 0.834 -33.315 0.549 56.481
29800.333 0.55 56.458 0.833 -33.339 0.833 -33.339 0.55 56.458
29825.292 0.55 56.435 0.833 -33.362 0.833 -33.362 0.55 56.435
29850.25 0.55 56.412 0.833 -33.385 0.833 -33.385 0.55 56.412
29875.208 0.551 56.389 0.833 -33.408 0.833 -33.408 0.551 56.389
29900.167 0.551 56.366 0.833 -33.431 0.833 -33.431 0.551 56.366
29925.125 0.551 56.344 0.832 -33.454 0.832 -33.454 0.551 56.344
29950.083 0.552 56.321 0.832 -33.477 0.832 -33.477 0.552 56.321
29975.042 0.552 56.298 0.832 -33.5 0.832 -33.5 0.552 56.298
30000 0.552 56.275 0.832 -33.523 0.832 -33.523 0.552 56.275
