!	AVX Thin Film Operation 	Date: April 2014		
!	Description: Accu-P® Series, Thin Film  SMD RF Capacitor
!	Part Number: 02013J1R8PBSTR					
!								
# MHZ S MA R 50

50 0.998 -3.237 0.056 86.753 0.056 86.753 0.998 -3.237
74.958 0.996 -4.846 0.084 85.138 0.084 85.138 0.996 -4.846
99.917 0.994 -6.449 0.112 83.531 0.112 83.531 0.994 -6.449
124.875 0.99 -8.041 0.14 81.933 0.14 81.933 0.99 -8.041
149.833 0.986 -9.622 0.167 80.346 0.167 80.346 0.986 -9.622
174.792 0.981 -11.189 0.194 78.774 0.194 78.774 0.981 -11.189
199.75 0.975 -12.741 0.221 77.218 0.221 77.218 0.975 -12.741
224.708 0.969 -14.274 0.247 75.679 0.247 75.679 0.969 -14.274
249.667 0.962 -15.788 0.272 74.16 0.272 74.16 0.962 -15.788
274.625 0.955 -17.281 0.297 72.662 0.297 72.662 0.955 -17.281
299.583 0.947 -18.751 0.321 71.187 0.321 71.187 0.947 -18.751
324.542 0.938 -20.197 0.345 69.735 0.345 69.735 0.938 -20.197
349.5 0.929 -21.619 0.368 68.308 0.368 68.308 0.929 -21.619
374.458 0.92 -23.014 0.391 66.907 0.391 66.907 0.92 -23.014
399.417 0.91 -24.383 0.413 65.533 0.413 65.533 0.91 -24.383
424.375 0.9 -25.725 0.434 64.186 0.434 64.186 0.9 -25.725
449.333 0.89 -27.039 0.455 62.867 0.455 62.867 0.89 -27.039
474.292 0.879 -28.324 0.474 61.577 0.474 61.577 0.879 -28.324
499.25 0.869 -29.581 0.494 60.314 0.494 60.314 0.869 -29.581
524.208 0.858 -30.81 0.512 59.08 0.512 59.08 0.858 -30.81
549.167 0.847 -32.009 0.53 57.875 0.53 57.875 0.847 -32.009
574.125 0.836 -33.181 0.547 56.699 0.547 56.699 0.836 -33.181
599.083 0.825 -34.323 0.564 55.551 0.564 55.551 0.825 -34.323
624.042 0.813 -35.438 0.58 54.431 0.58 54.431 0.813 -35.438
649 0.802 -36.525 0.595 53.339 0.595 53.339 0.802 -36.525
673.958 0.791 -37.584 0.61 52.274 0.61 52.274 0.791 -37.584
698.917 0.78 -38.616 0.624 51.237 0.624 51.237 0.78 -38.616
723.875 0.769 -39.621 0.638 50.226 0.638 50.226 0.769 -39.621
748.833 0.757 -40.6 0.651 49.242 0.651 49.242 0.757 -40.6
773.792 0.746 -41.554 0.663 48.283 0.663 48.283 0.746 -41.554
798.75 0.735 -42.482 0.675 47.349 0.675 47.349 0.735 -42.482
823.708 0.725 -43.386 0.687 46.439 0.687 46.439 0.725 -43.386
848.667 0.714 -44.266 0.698 45.554 0.698 45.554 0.714 -44.266
873.625 0.703 -45.123 0.709 44.692 0.709 44.692 0.703 -45.123
898.583 0.693 -45.957 0.719 43.852 0.719 43.852 0.693 -45.957
923.542 0.682 -46.769 0.729 43.035 0.729 43.035 0.682 -46.769
948.5 0.672 -47.559 0.738 42.239 0.738 42.239 0.672 -47.559
973.458 0.662 -48.329 0.747 41.464 0.747 41.464 0.662 -48.329
998.417 0.652 -49.078 0.756 40.709 0.756 40.709 0.652 -49.078
1023.375 0.642 -49.808 0.764 39.974 0.764 39.974 0.642 -49.808
1048.333 0.633 -50.518 0.772 39.258 0.772 39.258 0.633 -50.518
1073.292 0.623 -51.21 0.779 38.56 0.779 38.56 0.623 -51.21
1098.25 0.614 -51.884 0.787 37.88 0.787 37.88 0.614 -51.884
1123.208 0.605 -52.541 0.794 37.218 0.794 37.218 0.605 -52.541
1148.167 0.596 -53.18 0.801 36.572 0.801 36.572 0.596 -53.18
1173.125 0.587 -53.804 0.807 35.943 0.807 35.943 0.587 -53.804
1198.083 0.578 -54.412 0.813 35.33 0.813 35.33 0.578 -54.412
1223.042 0.57 -55.004 0.819 34.732 0.819 34.732 0.57 -55.004
1248 0.561 -55.582 0.825 34.148 0.825 34.148 0.561 -55.582
1272.958 0.553 -56.145 0.83 33.579 0.83 33.579 0.553 -56.145
1297.917 0.545 -56.694 0.836 33.024 0.836 33.024 0.545 -56.694
1322.875 0.537 -57.23 0.841 32.482 0.841 32.482 0.537 -57.23
1347.833 0.529 -57.753 0.846 31.953 0.846 31.953 0.529 -57.753
1372.792 0.522 -58.263 0.85 31.437 0.85 31.437 0.522 -58.263
1397.75 0.514 -58.761 0.855 30.933 0.855 30.933 0.514 -58.761
1422.708 0.507 -59.248 0.859 30.44 0.859 30.44 0.507 -59.248
1447.667 0.499 -59.723 0.864 29.959 0.864 29.959 0.499 -59.723
1472.625 0.492 -60.187 0.868 29.489 0.868 29.489 0.492 -60.187
1497.583 0.485 -60.64 0.872 29.03 0.872 29.03 0.485 -60.64
1522.542 0.478 -61.083 0.875 28.581 0.875 28.581 0.478 -61.083
1547.5 0.472 -61.515 0.879 28.142 0.879 28.142 0.472 -61.515
1572.458 0.465 -61.938 0.882 27.713 0.882 27.713 0.465 -61.938
1597.417 0.459 -62.352 0.886 27.293 0.886 27.293 0.459 -62.352
1622.375 0.452 -62.757 0.889 26.882 0.889 26.882 0.452 -62.757
1647.333 0.446 -63.152 0.892 26.48 0.892 26.48 0.446 -63.152
1672.292 0.44 -63.539 0.895 26.086 0.895 26.086 0.44 -63.539
1697.25 0.434 -63.918 0.898 25.701 0.898 25.701 0.434 -63.918
1722.208 0.428 -64.289 0.901 25.324 0.901 25.324 0.428 -64.289
1747.167 0.422 -64.652 0.904 24.954 0.904 24.954 0.422 -64.652
1772.125 0.416 -65.007 0.906 24.592 0.906 24.592 0.416 -65.007
1797.083 0.411 -65.355 0.909 24.237 0.909 24.237 0.411 -65.355
1822.042 0.405 -65.696 0.911 23.89 0.911 23.89 0.405 -65.696
1847 0.4 -66.03 0.914 23.549 0.914 23.549 0.4 -66.03
1871.958 0.394 -66.358 0.916 23.215 0.916 23.215 0.394 -66.358
1896.917 0.389 -66.678 0.918 22.887 0.918 22.887 0.389 -66.678
1921.875 0.384 -66.993 0.92 22.566 0.92 22.566 0.384 -66.993
1946.833 0.379 -67.301 0.923 22.251 0.923 22.251 0.379 -67.301
1971.792 0.374 -67.603 0.925 21.941 0.925 21.941 0.374 -67.603
1996.75 0.369 -67.9 0.927 21.638 0.927 21.638 0.369 -67.9
2021.708 0.364 -68.191 0.928 21.34 0.928 21.34 0.364 -68.191
2046.667 0.359 -68.476 0.93 21.047 0.93 21.047 0.359 -68.476
2071.625 0.354 -68.757 0.932 20.76 0.932 20.76 0.354 -68.757
2096.583 0.35 -69.032 0.934 20.477 0.934 20.477 0.35 -69.032
2121.542 0.345 -69.301 0.935 20.2 0.935 20.2 0.345 -69.301
2146.5 0.341 -69.567 0.937 19.928 0.937 19.928 0.341 -69.567
2171.458 0.336 -69.827 0.939 19.66 0.939 19.66 0.336 -69.827
2196.417 0.332 -70.082 0.94 19.397 0.94 19.397 0.332 -70.082
2221.375 0.328 -70.334 0.942 19.138 0.942 19.138 0.328 -70.334
2246.333 0.324 -70.58 0.943 18.884 0.943 18.884 0.324 -70.58
2271.292 0.32 -70.823 0.945 18.634 0.945 18.634 0.32 -70.823
2296.25 0.315 -71.061 0.946 18.387 0.946 18.387 0.315 -71.061
2321.208 0.311 -71.295 0.947 18.145 0.947 18.145 0.311 -71.295
2346.167 0.307 -71.525 0.949 17.907 0.949 17.907 0.307 -71.525
2371.125 0.304 -71.752 0.95 17.673 0.95 17.673 0.304 -71.752
2396.083 0.3 -71.975 0.951 17.442 0.951 17.442 0.3 -71.975
2421.042 0.296 -72.194 0.952 17.215 0.952 17.215 0.296 -72.194
2446 0.292 -72.409 0.953 16.991 0.953 16.991 0.292 -72.409
2470.958 0.289 -72.621 0.954 16.771 0.954 16.771 0.289 -72.621
2495.917 0.285 -72.829 0.955 16.554 0.955 16.554 0.285 -72.829
2520.875 0.281 -73.034 0.957 16.34 0.957 16.34 0.281 -73.034
2545.833 0.278 -73.236 0.958 16.13 0.958 16.13 0.278 -73.236
2570.792 0.274 -73.435 0.959 15.922 0.959 15.922 0.274 -73.435
2595.75 0.271 -73.631 0.96 15.718 0.96 15.718 0.271 -73.631
2620.708 0.268 -73.824 0.96 15.516 0.96 15.516 0.268 -73.824
2645.667 0.264 -74.013 0.961 15.317 0.961 15.317 0.264 -74.013
2670.625 0.261 -74.2 0.962 15.122 0.962 15.122 0.261 -74.2
2695.583 0.258 -74.384 0.963 14.928 0.963 14.928 0.258 -74.384
2720.542 0.254 -74.565 0.964 14.738 0.964 14.738 0.254 -74.565
2745.5 0.251 -74.744 0.965 14.55 0.965 14.55 0.251 -74.744
2770.458 0.248 -74.92 0.966 14.364 0.966 14.364 0.248 -74.92
2795.417 0.245 -75.093 0.966 14.182 0.966 14.182 0.245 -75.093
2820.375 0.242 -75.264 0.967 14.001 0.967 14.001 0.242 -75.264
2845.333 0.239 -75.432 0.968 13.823 0.968 13.823 0.239 -75.432
2870.292 0.236 -75.598 0.969 13.647 0.969 13.647 0.236 -75.598
2895.25 0.233 -75.761 0.969 13.473 0.969 13.473 0.233 -75.761
2920.208 0.23 -75.922 0.97 13.302 0.97 13.302 0.23 -75.922
2945.167 0.227 -76.081 0.971 13.133 0.971 13.133 0.227 -76.081
2970.125 0.224 -76.238 0.971 12.966 0.971 12.966 0.224 -76.238
2995.083 0.222 -76.392 0.972 12.801 0.972 12.801 0.222 -76.392
3020.042 0.219 -76.545 0.973 12.638 0.973 12.638 0.219 -76.545
3045 0.216 -76.695 0.973 12.477 0.973 12.477 0.216 -76.695
3069.958 0.213 -76.843 0.974 12.317 0.974 12.317 0.213 -76.843
3094.917 0.211 -76.989 0.974 12.16 0.974 12.16 0.211 -76.989
3119.875 0.208 -77.133 0.975 12.005 0.975 12.005 0.208 -77.133
3144.833 0.205 -77.275 0.976 11.851 0.976 11.851 0.205 -77.275
3169.792 0.203 -77.415 0.976 11.699 0.976 11.699 0.203 -77.415
3194.75 0.2 -77.554 0.977 11.549 0.977 11.549 0.2 -77.554
3219.708 0.198 -77.69 0.977 11.401 0.977 11.401 0.198 -77.69
3244.667 0.195 -77.825 0.978 11.254 0.978 11.254 0.195 -77.825
3269.625 0.193 -77.958 0.978 11.109 0.978 11.109 0.193 -77.958
3294.583 0.19 -78.089 0.979 10.965 0.979 10.965 0.19 -78.089
3319.542 0.188 -78.218 0.979 10.823 0.979 10.823 0.188 -78.218
3344.5 0.185 -78.345 0.98 10.683 0.98 10.683 0.185 -78.345
3369.458 0.183 -78.471 0.98 10.544 0.98 10.544 0.183 -78.471
3394.417 0.181 -78.596 0.98 10.406 0.98 10.406 0.181 -78.596
3419.375 0.178 -78.718 0.981 10.27 0.981 10.27 0.178 -78.718
3444.333 0.176 -78.839 0.981 10.135 0.981 10.135 0.176 -78.839
3469.292 0.174 -78.958 0.982 10.002 0.982 10.002 0.174 -78.958
3494.25 0.171 -79.076 0.982 9.87 0.982 9.87 0.171 -79.076
3519.208 0.169 -79.192 0.982 9.74 0.982 9.74 0.169 -79.192
3544.167 0.167 -79.307 0.983 9.61 0.983 9.61 0.167 -79.307
3569.125 0.165 -79.42 0.983 9.482 0.983 9.482 0.165 -79.42
3594.083 0.163 -79.532 0.984 9.355 0.984 9.355 0.163 -79.532
3619.042 0.16 -79.642 0.984 9.23 0.984 9.23 0.16 -79.642
3644 0.158 -79.751 0.984 9.106 0.984 9.106 0.158 -79.751
3668.958 0.156 -79.858 0.985 8.982 0.985 8.982 0.156 -79.858
3693.917 0.154 -79.964 0.985 8.86 0.985 8.86 0.154 -79.964
3718.875 0.152 -80.068 0.985 8.74 0.985 8.74 0.152 -80.068
3743.833 0.15 -80.171 0.986 8.62 0.986 8.62 0.15 -80.171
3768.792 0.148 -80.272 0.986 8.501 0.986 8.501 0.148 -80.272
3793.75 0.146 -80.373 0.986 8.384 0.986 8.384 0.146 -80.373
3818.708 0.144 -80.471 0.986 8.267 0.986 8.267 0.144 -80.471
3843.667 0.142 -80.569 0.987 8.152 0.987 8.152 0.142 -80.569
3868.625 0.14 -80.665 0.987 8.037 0.987 8.037 0.14 -80.665
3893.583 0.138 -80.759 0.987 7.924 0.987 7.924 0.138 -80.759
3918.542 0.136 -80.853 0.988 7.811 0.988 7.811 0.136 -80.853
3943.5 0.134 -80.944 0.988 7.7 0.988 7.7 0.134 -80.944
3968.458 0.132 -81.035 0.988 7.589 0.988 7.589 0.132 -81.035
3993.417 0.13 -81.124 0.988 7.479 0.988 7.479 0.13 -81.124
4018.375 0.128 -81.212 0.989 7.371 0.989 7.371 0.128 -81.212
4043.333 0.126 -81.299 0.989 7.263 0.989 7.263 0.126 -81.299
4068.292 0.125 -81.384 0.989 7.156 0.989 7.156 0.125 -81.384
4093.25 0.123 -81.468 0.989 7.05 0.989 7.05 0.123 -81.468
4118.208 0.121 -81.55 0.989 6.945 0.989 6.945 0.121 -81.55
4143.167 0.119 -81.632 0.99 6.84 0.99 6.84 0.119 -81.632
4168.125 0.117 -81.711 0.99 6.737 0.99 6.737 0.117 -81.711
4193.083 0.116 -81.79 0.99 6.634 0.99 6.634 0.116 -81.79
4218.042 0.114 -81.867 0.99 6.532 0.99 6.532 0.114 -81.867
4243 0.112 -81.943 0.991 6.431 0.991 6.431 0.112 -81.943
4267.958 0.11 -82.017 0.991 6.331 0.991 6.331 0.11 -82.017
4292.917 0.109 -82.09 0.991 6.231 0.991 6.231 0.109 -82.09
4317.875 0.107 -82.162 0.991 6.132 0.991 6.132 0.107 -82.162
4342.833 0.105 -82.232 0.991 6.034 0.991 6.034 0.105 -82.232
4367.792 0.103 -82.301 0.991 5.937 0.991 5.937 0.103 -82.301
4392.75 0.102 -82.368 0.992 5.84 0.992 5.84 0.102 -82.368
4417.708 0.1 -82.434 0.992 5.744 0.992 5.744 0.1 -82.434
4442.667 0.098 -82.498 0.992 5.649 0.992 5.649 0.098 -82.498
4467.625 0.097 -82.561 0.992 5.554 0.992 5.554 0.097 -82.561
4492.583 0.095 -82.622 0.992 5.46 0.992 5.46 0.095 -82.622
4517.542 0.094 -82.682 0.992 5.367 0.992 5.367 0.094 -82.682
4542.5 0.092 -82.74 0.993 5.274 0.993 5.274 0.092 -82.74
4567.458 0.09 -82.797 0.993 5.182 0.993 5.182 0.09 -82.797
4592.417 0.089 -82.852 0.993 5.091 0.993 5.091 0.089 -82.852
4617.375 0.087 -82.905 0.993 5 0.993 5 0.087 -82.905
4642.333 0.086 -82.957 0.993 4.91 0.993 4.91 0.086 -82.957
4667.292 0.084 -83.006 0.993 4.82 0.993 4.82 0.084 -83.006
4692.25 0.083 -83.054 0.993 4.732 0.993 4.732 0.083 -83.054
4717.208 0.081 -83.1 0.994 4.643 0.994 4.643 0.081 -83.1
4742.167 0.079 -83.145 0.994 4.555 0.994 4.555 0.079 -83.145
4767.125 0.078 -83.187 0.994 4.468 0.994 4.468 0.078 -83.187
4792.083 0.076 -83.227 0.994 4.381 0.994 4.381 0.076 -83.227
4817.042 0.075 -83.265 0.994 4.295 0.994 4.295 0.075 -83.265
4842 0.073 -83.301 0.994 4.21 0.994 4.21 0.073 -83.301
4866.958 0.072 -83.334 0.994 4.125 0.994 4.125 0.072 -83.334
4891.917 0.071 -83.366 0.994 4.04 0.994 4.04 0.071 -83.366
4916.875 0.069 -83.395 0.994 3.956 0.994 3.956 0.069 -83.395
4941.833 0.068 -83.421 0.995 3.873 0.995 3.873 0.068 -83.421
4966.792 0.066 -83.445 0.995 3.79 0.995 3.79 0.066 -83.445
4991.75 0.065 -83.465 0.995 3.707 0.995 3.707 0.065 -83.465
5016.708 0.063 -83.483 0.995 3.625 0.995 3.625 0.063 -83.483
5041.667 0.062 -83.498 0.995 3.544 0.995 3.544 0.062 -83.498
5066.625 0.06 -83.51 0.995 3.463 0.995 3.463 0.06 -83.51
5091.583 0.059 -83.518 0.995 3.382 0.995 3.382 0.059 -83.518
5116.542 0.058 -83.523 0.995 3.302 0.995 3.302 0.058 -83.523
5141.5 0.056 -83.525 0.995 3.222 0.995 3.222 0.056 -83.525
5166.458 0.055 -83.522 0.995 3.143 0.995 3.143 0.055 -83.522
5191.417 0.054 -83.515 0.995 3.064 0.995 3.064 0.054 -83.515
5216.375 0.052 -83.503 0.995 2.986 0.995 2.986 0.052 -83.503
5241.333 0.051 -83.487 0.996 2.908 0.996 2.908 0.051 -83.487
5266.292 0.049 -83.466 0.996 2.83 0.996 2.83 0.049 -83.466
5291.25 0.048 -83.44 0.996 2.753 0.996 2.753 0.048 -83.44
5316.208 0.047 -83.408 0.996 2.677 0.996 2.677 0.047 -83.408
5341.167 0.045 -83.369 0.996 2.601 0.996 2.601 0.045 -83.369
5366.125 0.044 -83.324 0.996 2.525 0.996 2.525 0.044 -83.324
5391.083 0.043 -83.272 0.996 2.449 0.996 2.449 0.043 -83.272
5416.042 0.042 -83.212 0.996 2.374 0.996 2.374 0.042 -83.212
5441 0.04 -83.144 0.996 2.299 0.996 2.299 0.04 -83.144
5465.958 0.039 -83.067 0.996 2.225 0.996 2.225 0.039 -83.067
5490.917 0.038 -82.98 0.996 2.151 0.996 2.151 0.038 -82.98
5515.875 0.036 -82.882 0.996 2.078 0.996 2.078 0.036 -82.882
5540.833 0.035 -82.772 0.996 2.005 0.996 2.005 0.035 -82.772
5565.792 0.034 -82.649 0.996 1.932 0.996 1.932 0.034 -82.649
5590.75 0.033 -82.511 0.996 1.859 0.996 1.859 0.033 -82.511
5615.708 0.031 -82.357 0.996 1.787 0.996 1.787 0.031 -82.357
5640.667 0.03 -82.186 0.996 1.716 0.996 1.716 0.03 -82.186
5665.625 0.029 -81.995 0.996 1.644 0.996 1.644 0.029 -81.995
5690.583 0.028 -81.781 0.996 1.573 0.996 1.573 0.028 -81.781
5715.542 0.026 -81.541 0.996 1.502 0.996 1.502 0.026 -81.541
5740.5 0.025 -81.273 0.996 1.432 0.996 1.432 0.025 -81.273
5765.458 0.024 -80.972 0.997 1.362 0.997 1.362 0.024 -80.972
5790.417 0.023 -80.633 0.997 1.292 0.997 1.292 0.023 -80.633
5815.375 0.022 -80.251 0.997 1.223 0.997 1.223 0.022 -80.251
5840.333 0.02 -79.817 0.997 1.154 0.997 1.154 0.02 -79.817
5865.292 0.019 -79.324 0.997 1.085 0.997 1.085 0.019 -79.324
5890.25 0.018 -78.759 0.997 1.016 0.997 1.016 0.018 -78.759
5915.208 0.017 -78.109 0.997 0.948 0.997 0.948 0.017 -78.109
5940.167 0.016 -77.356 0.997 0.88 0.997 0.88 0.016 -77.356
5965.125 0.015 -76.476 0.997 0.813 0.997 0.813 0.015 -76.476
5990.083 0.013 -75.438 0.997 0.746 0.997 0.746 0.013 -75.438
6015.042 0.012 -74.201 0.997 0.679 0.997 0.679 0.012 -74.201
6040 0.011 -72.706 0.997 0.612 0.997 0.612 0.011 -72.706
6064.958 0.01 -70.874 0.997 0.545 0.997 0.545 0.01 -70.874
6089.917 8.956e-3 -68.586 0.997 0.479 0.997 0.479 8.956e-3 -68.586
6114.875 7.893e-3 -65.669 0.997 0.413 0.997 0.413 7.893e-3 -65.669
6139.833 6.862e-3 -61.857 0.997 0.348 0.997 0.348 6.862e-3 -61.857
6164.792 5.878e-3 -56.733 0.997 0.282 0.997 0.282 5.878e-3 -56.733
6189.75 4.964e-3 -49.646 0.997 0.217 0.997 0.217 4.964e-3 -49.646
6214.708 4.164e-3 -39.63 0.997 0.153 0.997 0.153 4.164e-3 -39.63
6239.667 3.551e-3 -25.587 0.997 0.088 0.997 0.088 3.551e-3 -25.587
6264.625 3.227e-3 -7.397 0.997 0.024 0.997 0.024 3.227e-3 -7.397
6289.583 3.276e-3 12.305 0.997 -0.04 0.997 -0.04 3.276e-3 12.305
6314.542 3.678e-3 29.431 0.997 -0.104 0.997 -0.104 3.678e-3 29.431
6339.5 4.333e-3 42.227 0.997 -0.167 0.997 -0.167 4.333e-3 42.227
6364.458 5.142e-3 51.287 0.997 -0.231 0.997 -0.231 5.142e-3 51.287
6389.417 6.042e-3 57.727 0.997 -0.294 0.997 -0.294 6.042e-3 57.727
6414.375 6.995e-3 62.422 0.997 -0.356 0.997 -0.356 6.995e-3 62.422
6439.333 7.982e-3 65.946 0.997 -0.419 0.997 -0.419 7.982e-3 65.946
6464.292 8.988e-3 68.663 0.997 -0.481 0.997 -0.481 8.988e-3 68.663
6489.25 0.01 70.809 0.997 -0.543 0.997 -0.543 0.01 70.809
6514.208 0.011 72.539 0.997 -0.605 0.997 -0.605 0.011 72.539
6539.167 0.012 73.958 0.997 -0.667 0.997 -0.667 0.012 73.958
6564.125 0.013 75.139 0.997 -0.728 0.997 -0.728 0.013 75.139
6589.083 0.014 76.134 0.997 -0.789 0.997 -0.789 0.014 76.134
6614.042 0.015 76.981 0.997 -0.85 0.997 -0.85 0.015 76.981
6639 0.016 77.709 0.997 -0.911 0.997 -0.911 0.016 77.709
6663.958 0.017 78.341 0.997 -0.971 0.997 -0.971 0.017 78.341
6688.917 0.018 78.892 0.997 -1.032 0.997 -1.032 0.018 78.892
6713.875 0.019 79.376 0.997 -1.092 0.997 -1.092 0.019 79.376
6738.833 0.02 79.803 0.997 -1.152 0.997 -1.152 0.02 79.803
6763.792 0.021 80.182 0.997 -1.211 0.997 -1.211 0.021 80.182
6788.75 0.022 80.52 0.997 -1.271 0.997 -1.271 0.022 80.52
6813.708 0.023 80.822 0.997 -1.33 0.997 -1.33 0.023 80.822
6838.667 0.024 81.093 0.997 -1.389 0.997 -1.389 0.024 81.093
6863.625 0.025 81.336 0.996 -1.448 0.996 -1.448 0.025 81.336
6888.583 0.026 81.556 0.996 -1.506 0.996 -1.506 0.026 81.556
6913.542 0.027 81.754 0.996 -1.565 0.996 -1.565 0.027 81.754
6938.5 0.029 81.934 0.996 -1.623 0.996 -1.623 0.029 81.934
6963.458 0.03 82.097 0.996 -1.681 0.996 -1.681 0.03 82.097
6988.417 0.031 82.244 0.996 -1.739 0.996 -1.739 0.031 82.244
7013.375 0.032 82.379 0.996 -1.797 0.996 -1.797 0.032 82.379
7038.333 0.033 82.501 0.996 -1.854 0.996 -1.854 0.033 82.501
7063.292 0.034 82.612 0.996 -1.912 0.996 -1.912 0.034 82.612
7088.25 0.035 82.713 0.996 -1.969 0.996 -1.969 0.035 82.713
7113.208 0.035 82.804 0.996 -2.026 0.996 -2.026 0.035 82.804
7138.167 0.036 82.888 0.996 -2.082 0.996 -2.082 0.036 82.888
7163.125 0.037 82.964 0.996 -2.139 0.996 -2.139 0.037 82.964
7188.083 0.038 83.033 0.996 -2.195 0.996 -2.195 0.038 83.033
7213.042 0.039 83.095 0.996 -2.252 0.996 -2.252 0.039 83.095
7238 0.04 83.152 0.996 -2.308 0.996 -2.308 0.04 83.152
7262.958 0.041 83.203 0.996 -2.364 0.996 -2.364 0.041 83.203
7287.917 0.042 83.249 0.996 -2.419 0.996 -2.419 0.042 83.249
7312.875 0.043 83.291 0.996 -2.475 0.996 -2.475 0.043 83.291
7337.833 0.044 83.328 0.996 -2.53 0.996 -2.53 0.044 83.328
7362.792 0.045 83.361 0.996 -2.586 0.996 -2.586 0.045 83.361
7387.75 0.046 83.39 0.996 -2.641 0.996 -2.641 0.046 83.39
7412.708 0.047 83.416 0.996 -2.696 0.996 -2.696 0.047 83.416
7437.667 0.048 83.439 0.996 -2.75 0.996 -2.75 0.048 83.439
7462.625 0.049 83.458 0.996 -2.805 0.996 -2.805 0.049 83.458
7487.583 0.05 83.475 0.996 -2.859 0.996 -2.859 0.05 83.475
7512.542 0.051 83.489 0.996 -2.914 0.996 -2.914 0.051 83.489
7537.5 0.052 83.5 0.995 -2.968 0.995 -2.968 0.052 83.5
7562.458 0.053 83.509 0.995 -3.022 0.995 -3.022 0.053 83.509
7587.417 0.054 83.516 0.995 -3.076 0.995 -3.076 0.054 83.516
7612.375 0.055 83.521 0.995 -3.129 0.995 -3.129 0.055 83.521
7637.333 0.056 83.524 0.995 -3.183 0.995 -3.183 0.056 83.524
7662.292 0.057 83.525 0.995 -3.236 0.995 -3.236 0.057 83.525
7687.25 0.057 83.524 0.995 -3.289 0.995 -3.289 0.057 83.524
7712.208 0.058 83.521 0.995 -3.342 0.995 -3.342 0.058 83.521
7737.167 0.059 83.517 0.995 -3.395 0.995 -3.395 0.059 83.517
7762.125 0.06 83.512 0.995 -3.448 0.995 -3.448 0.06 83.512
7787.083 0.061 83.505 0.995 -3.501 0.995 -3.501 0.061 83.505
7812.042 0.062 83.497 0.995 -3.553 0.995 -3.553 0.062 83.497
7837 0.063 83.487 0.995 -3.606 0.995 -3.606 0.063 83.487
7861.958 0.064 83.476 0.995 -3.658 0.995 -3.658 0.064 83.476
7886.917 0.065 83.465 0.995 -3.71 0.995 -3.71 0.065 83.465
7911.875 0.066 83.452 0.995 -3.762 0.995 -3.762 0.066 83.452
7936.833 0.067 83.438 0.995 -3.814 0.995 -3.814 0.067 83.438
7961.792 0.067 83.423 0.995 -3.866 0.995 -3.866 0.067 83.423
7986.75 0.068 83.407 0.994 -3.917 0.994 -3.917 0.068 83.407
8011.708 0.069 83.39 0.994 -3.969 0.994 -3.969 0.069 83.39
8036.667 0.07 83.373 0.994 -4.02 0.994 -4.02 0.07 83.373
8061.625 0.071 83.354 0.994 -4.071 0.994 -4.071 0.071 83.354
8086.583 0.072 83.335 0.994 -4.123 0.994 -4.123 0.072 83.335
8111.542 0.073 83.315 0.994 -4.174 0.994 -4.174 0.073 83.315
8136.5 0.074 83.295 0.994 -4.224 0.994 -4.224 0.074 83.295
8161.458 0.075 83.274 0.994 -4.275 0.994 -4.275 0.075 83.274
8186.417 0.075 83.252 0.994 -4.326 0.994 -4.326 0.075 83.252
8211.375 0.076 83.229 0.994 -4.376 0.994 -4.376 0.076 83.229
8236.333 0.077 83.206 0.994 -4.427 0.994 -4.427 0.077 83.206
8261.292 0.078 83.183 0.994 -4.477 0.994 -4.477 0.078 83.183
8286.25 0.079 83.159 0.994 -4.527 0.994 -4.527 0.079 83.159
8311.208 0.08 83.134 0.994 -4.577 0.994 -4.577 0.08 83.134
8336.167 0.081 83.109 0.994 -4.627 0.994 -4.627 0.081 83.109
8361.125 0.082 83.083 0.993 -4.677 0.993 -4.677 0.082 83.083
8386.083 0.082 83.057 0.993 -4.726 0.993 -4.726 0.082 83.057
8411.042 0.083 83.031 0.993 -4.776 0.993 -4.776 0.083 83.031
8436 0.084 83.004 0.993 -4.825 0.993 -4.825 0.084 83.004
8460.958 0.085 82.977 0.993 -4.875 0.993 -4.875 0.085 82.977
8485.917 0.086 82.949 0.993 -4.924 0.993 -4.924 0.086 82.949
8510.875 0.087 82.921 0.993 -4.973 0.993 -4.973 0.087 82.921
8535.833 0.088 82.893 0.993 -5.022 0.993 -5.022 0.088 82.893
8560.792 0.088 82.864 0.993 -5.071 0.993 -5.071 0.088 82.864
8585.75 0.089 82.835 0.993 -5.12 0.993 -5.12 0.089 82.835
8610.708 0.09 82.806 0.993 -5.168 0.993 -5.168 0.09 82.806
8635.667 0.091 82.776 0.993 -5.217 0.993 -5.217 0.091 82.776
8660.625 0.092 82.746 0.993 -5.265 0.993 -5.265 0.092 82.746
8685.583 0.093 82.716 0.993 -5.314 0.993 -5.314 0.093 82.716
8710.542 0.093 82.685 0.992 -5.362 0.992 -5.362 0.093 82.685
8735.5 0.094 82.655 0.992 -5.41 0.992 -5.41 0.094 82.655
8760.458 0.095 82.624 0.992 -5.458 0.992 -5.458 0.095 82.624
8785.417 0.096 82.593 0.992 -5.506 0.992 -5.506 0.096 82.593
8810.375 0.097 82.561 0.992 -5.554 0.992 -5.554 0.097 82.561
8835.333 0.098 82.53 0.992 -5.602 0.992 -5.602 0.098 82.53
8860.292 0.098 82.498 0.992 -5.649 0.992 -5.649 0.098 82.498
8885.25 0.099 82.466 0.992 -5.697 0.992 -5.697 0.099 82.466
8910.208 0.1 82.434 0.992 -5.744 0.992 -5.744 0.1 82.434
8935.167 0.101 82.401 0.992 -5.792 0.992 -5.792 0.101 82.401
8960.125 0.102 82.369 0.992 -5.839 0.992 -5.839 0.102 82.369
8985.083 0.103 82.336 0.992 -5.886 0.992 -5.886 0.103 82.336
9010.042 0.103 82.303 0.991 -5.933 0.991 -5.933 0.103 82.303
9035 0.104 82.27 0.991 -5.98 0.991 -5.98 0.104 82.27
9059.958 0.105 82.237 0.991 -6.027 0.991 -6.027 0.105 82.237
9084.917 0.106 82.204 0.991 -6.074 0.991 -6.074 0.106 82.204
9109.875 0.107 82.17 0.991 -6.121 0.991 -6.121 0.107 82.17
9134.833 0.107 82.136 0.991 -6.167 0.991 -6.167 0.107 82.136
9159.792 0.108 82.103 0.991 -6.214 0.991 -6.214 0.108 82.103
9184.75 0.109 82.069 0.991 -6.26 0.991 -6.26 0.109 82.069
9209.708 0.11 82.035 0.991 -6.307 0.991 -6.307 0.11 82.035
9234.667 0.111 82.001 0.991 -6.353 0.991 -6.353 0.111 82.001
9259.625 0.111 81.967 0.991 -6.399 0.991 -6.399 0.111 81.967
9284.583 0.112 81.932 0.991 -6.445 0.991 -6.445 0.112 81.932
9309.542 0.113 81.898 0.99 -6.491 0.99 -6.491 0.113 81.898
9334.5 0.114 81.863 0.99 -6.537 0.99 -6.537 0.114 81.863
9359.458 0.115 81.829 0.99 -6.583 0.99 -6.583 0.115 81.829
9384.417 0.115 81.794 0.99 -6.629 0.99 -6.629 0.115 81.794
9409.375 0.116 81.759 0.99 -6.674 0.99 -6.674 0.116 81.759
9434.333 0.117 81.724 0.99 -6.72 0.99 -6.72 0.117 81.724
9459.292 0.118 81.689 0.99 -6.765 0.99 -6.765 0.118 81.689
9484.25 0.119 81.654 0.99 -6.811 0.99 -6.811 0.119 81.654
9509.208 0.119 81.619 0.99 -6.856 0.99 -6.856 0.119 81.619
9534.167 0.12 81.584 0.99 -6.901 0.99 -6.901 0.12 81.584
9559.125 0.121 81.549 0.989 -6.947 0.989 -6.947 0.121 81.549
9584.083 0.122 81.514 0.989 -6.992 0.989 -6.992 0.122 81.514
9609.042 0.123 81.478 0.989 -7.037 0.989 -7.037 0.123 81.478
9634 0.123 81.443 0.989 -7.082 0.989 -7.082 0.123 81.443
9658.958 0.124 81.407 0.989 -7.127 0.989 -7.127 0.124 81.407
9683.917 0.125 81.372 0.989 -7.171 0.989 -7.171 0.125 81.372
9708.875 0.126 81.336 0.989 -7.216 0.989 -7.216 0.126 81.336
9733.833 0.126 81.301 0.989 -7.261 0.989 -7.261 0.126 81.301
9758.792 0.127 81.265 0.989 -7.305 0.989 -7.305 0.127 81.265
9783.75 0.128 81.229 0.989 -7.35 0.989 -7.35 0.128 81.229
9808.708 0.129 81.193 0.989 -7.394 0.989 -7.394 0.129 81.193
9833.667 0.13 81.157 0.988 -7.438 0.988 -7.438 0.13 81.157
9858.625 0.13 81.122 0.988 -7.483 0.988 -7.483 0.13 81.122
9883.583 0.131 81.086 0.988 -7.527 0.988 -7.527 0.131 81.086
9908.542 0.132 81.05 0.988 -7.571 0.988 -7.571 0.132 81.05
9933.5 0.133 81.014 0.988 -7.615 0.988 -7.615 0.133 81.014
9958.458 0.133 80.978 0.988 -7.659 0.988 -7.659 0.133 80.978
9983.417 0.134 80.942 0.988 -7.703 0.988 -7.703 0.134 80.942
10008.375 0.135 80.906 0.988 -7.747 0.988 -7.747 0.135 80.906
10033.333 0.136 80.87 0.988 -7.791 0.988 -7.791 0.136 80.87
10058.292 0.136 80.833 0.987 -7.834 0.987 -7.834 0.136 80.833
10083.25 0.137 80.797 0.987 -7.878 0.987 -7.878 0.137 80.797
10108.208 0.138 80.761 0.987 -7.921 0.987 -7.921 0.138 80.761
10133.167 0.139 80.725 0.987 -7.965 0.987 -7.965 0.139 80.725
10158.125 0.139 80.689 0.987 -8.008 0.987 -8.008 0.139 80.689
10183.083 0.14 80.652 0.987 -8.052 0.987 -8.052 0.14 80.652
10208.042 0.141 80.616 0.987 -8.095 0.987 -8.095 0.141 80.616
10233 0.142 80.58 0.987 -8.138 0.987 -8.138 0.142 80.58
10257.958 0.142 80.544 0.987 -8.181 0.987 -8.181 0.142 80.544
10282.917 0.143 80.507 0.987 -8.224 0.987 -8.224 0.143 80.507
10307.875 0.144 80.471 0.986 -8.267 0.986 -8.267 0.144 80.471
10332.833 0.145 80.435 0.986 -8.31 0.986 -8.31 0.145 80.435
10357.792 0.145 80.398 0.986 -8.353 0.986 -8.353 0.145 80.398
10382.75 0.146 80.362 0.986 -8.396 0.986 -8.396 0.146 80.362
10407.708 0.147 80.326 0.986 -8.439 0.986 -8.439 0.147 80.326
10432.667 0.148 80.289 0.986 -8.481 0.986 -8.481 0.148 80.289
10457.625 0.148 80.253 0.986 -8.524 0.986 -8.524 0.148 80.253
10482.583 0.149 80.216 0.986 -8.567 0.986 -8.567 0.149 80.216
10507.542 0.15 80.18 0.986 -8.609 0.986 -8.609 0.15 80.18
10532.5 0.15 80.144 0.985 -8.651 0.985 -8.651 0.15 80.144
10557.458 0.151 80.107 0.985 -8.694 0.985 -8.694 0.151 80.107
10582.417 0.152 80.071 0.985 -8.736 0.985 -8.736 0.152 80.071
10607.375 0.153 80.034 0.985 -8.778 0.985 -8.778 0.153 80.034
10632.333 0.153 79.998 0.985 -8.821 0.985 -8.821 0.153 79.998
10657.292 0.154 79.962 0.985 -8.863 0.985 -8.863 0.154 79.962
10682.25 0.155 79.925 0.985 -8.905 0.985 -8.905 0.155 79.925
10707.208 0.156 79.889 0.985 -8.947 0.985 -8.947 0.156 79.889
10732.167 0.156 79.852 0.985 -8.989 0.985 -8.989 0.156 79.852
10757.125 0.157 79.816 0.984 -9.031 0.984 -9.031 0.157 79.816
10782.083 0.158 79.78 0.984 -9.072 0.984 -9.072 0.158 79.78
10807.042 0.158 79.743 0.984 -9.114 0.984 -9.114 0.158 79.743
10832 0.159 79.707 0.984 -9.156 0.984 -9.156 0.159 79.707
10856.958 0.16 79.67 0.984 -9.198 0.984 -9.198 0.16 79.67
10881.917 0.161 79.634 0.984 -9.239 0.984 -9.239 0.161 79.634
10906.875 0.161 79.597 0.984 -9.281 0.984 -9.281 0.161 79.597
10931.833 0.162 79.561 0.984 -9.322 0.984 -9.322 0.162 79.561
10956.792 0.163 79.525 0.984 -9.364 0.984 -9.364 0.163 79.525
10981.75 0.163 79.488 0.983 -9.405 0.983 -9.405 0.163 79.488
11006.708 0.164 79.452 0.983 -9.446 0.983 -9.446 0.164 79.452
11031.667 0.165 79.416 0.983 -9.487 0.983 -9.487 0.165 79.416
11056.625 0.166 79.379 0.983 -9.529 0.983 -9.529 0.166 79.379
11081.583 0.166 79.343 0.983 -9.57 0.983 -9.57 0.166 79.343
11106.542 0.167 79.306 0.983 -9.611 0.983 -9.611 0.167 79.306
11131.5 0.168 79.27 0.983 -9.652 0.983 -9.652 0.168 79.27
11156.458 0.168 79.234 0.983 -9.693 0.983 -9.693 0.168 79.234
11181.417 0.169 79.197 0.982 -9.734 0.982 -9.734 0.169 79.197
11206.375 0.17 79.161 0.982 -9.775 0.982 -9.775 0.17 79.161
11231.333 0.171 79.125 0.982 -9.816 0.982 -9.816 0.171 79.125
11256.292 0.171 79.089 0.982 -9.856 0.982 -9.856 0.171 79.089
11281.25 0.172 79.052 0.982 -9.897 0.982 -9.897 0.172 79.052
11306.208 0.173 79.016 0.982 -9.938 0.982 -9.938 0.173 79.016
11331.167 0.173 78.98 0.982 -9.978 0.982 -9.978 0.173 78.98
11356.125 0.174 78.943 0.982 -10.019 0.982 -10.019 0.174 78.943
11381.083 0.175 78.907 0.981 -10.059 0.981 -10.059 0.175 78.907
11406.042 0.175 78.871 0.981 -10.1 0.981 -10.1 0.175 78.871
11431 0.176 78.835 0.981 -10.14 0.981 -10.14 0.176 78.835
11455.958 0.177 78.799 0.981 -10.181 0.981 -10.181 0.177 78.799
11480.917 0.177 78.762 0.981 -10.221 0.981 -10.221 0.177 78.762
11505.875 0.178 78.726 0.981 -10.261 0.981 -10.261 0.178 78.726
11530.833 0.179 78.69 0.981 -10.301 0.981 -10.301 0.179 78.69
11555.792 0.18 78.654 0.981 -10.341 0.981 -10.341 0.18 78.654
11580.75 0.18 78.618 0.98 -10.382 0.98 -10.382 0.18 78.618
11605.708 0.181 78.582 0.98 -10.422 0.98 -10.422 0.181 78.582
11630.667 0.182 78.546 0.98 -10.462 0.98 -10.462 0.182 78.546
11655.625 0.182 78.509 0.98 -10.501 0.98 -10.501 0.182 78.509
11680.583 0.183 78.473 0.98 -10.541 0.98 -10.541 0.183 78.473
11705.542 0.184 78.437 0.98 -10.581 0.98 -10.581 0.184 78.437
11730.5 0.184 78.401 0.98 -10.621 0.98 -10.621 0.184 78.401
11755.458 0.185 78.365 0.98 -10.661 0.98 -10.661 0.185 78.365
11780.417 0.186 78.329 0.979 -10.701 0.979 -10.701 0.186 78.329
11805.375 0.186 78.293 0.979 -10.74 0.979 -10.74 0.186 78.293
11830.333 0.187 78.257 0.979 -10.78 0.979 -10.78 0.187 78.257
11855.292 0.188 78.221 0.979 -10.819 0.979 -10.819 0.188 78.221
11880.25 0.188 78.185 0.979 -10.859 0.979 -10.859 0.188 78.185
11905.208 0.189 78.149 0.979 -10.898 0.979 -10.898 0.189 78.149
11930.167 0.19 78.114 0.979 -10.938 0.979 -10.938 0.19 78.114
11955.125 0.19 78.078 0.979 -10.977 0.979 -10.977 0.19 78.078
11980.083 0.191 78.042 0.978 -11.016 0.978 -11.016 0.191 78.042
12005.042 0.192 78.006 0.978 -11.056 0.978 -11.056 0.192 78.006
12030 0.192 77.97 0.978 -11.095 0.978 -11.095 0.192 77.97
12054.958 0.193 77.934 0.978 -11.134 0.978 -11.134 0.193 77.934
12079.917 0.194 77.898 0.978 -11.173 0.978 -11.173 0.194 77.898
12104.875 0.194 77.863 0.978 -11.212 0.978 -11.212 0.194 77.863
12129.833 0.195 77.827 0.978 -11.252 0.978 -11.252 0.195 77.827
12154.792 0.196 77.791 0.978 -11.291 0.978 -11.291 0.196 77.791
12179.75 0.196 77.755 0.977 -11.33 0.977 -11.33 0.196 77.755
12204.708 0.197 77.72 0.977 -11.368 0.977 -11.368 0.197 77.72
12229.667 0.198 77.684 0.977 -11.407 0.977 -11.407 0.198 77.684
12254.625 0.198 77.648 0.977 -11.446 0.977 -11.446 0.198 77.648
12279.583 0.199 77.613 0.977 -11.485 0.977 -11.485 0.199 77.613
12304.542 0.2 77.577 0.977 -11.524 0.977 -11.524 0.2 77.577
12329.5 0.2 77.541 0.977 -11.562 0.977 -11.562 0.2 77.541
12354.458 0.201 77.506 0.976 -11.601 0.976 -11.601 0.201 77.506
12379.417 0.202 77.47 0.976 -11.64 0.976 -11.64 0.202 77.47
12404.375 0.202 77.435 0.976 -11.678 0.976 -11.678 0.202 77.435
12429.333 0.203 77.399 0.976 -11.717 0.976 -11.717 0.203 77.399
12454.292 0.204 77.364 0.976 -11.755 0.976 -11.755 0.204 77.364
12479.25 0.204 77.328 0.976 -11.794 0.976 -11.794 0.204 77.328
12504.208 0.205 77.293 0.976 -11.832 0.976 -11.832 0.205 77.293
12529.167 0.206 77.257 0.975 -11.871 0.975 -11.871 0.206 77.257
12554.125 0.206 77.222 0.975 -11.909 0.975 -11.909 0.206 77.222
12579.083 0.207 77.186 0.975 -11.947 0.975 -11.947 0.207 77.186
12604.042 0.208 77.151 0.975 -11.986 0.975 -11.986 0.208 77.151
12629 0.208 77.115 0.975 -12.024 0.975 -12.024 0.208 77.115
12653.958 0.209 77.08 0.975 -12.062 0.975 -12.062 0.209 77.08
12678.917 0.21 77.045 0.975 -12.1 0.975 -12.1 0.21 77.045
12703.875 0.21 77.009 0.975 -12.138 0.975 -12.138 0.21 77.009
12728.833 0.211 76.974 0.974 -12.176 0.974 -12.176 0.211 76.974
12753.792 0.212 76.939 0.974 -12.214 0.974 -12.214 0.212 76.939
12778.75 0.212 76.904 0.974 -12.252 0.974 -12.252 0.212 76.904
12803.708 0.213 76.868 0.974 -12.29 0.974 -12.29 0.213 76.868
12828.667 0.214 76.833 0.974 -12.328 0.974 -12.328 0.214 76.833
12853.625 0.214 76.798 0.974 -12.366 0.974 -12.366 0.214 76.798
12878.583 0.215 76.763 0.974 -12.404 0.974 -12.404 0.215 76.763
12903.542 0.215 76.728 0.973 -12.441 0.973 -12.441 0.215 76.728
12928.5 0.216 76.692 0.973 -12.479 0.973 -12.479 0.216 76.692
12953.458 0.217 76.657 0.973 -12.517 0.973 -12.517 0.217 76.657
12978.417 0.217 76.622 0.973 -12.554 0.973 -12.554 0.217 76.622
13003.375 0.218 76.587 0.973 -12.592 0.973 -12.592 0.218 76.587
13028.333 0.219 76.552 0.973 -12.63 0.973 -12.63 0.219 76.552
13053.292 0.219 76.517 0.973 -12.667 0.973 -12.667 0.219 76.517
13078.25 0.22 76.482 0.972 -12.705 0.972 -12.705 0.22 76.482
13103.208 0.221 76.447 0.972 -12.742 0.972 -12.742 0.221 76.447
13128.167 0.221 76.412 0.972 -12.78 0.972 -12.78 0.221 76.412
13153.125 0.222 76.377 0.972 -12.817 0.972 -12.817 0.222 76.377
13178.083 0.222 76.342 0.972 -12.854 0.972 -12.854 0.222 76.342
13203.042 0.223 76.307 0.972 -12.892 0.972 -12.892 0.223 76.307
13228 0.224 76.272 0.972 -12.929 0.972 -12.929 0.224 76.272
13252.958 0.224 76.238 0.971 -12.966 0.971 -12.966 0.224 76.238
13277.917 0.225 76.203 0.971 -13.003 0.971 -13.003 0.225 76.203
13302.875 0.226 76.168 0.971 -13.041 0.971 -13.041 0.226 76.168
13327.833 0.226 76.133 0.971 -13.078 0.971 -13.078 0.226 76.133
13352.792 0.227 76.098 0.971 -13.115 0.971 -13.115 0.227 76.098
13377.75 0.228 76.064 0.971 -13.152 0.971 -13.152 0.228 76.064
13402.708 0.228 76.029 0.971 -13.189 0.971 -13.189 0.228 76.029
13427.667 0.229 75.994 0.97 -13.226 0.97 -13.226 0.229 75.994
13452.625 0.229 75.959 0.97 -13.263 0.97 -13.263 0.229 75.959
13477.583 0.23 75.925 0.97 -13.3 0.97 -13.3 0.23 75.925
13502.542 0.231 75.89 0.97 -13.337 0.97 -13.337 0.231 75.89
13527.5 0.231 75.855 0.97 -13.373 0.97 -13.373 0.231 75.855
13552.458 0.232 75.821 0.97 -13.41 0.97 -13.41 0.232 75.821
13577.417 0.233 75.786 0.969 -13.447 0.969 -13.447 0.233 75.786
13602.375 0.233 75.752 0.969 -13.484 0.969 -13.484 0.233 75.752
13627.333 0.234 75.717 0.969 -13.52 0.969 -13.52 0.234 75.717
13652.292 0.234 75.683 0.969 -13.557 0.969 -13.557 0.234 75.683
13677.25 0.235 75.648 0.969 -13.594 0.969 -13.594 0.235 75.648
13702.208 0.236 75.614 0.969 -13.63 0.969 -13.63 0.236 75.614
13727.167 0.236 75.579 0.969 -13.667 0.969 -13.667 0.236 75.579
13752.125 0.237 75.545 0.968 -13.703 0.968 -13.703 0.237 75.545
13777.083 0.238 75.51 0.968 -13.74 0.968 -13.74 0.238 75.51
13802.042 0.238 75.476 0.968 -13.776 0.968 -13.776 0.238 75.476
13827 0.239 75.441 0.968 -13.813 0.968 -13.813 0.239 75.441
13851.958 0.239 75.407 0.968 -13.849 0.968 -13.849 0.239 75.407
13876.917 0.24 75.373 0.968 -13.886 0.968 -13.886 0.24 75.373
13901.875 0.241 75.338 0.968 -13.922 0.968 -13.922 0.241 75.338
13926.833 0.241 75.304 0.967 -13.958 0.967 -13.958 0.241 75.304
13951.792 0.242 75.27 0.967 -13.994 0.967 -13.994 0.242 75.27
13976.75 0.242 75.236 0.967 -14.031 0.967 -14.031 0.242 75.236
14001.708 0.243 75.201 0.967 -14.067 0.967 -14.067 0.243 75.201
14026.667 0.244 75.167 0.967 -14.103 0.967 -14.103 0.244 75.167
14051.625 0.244 75.133 0.967 -14.139 0.967 -14.139 0.244 75.133
14076.583 0.245 75.099 0.966 -14.175 0.966 -14.175 0.245 75.099
14101.542 0.246 75.065 0.966 -14.211 0.966 -14.211 0.246 75.065
14126.5 0.246 75.031 0.966 -14.247 0.966 -14.247 0.246 75.031
14151.458 0.247 74.997 0.966 -14.283 0.966 -14.283 0.247 74.997
14176.417 0.247 74.962 0.966 -14.319 0.966 -14.319 0.247 74.962
14201.375 0.248 74.928 0.966 -14.355 0.966 -14.355 0.248 74.928
14226.333 0.249 74.894 0.966 -14.391 0.966 -14.391 0.249 74.894
14251.292 0.249 74.86 0.965 -14.427 0.965 -14.427 0.249 74.86
14276.25 0.25 74.826 0.965 -14.463 0.965 -14.463 0.25 74.826
14301.208 0.25 74.792 0.965 -14.499 0.965 -14.499 0.25 74.792
14326.167 0.251 74.758 0.965 -14.534 0.965 -14.534 0.251 74.758
14351.125 0.252 74.724 0.965 -14.57 0.965 -14.57 0.252 74.724
14376.083 0.252 74.691 0.965 -14.606 0.965 -14.606 0.252 74.691
14401.042 0.253 74.657 0.964 -14.642 0.964 -14.642 0.253 74.657
14426 0.253 74.623 0.964 -14.677 0.964 -14.677 0.253 74.623
14450.958 0.254 74.589 0.964 -14.713 0.964 -14.713 0.254 74.589
14475.917 0.255 74.555 0.964 -14.748 0.964 -14.748 0.255 74.555
14500.875 0.255 74.521 0.964 -14.784 0.964 -14.784 0.255 74.521
14525.833 0.256 74.488 0.964 -14.819 0.964 -14.819 0.256 74.488
14550.792 0.256 74.454 0.963 -14.855 0.963 -14.855 0.256 74.454
14575.75 0.257 74.42 0.963 -14.89 0.963 -14.89 0.257 74.42
14600.708 0.258 74.386 0.963 -14.926 0.963 -14.926 0.258 74.386
14625.667 0.258 74.353 0.963 -14.961 0.963 -14.961 0.258 74.353
14650.625 0.259 74.319 0.963 -14.997 0.963 -14.997 0.259 74.319
14675.583 0.259 74.285 0.963 -15.032 0.963 -15.032 0.259 74.285
14700.542 0.26 74.252 0.963 -15.067 0.963 -15.067 0.26 74.252
14725.5 0.261 74.218 0.962 -15.103 0.962 -15.103 0.261 74.218
14750.458 0.261 74.184 0.962 -15.138 0.962 -15.138 0.261 74.184
14775.417 0.262 74.151 0.962 -15.173 0.962 -15.173 0.262 74.151
14800.375 0.262 74.117 0.962 -15.208 0.962 -15.208 0.262 74.117
14825.333 0.263 74.084 0.962 -15.243 0.962 -15.243 0.263 74.084
14850.292 0.264 74.05 0.962 -15.278 0.962 -15.278 0.264 74.05
14875.25 0.264 74.017 0.961 -15.314 0.961 -15.314 0.264 74.017
14900.208 0.265 73.983 0.961 -15.349 0.961 -15.349 0.265 73.983
14925.167 0.265 73.95 0.961 -15.384 0.961 -15.384 0.265 73.95
14950.125 0.266 73.917 0.961 -15.419 0.961 -15.419 0.266 73.917
14975.083 0.266 73.883 0.961 -15.454 0.961 -15.454 0.266 73.883
15000.042 0.267 73.85 0.961 -15.489 0.961 -15.489 0.267 73.85
15025 0.268 73.816 0.96 -15.524 0.96 -15.524 0.268 73.816
15049.958 0.268 73.783 0.96 -15.558 0.96 -15.558 0.268 73.783
15074.917 0.269 73.75 0.96 -15.593 0.96 -15.593 0.269 73.75
15099.875 0.269 73.716 0.96 -15.628 0.96 -15.628 0.269 73.716
15124.833 0.27 73.683 0.96 -15.663 0.96 -15.663 0.27 73.683
15149.792 0.271 73.65 0.96 -15.698 0.96 -15.698 0.271 73.65
15174.75 0.271 73.617 0.959 -15.733 0.959 -15.733 0.271 73.617
15199.708 0.272 73.583 0.959 -15.767 0.959 -15.767 0.272 73.583
15224.667 0.272 73.55 0.959 -15.802 0.959 -15.802 0.272 73.55
15249.625 0.273 73.517 0.959 -15.837 0.959 -15.837 0.273 73.517
15274.583 0.273 73.484 0.959 -15.871 0.959 -15.871 0.273 73.484
15299.542 0.274 73.451 0.959 -15.906 0.959 -15.906 0.274 73.451
15324.5 0.275 73.418 0.958 -15.94 0.958 -15.94 0.275 73.418
15349.458 0.275 73.385 0.958 -15.975 0.958 -15.975 0.275 73.385
15374.417 0.276 73.352 0.958 -16.009 0.958 -16.009 0.276 73.352
15399.375 0.276 73.318 0.958 -16.044 0.958 -16.044 0.276 73.318
15424.333 0.277 73.285 0.958 -16.078 0.958 -16.078 0.277 73.285
15449.292 0.278 73.252 0.958 -16.113 0.958 -16.113 0.278 73.252
15474.25 0.278 73.219 0.957 -16.147 0.957 -16.147 0.278 73.219
15499.208 0.279 73.186 0.957 -16.182 0.957 -16.182 0.279 73.186
15524.167 0.279 73.154 0.957 -16.216 0.957 -16.216 0.279 73.154
15549.125 0.28 73.121 0.957 -16.25 0.957 -16.25 0.28 73.121
15574.083 0.28 73.088 0.957 -16.285 0.957 -16.285 0.28 73.088
15599.042 0.281 73.055 0.957 -16.319 0.957 -16.319 0.281 73.055
15624 0.282 73.022 0.956 -16.353 0.956 -16.353 0.282 73.022
15648.958 0.282 72.989 0.956 -16.387 0.956 -16.387 0.282 72.989
15673.917 0.283 72.956 0.956 -16.422 0.956 -16.422 0.283 72.956
15698.875 0.283 72.923 0.956 -16.456 0.956 -16.456 0.283 72.923
15723.833 0.284 72.891 0.956 -16.49 0.956 -16.49 0.284 72.891
15748.792 0.284 72.858 0.956 -16.524 0.956 -16.524 0.284 72.858
15773.75 0.285 72.825 0.955 -16.558 0.955 -16.558 0.285 72.825
15798.708 0.286 72.792 0.955 -16.592 0.955 -16.592 0.286 72.792
15823.667 0.286 72.76 0.955 -16.626 0.955 -16.626 0.286 72.76
15848.625 0.287 72.727 0.955 -16.66 0.955 -16.66 0.287 72.727
15873.583 0.287 72.694 0.955 -16.694 0.955 -16.694 0.287 72.694
15898.542 0.288 72.662 0.955 -16.728 0.955 -16.728 0.288 72.662
15923.5 0.288 72.629 0.954 -16.762 0.954 -16.762 0.288 72.629
15948.458 0.289 72.597 0.954 -16.796 0.954 -16.796 0.289 72.597
15973.417 0.29 72.564 0.954 -16.83 0.954 -16.83 0.29 72.564
15998.375 0.29 72.531 0.954 -16.864 0.954 -16.864 0.29 72.531
16023.333 0.291 72.499 0.954 -16.898 0.954 -16.898 0.291 72.499
16048.292 0.291 72.466 0.954 -16.931 0.954 -16.931 0.291 72.466
16073.25 0.292 72.434 0.953 -16.965 0.953 -16.965 0.292 72.434
16098.208 0.292 72.401 0.953 -16.999 0.953 -16.999 0.292 72.401
16123.167 0.293 72.369 0.953 -17.033 0.953 -17.033 0.293 72.369
16148.125 0.293 72.337 0.953 -17.066 0.953 -17.066 0.293 72.337
16173.083 0.294 72.304 0.953 -17.1 0.953 -17.1 0.294 72.304
16198.042 0.295 72.272 0.953 -17.134 0.953 -17.134 0.295 72.272
16223 0.295 72.239 0.952 -17.167 0.952 -17.167 0.295 72.239
16247.958 0.296 72.207 0.952 -17.201 0.952 -17.201 0.296 72.207
16272.917 0.296 72.175 0.952 -17.234 0.952 -17.234 0.296 72.175
16297.875 0.297 72.142 0.952 -17.268 0.952 -17.268 0.297 72.142
16322.833 0.297 72.11 0.952 -17.301 0.952 -17.301 0.297 72.11
16347.792 0.298 72.078 0.952 -17.335 0.952 -17.335 0.298 72.078
16372.75 0.299 72.045 0.951 -17.368 0.951 -17.368 0.299 72.045
16397.708 0.299 72.013 0.951 -17.402 0.951 -17.402 0.299 72.013
16422.667 0.3 71.981 0.951 -17.435 0.951 -17.435 0.3 71.981
16447.625 0.3 71.949 0.951 -17.469 0.951 -17.469 0.3 71.949
16472.583 0.301 71.917 0.951 -17.502 0.951 -17.502 0.301 71.917
16497.542 0.301 71.884 0.95 -17.535 0.95 -17.535 0.301 71.884
16522.5 0.302 71.852 0.95 -17.569 0.95 -17.569 0.302 71.852
16547.458 0.302 71.82 0.95 -17.602 0.95 -17.602 0.302 71.82
16572.417 0.303 71.788 0.95 -17.635 0.95 -17.635 0.303 71.788
16597.375 0.304 71.756 0.95 -17.668 0.95 -17.668 0.304 71.756
16622.333 0.304 71.724 0.95 -17.702 0.95 -17.702 0.304 71.724
16647.292 0.305 71.692 0.949 -17.735 0.949 -17.735 0.305 71.692
16672.25 0.305 71.66 0.949 -17.768 0.949 -17.768 0.305 71.66
16697.208 0.306 71.628 0.949 -17.801 0.949 -17.801 0.306 71.628
16722.167 0.306 71.596 0.949 -17.834 0.949 -17.834 0.306 71.596
16747.125 0.307 71.564 0.949 -17.867 0.949 -17.867 0.307 71.564
16772.083 0.307 71.532 0.949 -17.9 0.949 -17.9 0.307 71.532
16797.042 0.308 71.5 0.948 -17.933 0.948 -17.933 0.308 71.5
16822 0.308 71.468 0.948 -17.966 0.948 -17.966 0.308 71.468
16846.958 0.309 71.436 0.948 -17.999 0.948 -17.999 0.309 71.436
16871.917 0.31 71.404 0.948 -18.032 0.948 -18.032 0.31 71.404
16896.875 0.31 71.373 0.948 -18.065 0.948 -18.065 0.31 71.373
16921.833 0.311 71.341 0.947 -18.098 0.947 -18.098 0.311 71.341
16946.792 0.311 71.309 0.947 -18.131 0.947 -18.131 0.311 71.309
16971.75 0.312 71.277 0.947 -18.164 0.947 -18.164 0.312 71.277
16996.708 0.312 71.245 0.947 -18.197 0.947 -18.197 0.312 71.245
17021.667 0.313 71.214 0.947 -18.23 0.947 -18.23 0.313 71.214
17046.625 0.313 71.182 0.947 -18.262 0.947 -18.262 0.313 71.182
17071.583 0.314 71.15 0.946 -18.295 0.946 -18.295 0.314 71.15
17096.542 0.314 71.119 0.946 -18.328 0.946 -18.328 0.314 71.119
17121.5 0.315 71.087 0.946 -18.361 0.946 -18.361 0.315 71.087
17146.458 0.316 71.055 0.946 -18.393 0.946 -18.393 0.316 71.055
17171.417 0.316 71.024 0.946 -18.426 0.946 -18.426 0.316 71.024
17196.375 0.317 70.992 0.946 -18.459 0.946 -18.459 0.317 70.992
17221.333 0.317 70.96 0.945 -18.491 0.945 -18.491 0.317 70.96
17246.292 0.318 70.929 0.945 -18.524 0.945 -18.524 0.318 70.929
17271.25 0.318 70.897 0.945 -18.557 0.945 -18.557 0.318 70.897
17296.208 0.319 70.866 0.945 -18.589 0.945 -18.589 0.319 70.866
17321.167 0.319 70.834 0.945 -18.622 0.945 -18.622 0.319 70.834
17346.125 0.32 70.803 0.944 -18.654 0.944 -18.654 0.32 70.803
17371.083 0.32 70.771 0.944 -18.687 0.944 -18.687 0.32 70.771
17396.042 0.321 70.74 0.944 -18.719 0.944 -18.719 0.321 70.74
17421 0.321 70.708 0.944 -18.752 0.944 -18.752 0.321 70.708
17445.958 0.322 70.677 0.944 -18.784 0.944 -18.784 0.322 70.677
17470.917 0.323 70.646 0.944 -18.816 0.944 -18.816 0.323 70.646
17495.875 0.323 70.614 0.943 -18.849 0.943 -18.849 0.323 70.614
17520.833 0.324 70.583 0.943 -18.881 0.943 -18.881 0.324 70.583
17545.792 0.324 70.551 0.943 -18.913 0.943 -18.913 0.324 70.551
17570.75 0.325 70.52 0.943 -18.946 0.943 -18.946 0.325 70.52
17595.708 0.325 70.489 0.943 -18.978 0.943 -18.978 0.325 70.489
17620.667 0.326 70.458 0.942 -19.01 0.942 -19.01 0.326 70.458
17645.625 0.326 70.426 0.942 -19.043 0.942 -19.043 0.326 70.426
17670.583 0.327 70.395 0.942 -19.075 0.942 -19.075 0.327 70.395
17695.542 0.327 70.364 0.942 -19.107 0.942 -19.107 0.327 70.364
17720.5 0.328 70.333 0.942 -19.139 0.942 -19.139 0.328 70.333
17745.458 0.328 70.301 0.942 -19.171 0.942 -19.171 0.328 70.301
17770.417 0.329 70.27 0.941 -19.203 0.941 -19.203 0.329 70.27
17795.375 0.329 70.239 0.941 -19.235 0.941 -19.235 0.329 70.239
17820.333 0.33 70.208 0.941 -19.268 0.941 -19.268 0.33 70.208
17845.292 0.331 70.177 0.941 -19.3 0.941 -19.3 0.331 70.177
17870.25 0.331 70.146 0.941 -19.332 0.941 -19.332 0.331 70.146
17895.208 0.332 70.115 0.94 -19.364 0.94 -19.364 0.332 70.115
17920.167 0.332 70.084 0.94 -19.396 0.94 -19.396 0.332 70.084
17945.125 0.333 70.052 0.94 -19.428 0.94 -19.428 0.333 70.052
17970.083 0.333 70.021 0.94 -19.46 0.94 -19.46 0.333 70.021
17995.042 0.334 69.99 0.94 -19.492 0.94 -19.492 0.334 69.99
18020 0.334 69.959 0.939 -19.523 0.939 -19.523 0.334 69.959
18044.958 0.335 69.929 0.939 -19.555 0.939 -19.555 0.335 69.929
18069.917 0.335 69.898 0.939 -19.587 0.939 -19.587 0.335 69.898
18094.875 0.336 69.867 0.939 -19.619 0.939 -19.619 0.336 69.867
18119.833 0.336 69.836 0.939 -19.651 0.939 -19.651 0.336 69.836
18144.792 0.337 69.805 0.939 -19.683 0.939 -19.683 0.337 69.805
18169.75 0.337 69.774 0.938 -19.714 0.938 -19.714 0.337 69.774
18194.708 0.338 69.743 0.938 -19.746 0.938 -19.746 0.338 69.743
18219.667 0.338 69.712 0.938 -19.778 0.938 -19.778 0.338 69.712
18244.625 0.339 69.681 0.938 -19.81 0.938 -19.81 0.339 69.681
18269.583 0.339 69.651 0.938 -19.841 0.938 -19.841 0.339 69.651
18294.542 0.34 69.62 0.937 -19.873 0.937 -19.873 0.34 69.62
18319.5 0.34 69.589 0.937 -19.905 0.937 -19.905 0.34 69.589
18344.458 0.341 69.558 0.937 -19.936 0.937 -19.936 0.341 69.558
18369.417 0.342 69.528 0.937 -19.968 0.937 -19.968 0.342 69.528
18394.375 0.342 69.497 0.937 -19.999 0.937 -19.999 0.342 69.497
18419.333 0.343 69.466 0.937 -20.031 0.937 -20.031 0.343 69.466
18444.292 0.343 69.436 0.936 -20.062 0.936 -20.062 0.343 69.436
18469.25 0.344 69.405 0.936 -20.094 0.936 -20.094 0.344 69.405
18494.208 0.344 69.374 0.936 -20.125 0.936 -20.125 0.344 69.374
18519.167 0.345 69.344 0.936 -20.157 0.936 -20.157 0.345 69.344
18544.125 0.345 69.313 0.936 -20.188 0.936 -20.188 0.345 69.313
18569.083 0.346 69.282 0.935 -20.22 0.935 -20.22 0.346 69.282
18594.042 0.346 69.252 0.935 -20.251 0.935 -20.251 0.346 69.252
18619 0.347 69.221 0.935 -20.283 0.935 -20.283 0.347 69.221
18643.958 0.347 69.191 0.935 -20.314 0.935 -20.314 0.347 69.191
18668.917 0.348 69.16 0.935 -20.345 0.935 -20.345 0.348 69.16
18693.875 0.348 69.13 0.934 -20.377 0.934 -20.377 0.348 69.13
18718.833 0.349 69.099 0.934 -20.408 0.934 -20.408 0.349 69.099
18743.792 0.349 69.069 0.934 -20.439 0.934 -20.439 0.349 69.069
18768.75 0.35 69.038 0.934 -20.47 0.934 -20.47 0.35 69.038
18793.708 0.35 69.008 0.934 -20.502 0.934 -20.502 0.35 69.008
18818.667 0.351 68.978 0.933 -20.533 0.933 -20.533 0.351 68.978
18843.625 0.351 68.947 0.933 -20.564 0.933 -20.564 0.351 68.947
18868.583 0.352 68.917 0.933 -20.595 0.933 -20.595 0.352 68.917
18893.542 0.352 68.887 0.933 -20.626 0.933 -20.626 0.352 68.887
18918.5 0.353 68.856 0.933 -20.657 0.933 -20.657 0.353 68.856
18943.458 0.353 68.826 0.933 -20.689 0.933 -20.689 0.353 68.826
18968.417 0.354 68.796 0.932 -20.72 0.932 -20.72 0.354 68.796
18993.375 0.354 68.765 0.932 -20.751 0.932 -20.751 0.354 68.765
19018.333 0.355 68.735 0.932 -20.782 0.932 -20.782 0.355 68.735
19043.292 0.355 68.705 0.932 -20.813 0.932 -20.813 0.355 68.705
19068.25 0.356 68.675 0.932 -20.844 0.932 -20.844 0.356 68.675
19093.208 0.356 68.644 0.931 -20.875 0.931 -20.875 0.356 68.644
19118.167 0.357 68.614 0.931 -20.906 0.931 -20.906 0.357 68.614
19143.125 0.357 68.584 0.931 -20.937 0.931 -20.937 0.357 68.584
19168.083 0.358 68.554 0.931 -20.968 0.931 -20.968 0.358 68.554
19193.042 0.358 68.524 0.931 -20.998 0.931 -20.998 0.358 68.524
19218 0.359 68.494 0.93 -21.029 0.93 -21.029 0.359 68.494
19242.958 0.359 68.464 0.93 -21.06 0.93 -21.06 0.359 68.464
19267.917 0.36 68.434 0.93 -21.091 0.93 -21.091 0.36 68.434
19292.875 0.36 68.403 0.93 -21.122 0.93 -21.122 0.36 68.403
19317.833 0.361 68.373 0.93 -21.153 0.93 -21.153 0.361 68.373
19342.792 0.361 68.343 0.929 -21.183 0.929 -21.183 0.361 68.343
19367.75 0.362 68.313 0.929 -21.214 0.929 -21.214 0.362 68.313
19392.708 0.362 68.283 0.929 -21.245 0.929 -21.245 0.362 68.283
19417.667 0.363 68.253 0.929 -21.276 0.929 -21.276 0.363 68.253
19442.625 0.363 68.224 0.929 -21.306 0.929 -21.306 0.363 68.224
19467.583 0.364 68.194 0.928 -21.337 0.928 -21.337 0.364 68.194
19492.542 0.364 68.164 0.928 -21.368 0.928 -21.368 0.364 68.164
19517.5 0.365 68.134 0.928 -21.398 0.928 -21.398 0.365 68.134
19542.458 0.365 68.104 0.928 -21.429 0.928 -21.429 0.365 68.104
19567.417 0.366 68.074 0.928 -21.46 0.928 -21.46 0.366 68.074
19592.375 0.366 68.044 0.928 -21.49 0.928 -21.49 0.366 68.044
19617.333 0.367 68.014 0.927 -21.521 0.927 -21.521 0.367 68.014
19642.292 0.367 67.985 0.927 -21.551 0.927 -21.551 0.367 67.985
19667.25 0.368 67.955 0.927 -21.582 0.927 -21.582 0.368 67.955
19692.208 0.368 67.925 0.927 -21.612 0.927 -21.612 0.368 67.925
19717.167 0.369 67.895 0.927 -21.643 0.927 -21.643 0.369 67.895
19742.125 0.369 67.865 0.926 -21.673 0.926 -21.673 0.369 67.865
19767.083 0.37 67.836 0.926 -21.704 0.926 -21.704 0.37 67.836
19792.042 0.37 67.806 0.926 -21.734 0.926 -21.734 0.37 67.806
19817 0.371 67.776 0.926 -21.764 0.926 -21.764 0.371 67.776
19841.958 0.371 67.747 0.926 -21.795 0.926 -21.795 0.371 67.747
19866.917 0.372 67.717 0.925 -21.825 0.925 -21.825 0.372 67.717
19891.875 0.372 67.687 0.925 -21.855 0.925 -21.855 0.372 67.687
19916.833 0.373 67.658 0.925 -21.886 0.925 -21.886 0.373 67.658
19941.792 0.373 67.628 0.925 -21.916 0.925 -21.916 0.373 67.628
19966.75 0.374 67.599 0.925 -21.946 0.925 -21.946 0.374 67.599
19991.708 0.374 67.569 0.924 -21.977 0.924 -21.977 0.374 67.569
20016.667 0.375 67.539 0.924 -22.007 0.924 -22.007 0.375 67.539
20041.625 0.375 67.51 0.924 -22.037 0.924 -22.037 0.375 67.51
20066.583 0.376 67.48 0.924 -22.067 0.924 -22.067 0.376 67.48
20091.542 0.376 67.451 0.924 -22.097 0.924 -22.097 0.376 67.451
20116.5 0.377 67.421 0.923 -22.128 0.923 -22.128 0.377 67.421
20141.458 0.377 67.392 0.923 -22.158 0.923 -22.158 0.377 67.392
20166.417 0.378 67.363 0.923 -22.188 0.923 -22.188 0.378 67.363
20191.375 0.378 67.333 0.923 -22.218 0.923 -22.218 0.378 67.333
20216.333 0.379 67.304 0.923 -22.248 0.923 -22.248 0.379 67.304
20241.292 0.379 67.274 0.922 -22.278 0.922 -22.278 0.379 67.274
20266.25 0.38 67.245 0.922 -22.308 0.922 -22.308 0.38 67.245
20291.208 0.38 67.216 0.922 -22.338 0.922 -22.338 0.38 67.216
20316.167 0.381 67.186 0.922 -22.368 0.922 -22.368 0.381 67.186
20341.125 0.381 67.157 0.922 -22.398 0.922 -22.398 0.381 67.157
20366.083 0.382 67.128 0.921 -22.428 0.921 -22.428 0.382 67.128
20391.042 0.382 67.098 0.921 -22.458 0.921 -22.458 0.382 67.098
20416 0.383 67.069 0.921 -22.488 0.921 -22.488 0.383 67.069
20440.958 0.383 67.04 0.921 -22.518 0.921 -22.518 0.383 67.04
20465.917 0.383 67.011 0.921 -22.548 0.921 -22.548 0.383 67.011
20490.875 0.384 66.981 0.92 -22.578 0.92 -22.578 0.384 66.981
20515.833 0.384 66.952 0.92 -22.608 0.92 -22.608 0.384 66.952
20540.792 0.385 66.923 0.92 -22.637 0.92 -22.637 0.385 66.923
20565.75 0.385 66.894 0.92 -22.667 0.92 -22.667 0.385 66.894
20590.708 0.386 66.865 0.92 -22.697 0.92 -22.697 0.386 66.865
20615.667 0.386 66.836 0.919 -22.727 0.919 -22.727 0.386 66.836
20640.625 0.387 66.806 0.919 -22.756 0.919 -22.756 0.387 66.806
20665.583 0.387 66.777 0.919 -22.786 0.919 -22.786 0.387 66.777
20690.542 0.388 66.748 0.919 -22.816 0.919 -22.816 0.388 66.748
20715.5 0.388 66.719 0.919 -22.846 0.919 -22.846 0.388 66.719
20740.458 0.389 66.69 0.918 -22.875 0.918 -22.875 0.389 66.69
20765.417 0.389 66.661 0.918 -22.905 0.918 -22.905 0.389 66.661
20790.375 0.39 66.632 0.918 -22.935 0.918 -22.935 0.39 66.632
20815.333 0.39 66.603 0.918 -22.964 0.918 -22.964 0.39 66.603
20840.292 0.391 66.574 0.918 -22.994 0.918 -22.994 0.391 66.574
20865.25 0.391 66.545 0.917 -23.023 0.917 -23.023 0.391 66.545
20890.208 0.392 66.516 0.917 -23.053 0.917 -23.053 0.392 66.516
20915.167 0.392 66.487 0.917 -23.083 0.917 -23.083 0.392 66.487
20940.125 0.393 66.458 0.917 -23.112 0.917 -23.112 0.393 66.458
20965.083 0.393 66.429 0.917 -23.142 0.917 -23.142 0.393 66.429
20990.042 0.393 66.401 0.916 -23.171 0.916 -23.171 0.393 66.401
21015 0.394 66.372 0.916 -23.2 0.916 -23.2 0.394 66.372
21039.958 0.394 66.343 0.916 -23.23 0.916 -23.23 0.394 66.343
21064.917 0.395 66.314 0.916 -23.259 0.916 -23.259 0.395 66.314
21089.875 0.395 66.285 0.916 -23.289 0.916 -23.289 0.395 66.285
21114.833 0.396 66.256 0.915 -23.318 0.915 -23.318 0.396 66.256
21139.792 0.396 66.228 0.915 -23.348 0.915 -23.348 0.396 66.228
21164.75 0.397 66.199 0.915 -23.377 0.915 -23.377 0.397 66.199
21189.708 0.397 66.17 0.915 -23.406 0.915 -23.406 0.397 66.17
21214.667 0.398 66.141 0.915 -23.436 0.915 -23.436 0.398 66.141
21239.625 0.398 66.113 0.914 -23.465 0.914 -23.465 0.398 66.113
21264.583 0.399 66.084 0.914 -23.494 0.914 -23.494 0.399 66.084
21289.542 0.399 66.055 0.914 -23.523 0.914 -23.523 0.399 66.055
21314.5 0.4 66.027 0.914 -23.553 0.914 -23.553 0.4 66.027
21339.458 0.4 65.998 0.914 -23.582 0.914 -23.582 0.4 65.998
21364.417 0.401 65.969 0.913 -23.611 0.913 -23.611 0.401 65.969
21389.375 0.401 65.941 0.913 -23.64 0.913 -23.64 0.401 65.941
21414.333 0.401 65.912 0.913 -23.669 0.913 -23.669 0.401 65.912
21439.292 0.402 65.884 0.913 -23.699 0.913 -23.699 0.402 65.884
21464.25 0.402 65.855 0.913 -23.728 0.913 -23.728 0.402 65.855
21489.208 0.403 65.827 0.912 -23.757 0.912 -23.757 0.403 65.827
21514.167 0.403 65.798 0.912 -23.786 0.912 -23.786 0.403 65.798
21539.125 0.404 65.769 0.912 -23.815 0.912 -23.815 0.404 65.769
21564.083 0.404 65.741 0.912 -23.844 0.912 -23.844 0.404 65.741
21589.042 0.405 65.713 0.912 -23.873 0.912 -23.873 0.405 65.713
21614 0.405 65.684 0.911 -23.902 0.911 -23.902 0.405 65.684
21638.958 0.406 65.656 0.911 -23.931 0.911 -23.931 0.406 65.656
21663.917 0.406 65.627 0.911 -23.96 0.911 -23.96 0.406 65.627
21688.875 0.407 65.599 0.911 -23.989 0.911 -23.989 0.407 65.599
21713.833 0.407 65.57 0.91 -24.018 0.91 -24.018 0.407 65.57
21738.792 0.407 65.542 0.91 -24.047 0.91 -24.047 0.407 65.542
21763.75 0.408 65.514 0.91 -24.076 0.91 -24.076 0.408 65.514
21788.708 0.408 65.485 0.91 -24.105 0.91 -24.105 0.408 65.485
21813.667 0.409 65.457 0.91 -24.134 0.91 -24.134 0.409 65.457
21838.625 0.409 65.429 0.909 -24.163 0.909 -24.163 0.409 65.429
21863.583 0.41 65.4 0.909 -24.191 0.909 -24.191 0.41 65.4
21888.542 0.41 65.372 0.909 -24.22 0.909 -24.22 0.41 65.372
21913.5 0.411 65.344 0.909 -24.249 0.909 -24.249 0.411 65.344
21938.458 0.411 65.316 0.909 -24.278 0.909 -24.278 0.411 65.316
21963.417 0.412 65.287 0.908 -24.307 0.908 -24.307 0.412 65.287
21988.375 0.412 65.259 0.908 -24.335 0.908 -24.335 0.412 65.259
22013.333 0.413 65.231 0.908 -24.364 0.908 -24.364 0.413 65.231
22038.292 0.413 65.203 0.908 -24.393 0.908 -24.393 0.413 65.203
22063.25 0.413 65.175 0.908 -24.422 0.908 -24.422 0.413 65.175
22088.208 0.414 65.146 0.907 -24.45 0.907 -24.45 0.414 65.146
22113.167 0.414 65.118 0.907 -24.479 0.907 -24.479 0.414 65.118
22138.125 0.415 65.09 0.907 -24.508 0.907 -24.508 0.415 65.09
22163.083 0.415 65.062 0.907 -24.536 0.907 -24.536 0.415 65.062
22188.042 0.416 65.034 0.907 -24.565 0.907 -24.565 0.416 65.034
22213 0.416 65.006 0.906 -24.593 0.906 -24.593 0.416 65.006
22237.958 0.417 64.978 0.906 -24.622 0.906 -24.622 0.417 64.978
22262.917 0.417 64.95 0.906 -24.651 0.906 -24.651 0.417 64.95
22287.875 0.418 64.922 0.906 -24.679 0.906 -24.679 0.418 64.922
22312.833 0.418 64.894 0.906 -24.708 0.906 -24.708 0.418 64.894
22337.792 0.418 64.866 0.905 -24.736 0.905 -24.736 0.418 64.866
22362.75 0.419 64.838 0.905 -24.765 0.905 -24.765 0.419 64.838
22387.708 0.419 64.81 0.905 -24.793 0.905 -24.793 0.419 64.81
22412.667 0.42 64.782 0.905 -24.822 0.905 -24.822 0.42 64.782
22437.625 0.42 64.754 0.905 -24.85 0.905 -24.85 0.42 64.754
22462.583 0.421 64.726 0.904 -24.878 0.904 -24.878 0.421 64.726
22487.542 0.421 64.698 0.904 -24.907 0.904 -24.907 0.421 64.698
22512.5 0.422 64.67 0.904 -24.935 0.904 -24.935 0.422 64.67
22537.458 0.422 64.643 0.904 -24.964 0.904 -24.964 0.422 64.643
22562.417 0.423 64.615 0.903 -24.992 0.903 -24.992 0.423 64.615
22587.375 0.423 64.587 0.903 -25.02 0.903 -25.02 0.423 64.587
22612.333 0.423 64.559 0.903 -25.049 0.903 -25.049 0.423 64.559
22637.292 0.424 64.531 0.903 -25.077 0.903 -25.077 0.424 64.531
22662.25 0.424 64.504 0.903 -25.105 0.903 -25.105 0.424 64.504
22687.208 0.425 64.476 0.902 -25.133 0.902 -25.133 0.425 64.476
22712.167 0.425 64.448 0.902 -25.162 0.902 -25.162 0.425 64.448
22737.125 0.426 64.42 0.902 -25.19 0.902 -25.19 0.426 64.42
22762.083 0.426 64.393 0.902 -25.218 0.902 -25.218 0.426 64.393
22787.042 0.427 64.365 0.902 -25.246 0.902 -25.246 0.427 64.365
22812 0.427 64.337 0.901 -25.274 0.901 -25.274 0.427 64.337
22836.958 0.427 64.31 0.901 -25.303 0.901 -25.303 0.427 64.31
22861.917 0.428 64.282 0.901 -25.331 0.901 -25.331 0.428 64.282
22886.875 0.428 64.254 0.901 -25.359 0.901 -25.359 0.428 64.254
22911.833 0.429 64.227 0.901 -25.387 0.901 -25.387 0.429 64.227
22936.792 0.429 64.199 0.9 -25.415 0.9 -25.415 0.429 64.199
22961.75 0.43 64.172 0.9 -25.443 0.9 -25.443 0.43 64.172
22986.708 0.43 64.144 0.9 -25.471 0.9 -25.471 0.43 64.144
23011.667 0.431 64.116 0.9 -25.499 0.9 -25.499 0.431 64.116
23036.625 0.431 64.089 0.899 -25.527 0.899 -25.527 0.431 64.089
23061.583 0.431 64.061 0.899 -25.555 0.899 -25.555 0.431 64.061
23086.542 0.432 64.034 0.899 -25.583 0.899 -25.583 0.432 64.034
23111.5 0.432 64.006 0.899 -25.611 0.899 -25.611 0.432 64.006
23136.458 0.433 63.979 0.899 -25.639 0.899 -25.639 0.433 63.979
23161.417 0.433 63.951 0.898 -25.667 0.898 -25.667 0.433 63.951
23186.375 0.434 63.924 0.898 -25.695 0.898 -25.695 0.434 63.924
23211.333 0.434 63.897 0.898 -25.723 0.898 -25.723 0.434 63.897
23236.292 0.434 63.869 0.898 -25.751 0.898 -25.751 0.434 63.869
23261.25 0.435 63.842 0.898 -25.779 0.898 -25.779 0.435 63.842
23286.208 0.435 63.814 0.897 -25.806 0.897 -25.806 0.435 63.814
23311.167 0.436 63.787 0.897 -25.834 0.897 -25.834 0.436 63.787
23336.125 0.436 63.76 0.897 -25.862 0.897 -25.862 0.436 63.76
23361.083 0.437 63.732 0.897 -25.89 0.897 -25.89 0.437 63.732
23386.042 0.437 63.705 0.897 -25.918 0.897 -25.918 0.437 63.705
23411 0.438 63.678 0.896 -25.945 0.896 -25.945 0.438 63.678
23435.958 0.438 63.651 0.896 -25.973 0.896 -25.973 0.438 63.651
23460.917 0.438 63.623 0.896 -26.001 0.896 -26.001 0.438 63.623
23485.875 0.439 63.596 0.896 -26.029 0.896 -26.029 0.439 63.596
23510.833 0.439 63.569 0.895 -26.056 0.895 -26.056 0.439 63.569
23535.792 0.44 63.542 0.895 -26.084 0.895 -26.084 0.44 63.542
23560.75 0.44 63.514 0.895 -26.112 0.895 -26.112 0.44 63.514
23585.708 0.441 63.487 0.895 -26.139 0.895 -26.139 0.441 63.487
23610.667 0.441 63.46 0.895 -26.167 0.895 -26.167 0.441 63.46
23635.625 0.441 63.433 0.894 -26.194 0.894 -26.194 0.441 63.433
23660.583 0.442 63.406 0.894 -26.222 0.894 -26.222 0.442 63.406
23685.542 0.442 63.379 0.894 -26.25 0.894 -26.25 0.442 63.379
23710.5 0.443 63.352 0.894 -26.277 0.894 -26.277 0.443 63.352
23735.458 0.443 63.324 0.894 -26.305 0.894 -26.305 0.443 63.324
23760.417 0.444 63.297 0.893 -26.332 0.893 -26.332 0.444 63.297
23785.375 0.444 63.27 0.893 -26.36 0.893 -26.36 0.444 63.27
23810.333 0.444 63.243 0.893 -26.387 0.893 -26.387 0.444 63.243
23835.292 0.445 63.216 0.893 -26.415 0.893 -26.415 0.445 63.216
23860.25 0.445 63.189 0.893 -26.442 0.893 -26.442 0.445 63.189
23885.208 0.446 63.162 0.892 -26.47 0.892 -26.47 0.446 63.162
23910.167 0.446 63.135 0.892 -26.497 0.892 -26.497 0.446 63.135
23935.125 0.447 63.108 0.892 -26.524 0.892 -26.524 0.447 63.108
23960.083 0.447 63.081 0.892 -26.552 0.892 -26.552 0.447 63.081
23985.042 0.447 63.054 0.891 -26.579 0.891 -26.579 0.447 63.054
24010 0.448 63.027 0.891 -26.606 0.891 -26.606 0.448 63.027
24034.958 0.448 63.001 0.891 -26.634 0.891 -26.634 0.448 63.001
24059.917 0.449 62.974 0.891 -26.661 0.891 -26.661 0.449 62.974
24084.875 0.449 62.947 0.891 -26.688 0.891 -26.688 0.449 62.947
24109.833 0.45 62.92 0.89 -26.716 0.89 -26.716 0.45 62.92
24134.792 0.45 62.893 0.89 -26.743 0.89 -26.743 0.45 62.893
24159.75 0.45 62.866 0.89 -26.77 0.89 -26.77 0.45 62.866
24184.708 0.451 62.839 0.89 -26.797 0.89 -26.797 0.451 62.839
24209.667 0.451 62.813 0.89 -26.825 0.89 -26.825 0.451 62.813
24234.625 0.452 62.786 0.889 -26.852 0.889 -26.852 0.452 62.786
24259.583 0.452 62.759 0.889 -26.879 0.889 -26.879 0.452 62.759
24284.542 0.453 62.732 0.889 -26.906 0.889 -26.906 0.453 62.732
24309.5 0.453 62.706 0.889 -26.933 0.889 -26.933 0.453 62.706
24334.458 0.453 62.679 0.888 -26.961 0.888 -26.961 0.453 62.679
24359.417 0.454 62.652 0.888 -26.988 0.888 -26.988 0.454 62.652
24384.375 0.454 62.626 0.888 -27.015 0.888 -27.015 0.454 62.626
24409.333 0.455 62.599 0.888 -27.042 0.888 -27.042 0.455 62.599
24434.292 0.455 62.572 0.888 -27.069 0.888 -27.069 0.455 62.572
24459.25 0.455 62.546 0.887 -27.096 0.887 -27.096 0.455 62.546
24484.208 0.456 62.519 0.887 -27.123 0.887 -27.123 0.456 62.519
24509.167 0.456 62.492 0.887 -27.15 0.887 -27.15 0.456 62.492
24534.125 0.457 62.466 0.887 -27.177 0.887 -27.177 0.457 62.466
24559.083 0.457 62.439 0.887 -27.204 0.887 -27.204 0.457 62.439
24584.042 0.458 62.413 0.886 -27.231 0.886 -27.231 0.458 62.413
24609 0.458 62.386 0.886 -27.258 0.886 -27.258 0.458 62.386
24633.958 0.458 62.36 0.886 -27.285 0.886 -27.285 0.458 62.36
24658.917 0.459 62.333 0.886 -27.312 0.886 -27.312 0.459 62.333
24683.875 0.459 62.307 0.885 -27.339 0.885 -27.339 0.459 62.307
24708.833 0.46 62.28 0.885 -27.366 0.885 -27.366 0.46 62.28
24733.792 0.46 62.254 0.885 -27.392 0.885 -27.392 0.46 62.254
24758.75 0.461 62.227 0.885 -27.419 0.885 -27.419 0.461 62.227
24783.708 0.461 62.201 0.885 -27.446 0.885 -27.446 0.461 62.201
24808.667 0.461 62.174 0.884 -27.473 0.884 -27.473 0.461 62.174
24833.625 0.462 62.148 0.884 -27.5 0.884 -27.5 0.462 62.148
24858.583 0.462 62.122 0.884 -27.527 0.884 -27.527 0.462 62.122
24883.542 0.463 62.095 0.884 -27.553 0.884 -27.553 0.463 62.095
24908.5 0.463 62.069 0.884 -27.58 0.884 -27.58 0.463 62.069
24933.458 0.463 62.042 0.883 -27.607 0.883 -27.607 0.463 62.042
24958.417 0.464 62.016 0.883 -27.634 0.883 -27.634 0.464 62.016
24983.375 0.464 61.99 0.883 -27.66 0.883 -27.66 0.464 61.99
25008.333 0.465 61.964 0.883 -27.687 0.883 -27.687 0.465 61.964
25033.292 0.465 61.937 0.882 -27.714 0.882 -27.714 0.465 61.937
25058.25 0.465 61.911 0.882 -27.74 0.882 -27.74 0.465 61.911
25083.208 0.466 61.885 0.882 -27.767 0.882 -27.767 0.466 61.885
25108.167 0.466 61.858 0.882 -27.794 0.882 -27.794 0.466 61.858
25133.125 0.467 61.832 0.882 -27.82 0.882 -27.82 0.467 61.832
25158.083 0.467 61.806 0.881 -27.847 0.881 -27.847 0.467 61.806
25183.042 0.468 61.78 0.881 -27.873 0.881 -27.873 0.468 61.78
25208 0.468 61.754 0.881 -27.9 0.881 -27.9 0.468 61.754
25232.958 0.468 61.728 0.881 -27.927 0.881 -27.927 0.468 61.728
25257.917 0.469 61.701 0.881 -27.953 0.881 -27.953 0.469 61.701
25282.875 0.469 61.675 0.88 -27.98 0.88 -27.98 0.469 61.675
25307.833 0.47 61.649 0.88 -28.006 0.88 -28.006 0.47 61.649
25332.792 0.47 61.623 0.88 -28.033 0.88 -28.033 0.47 61.623
25357.75 0.47 61.597 0.88 -28.059 0.88 -28.059 0.47 61.597
25382.708 0.471 61.571 0.879 -28.086 0.879 -28.086 0.471 61.571
25407.667 0.471 61.545 0.879 -28.112 0.879 -28.112 0.471 61.545
25432.625 0.472 61.519 0.879 -28.138 0.879 -28.138 0.472 61.519
25457.583 0.472 61.493 0.879 -28.165 0.879 -28.165 0.472 61.493
25482.542 0.472 61.467 0.879 -28.191 0.879 -28.191 0.472 61.467
25507.5 0.473 61.441 0.878 -28.218 0.878 -28.218 0.473 61.441
25532.458 0.473 61.415 0.878 -28.244 0.878 -28.244 0.473 61.415
25557.417 0.474 61.389 0.878 -28.27 0.878 -28.27 0.474 61.389
25582.375 0.474 61.363 0.878 -28.297 0.878 -28.297 0.474 61.363
25607.333 0.474 61.337 0.877 -28.323 0.877 -28.323 0.474 61.337
25632.292 0.475 61.311 0.877 -28.349 0.877 -28.349 0.475 61.311
25657.25 0.475 61.285 0.877 -28.375 0.877 -28.375 0.475 61.285
25682.208 0.476 61.259 0.877 -28.402 0.877 -28.402 0.476 61.259
25707.167 0.476 61.233 0.877 -28.428 0.877 -28.428 0.476 61.233
25732.125 0.476 61.207 0.876 -28.454 0.876 -28.454 0.476 61.207
25757.083 0.477 61.182 0.876 -28.48 0.876 -28.48 0.477 61.182
25782.042 0.477 61.156 0.876 -28.507 0.876 -28.507 0.477 61.156
25807 0.478 61.13 0.876 -28.533 0.876 -28.533 0.478 61.13
25831.958 0.478 61.104 0.876 -28.559 0.876 -28.559 0.478 61.104
25856.917 0.478 61.078 0.875 -28.585 0.875 -28.585 0.478 61.078
25881.875 0.479 61.053 0.875 -28.611 0.875 -28.611 0.479 61.053
25906.833 0.479 61.027 0.875 -28.637 0.875 -28.637 0.479 61.027
25931.792 0.48 61.001 0.875 -28.663 0.875 -28.663 0.48 61.001
25956.75 0.48 60.975 0.874 -28.69 0.874 -28.69 0.48 60.975
25981.708 0.48 60.95 0.874 -28.716 0.874 -28.716 0.48 60.95
26006.667 0.481 60.924 0.874 -28.742 0.874 -28.742 0.481 60.924
26031.625 0.481 60.898 0.874 -28.768 0.874 -28.768 0.481 60.898
26056.583 0.482 60.873 0.874 -28.794 0.874 -28.794 0.482 60.873
26081.542 0.482 60.847 0.873 -28.82 0.873 -28.82 0.482 60.847
26106.5 0.482 60.821 0.873 -28.846 0.873 -28.846 0.482 60.821
26131.458 0.483 60.796 0.873 -28.872 0.873 -28.872 0.483 60.796
26156.417 0.483 60.77 0.873 -28.898 0.873 -28.898 0.483 60.77
26181.375 0.484 60.745 0.872 -28.924 0.872 -28.924 0.484 60.745
26206.333 0.484 60.719 0.872 -28.95 0.872 -28.95 0.484 60.719
26231.292 0.484 60.693 0.872 -28.975 0.872 -28.975 0.484 60.693
26256.25 0.485 60.668 0.872 -29.001 0.872 -29.001 0.485 60.668
26281.208 0.485 60.642 0.872 -29.027 0.872 -29.027 0.485 60.642
26306.167 0.486 60.617 0.871 -29.053 0.871 -29.053 0.486 60.617
26331.125 0.486 60.591 0.871 -29.079 0.871 -29.079 0.486 60.591
26356.083 0.486 60.566 0.871 -29.105 0.871 -29.105 0.486 60.566
26381.042 0.487 60.54 0.871 -29.131 0.871 -29.131 0.487 60.54
26406 0.487 60.515 0.87 -29.156 0.87 -29.156 0.487 60.515
26430.958 0.488 60.489 0.87 -29.182 0.87 -29.182 0.488 60.489
26455.917 0.488 60.464 0.87 -29.208 0.87 -29.208 0.488 60.464
26480.875 0.488 60.439 0.87 -29.234 0.87 -29.234 0.488 60.439
26505.833 0.489 60.413 0.87 -29.26 0.87 -29.26 0.489 60.413
26530.792 0.489 60.388 0.869 -29.285 0.869 -29.285 0.489 60.388
26555.75 0.49 60.362 0.869 -29.311 0.869 -29.311 0.49 60.362
26580.708 0.49 60.337 0.869 -29.337 0.869 -29.337 0.49 60.337
26605.667 0.49 60.312 0.869 -29.362 0.869 -29.362 0.49 60.312
26630.625 0.491 60.286 0.869 -29.388 0.869 -29.388 0.491 60.286
26655.583 0.491 60.261 0.868 -29.414 0.868 -29.414 0.491 60.261
26680.542 0.492 60.236 0.868 -29.439 0.868 -29.439 0.492 60.236
26705.5 0.492 60.211 0.868 -29.465 0.868 -29.465 0.492 60.211
26730.458 0.492 60.185 0.868 -29.491 0.868 -29.491 0.492 60.185
26755.417 0.493 60.16 0.867 -29.516 0.867 -29.516 0.493 60.16
26780.375 0.493 60.135 0.867 -29.542 0.867 -29.542 0.493 60.135
26805.333 0.493 60.11 0.867 -29.567 0.867 -29.567 0.493 60.11
26830.292 0.494 60.084 0.867 -29.593 0.867 -29.593 0.494 60.084
26855.25 0.494 60.059 0.867 -29.618 0.867 -29.618 0.494 60.059
26880.208 0.495 60.034 0.866 -29.644 0.866 -29.644 0.495 60.034
26905.167 0.495 60.009 0.866 -29.669 0.866 -29.669 0.495 60.009
26930.125 0.495 59.984 0.866 -29.695 0.866 -29.695 0.495 59.984
26955.083 0.496 59.959 0.866 -29.72 0.866 -29.72 0.496 59.959
26980.042 0.496 59.933 0.865 -29.746 0.865 -29.746 0.496 59.933
27005 0.497 59.908 0.865 -29.771 0.865 -29.771 0.497 59.908
27029.958 0.497 59.883 0.865 -29.797 0.865 -29.797 0.497 59.883
27054.917 0.497 59.858 0.865 -29.822 0.865 -29.822 0.497 59.858
27079.875 0.498 59.833 0.865 -29.847 0.865 -29.847 0.498 59.833
27104.833 0.498 59.808 0.864 -29.873 0.864 -29.873 0.498 59.808
27129.792 0.498 59.783 0.864 -29.898 0.864 -29.898 0.498 59.783
27154.75 0.499 59.758 0.864 -29.923 0.864 -29.923 0.499 59.758
27179.708 0.499 59.733 0.864 -29.949 0.864 -29.949 0.499 59.733
27204.667 0.5 59.708 0.863 -29.974 0.863 -29.974 0.5 59.708
27229.625 0.5 59.683 0.863 -29.999 0.863 -29.999 0.5 59.683
27254.583 0.5 59.658 0.863 -30.025 0.863 -30.025 0.5 59.658
27279.542 0.501 59.633 0.863 -30.05 0.863 -30.05 0.501 59.633
27304.5 0.501 59.608 0.863 -30.075 0.863 -30.075 0.501 59.608
27329.458 0.502 59.583 0.862 -30.1 0.862 -30.1 0.502 59.583
27354.417 0.502 59.558 0.862 -30.126 0.862 -30.126 0.502 59.558
27379.375 0.502 59.533 0.862 -30.151 0.862 -30.151 0.502 59.533
27404.333 0.503 59.509 0.862 -30.176 0.862 -30.176 0.503 59.509
27429.292 0.503 59.484 0.861 -30.201 0.861 -30.201 0.503 59.484
27454.25 0.503 59.459 0.861 -30.226 0.861 -30.226 0.503 59.459
27479.208 0.504 59.434 0.861 -30.252 0.861 -30.252 0.504 59.434
27504.167 0.504 59.409 0.861 -30.277 0.861 -30.277 0.504 59.409
27529.125 0.505 59.384 0.861 -30.302 0.861 -30.302 0.505 59.384
27554.083 0.505 59.36 0.86 -30.327 0.86 -30.327 0.505 59.36
27579.042 0.505 59.335 0.86 -30.352 0.86 -30.352 0.505 59.335
27604 0.506 59.31 0.86 -30.377 0.86 -30.377 0.506 59.31
27628.958 0.506 59.285 0.86 -30.402 0.86 -30.402 0.506 59.285
27653.917 0.506 59.261 0.86 -30.427 0.86 -30.427 0.506 59.261
27678.875 0.507 59.236 0.859 -30.452 0.859 -30.452 0.507 59.236
27703.833 0.507 59.211 0.859 -30.477 0.859 -30.477 0.507 59.211
27728.792 0.508 59.187 0.859 -30.502 0.859 -30.502 0.508 59.187
27753.75 0.508 59.162 0.859 -30.527 0.859 -30.527 0.508 59.162
27778.708 0.508 59.137 0.858 -30.552 0.858 -30.552 0.508 59.137
27803.667 0.509 59.113 0.858 -30.577 0.858 -30.577 0.509 59.113
27828.625 0.509 59.088 0.858 -30.602 0.858 -30.602 0.509 59.088
27853.583 0.509 59.063 0.858 -30.627 0.858 -30.627 0.509 59.063
27878.542 0.51 59.039 0.858 -30.652 0.858 -30.652 0.51 59.039
27903.5 0.51 59.014 0.857 -30.677 0.857 -30.677 0.51 59.014
27928.458 0.511 58.99 0.857 -30.702 0.857 -30.702 0.511 58.99
27953.417 0.511 58.965 0.857 -30.726 0.857 -30.726 0.511 58.965
27978.375 0.511 58.941 0.857 -30.751 0.857 -30.751 0.511 58.941
28003.333 0.512 58.916 0.856 -30.776 0.856 -30.776 0.512 58.916
28028.292 0.512 58.892 0.856 -30.801 0.856 -30.801 0.512 58.892
28053.25 0.512 58.867 0.856 -30.826 0.856 -30.826 0.512 58.867
28078.208 0.513 58.843 0.856 -30.85 0.856 -30.85 0.513 58.843
28103.167 0.513 58.818 0.856 -30.875 0.856 -30.875 0.513 58.818
28128.125 0.514 58.794 0.855 -30.9 0.855 -30.9 0.514 58.794
28153.083 0.514 58.769 0.855 -30.925 0.855 -30.925 0.514 58.769
28178.042 0.514 58.745 0.855 -30.949 0.855 -30.949 0.514 58.745
28203 0.515 58.72 0.855 -30.974 0.855 -30.974 0.515 58.72
28227.958 0.515 58.696 0.854 -30.999 0.854 -30.999 0.515 58.696
28252.917 0.515 58.672 0.854 -31.024 0.854 -31.024 0.515 58.672
28277.875 0.516 58.647 0.854 -31.048 0.854 -31.048 0.516 58.647
28302.833 0.516 58.623 0.854 -31.073 0.854 -31.073 0.516 58.623
28327.792 0.517 58.598 0.854 -31.098 0.854 -31.098 0.517 58.598
28352.75 0.517 58.574 0.853 -31.122 0.853 -31.122 0.517 58.574
28377.708 0.517 58.55 0.853 -31.147 0.853 -31.147 0.517 58.55
28402.667 0.518 58.526 0.853 -31.171 0.853 -31.171 0.518 58.526
28427.625 0.518 58.501 0.853 -31.196 0.853 -31.196 0.518 58.501
28452.583 0.518 58.477 0.852 -31.22 0.852 -31.22 0.518 58.477
28477.542 0.519 58.453 0.852 -31.245 0.852 -31.245 0.519 58.453
28502.5 0.519 58.428 0.852 -31.27 0.852 -31.27 0.519 58.428
28527.458 0.519 58.404 0.852 -31.294 0.852 -31.294 0.519 58.404
28552.417 0.52 58.38 0.852 -31.319 0.852 -31.319 0.52 58.38
28577.375 0.52 58.356 0.851 -31.343 0.851 -31.343 0.52 58.356
28602.333 0.521 58.332 0.851 -31.368 0.851 -31.368 0.521 58.332
28627.292 0.521 58.307 0.851 -31.392 0.851 -31.392 0.521 58.307
28652.25 0.521 58.283 0.851 -31.416 0.851 -31.416 0.521 58.283
28677.208 0.522 58.259 0.85 -31.441 0.85 -31.441 0.522 58.259
28702.167 0.522 58.235 0.85 -31.465 0.85 -31.465 0.522 58.235
28727.125 0.522 58.211 0.85 -31.49 0.85 -31.49 0.522 58.211
28752.083 0.523 58.187 0.85 -31.514 0.85 -31.514 0.523 58.187
28777.042 0.523 58.163 0.85 -31.538 0.85 -31.538 0.523 58.163
28802 0.523 58.139 0.849 -31.563 0.849 -31.563 0.523 58.139
28826.958 0.524 58.115 0.849 -31.587 0.849 -31.587 0.524 58.115
28851.917 0.524 58.091 0.849 -31.611 0.849 -31.611 0.524 58.091
28876.875 0.525 58.067 0.849 -31.636 0.849 -31.636 0.525 58.067
28901.833 0.525 58.043 0.848 -31.66 0.848 -31.66 0.525 58.043
28926.792 0.525 58.019 0.848 -31.684 0.848 -31.684 0.525 58.019
28951.75 0.526 57.995 0.848 -31.709 0.848 -31.709 0.526 57.995
28976.708 0.526 57.971 0.848 -31.733 0.848 -31.733 0.526 57.971
29001.667 0.526 57.947 0.848 -31.757 0.848 -31.757 0.526 57.947
29026.625 0.527 57.923 0.847 -31.781 0.847 -31.781 0.527 57.923
29051.583 0.527 57.899 0.847 -31.806 0.847 -31.806 0.527 57.899
29076.542 0.527 57.875 0.847 -31.83 0.847 -31.83 0.527 57.875
29101.5 0.528 57.851 0.847 -31.854 0.847 -31.854 0.528 57.851
29126.458 0.528 57.827 0.846 -31.878 0.846 -31.878 0.528 57.827
29151.417 0.528 57.803 0.846 -31.902 0.846 -31.902 0.528 57.803
29176.375 0.529 57.779 0.846 -31.926 0.846 -31.926 0.529 57.779
29201.333 0.529 57.755 0.846 -31.951 0.846 -31.951 0.529 57.755
29226.292 0.53 57.732 0.846 -31.975 0.846 -31.975 0.53 57.732
29251.25 0.53 57.708 0.845 -31.999 0.845 -31.999 0.53 57.708
29276.208 0.53 57.684 0.845 -32.023 0.845 -32.023 0.53 57.684
29301.167 0.531 57.66 0.845 -32.047 0.845 -32.047 0.531 57.66
29326.125 0.531 57.636 0.845 -32.071 0.845 -32.071 0.531 57.636
29351.083 0.531 57.613 0.844 -32.095 0.844 -32.095 0.531 57.613
29376.042 0.532 57.589 0.844 -32.119 0.844 -32.119 0.532 57.589
29401 0.532 57.565 0.844 -32.143 0.844 -32.143 0.532 57.565
29425.958 0.532 57.541 0.844 -32.167 0.844 -32.167 0.532 57.541
29450.917 0.533 57.518 0.844 -32.191 0.844 -32.191 0.533 57.518
29475.875 0.533 57.494 0.843 -32.215 0.843 -32.215 0.533 57.494
29500.833 0.533 57.47 0.843 -32.239 0.843 -32.239 0.533 57.47
29525.792 0.534 57.447 0.843 -32.263 0.843 -32.263 0.534 57.447
29550.75 0.534 57.423 0.843 -32.287 0.843 -32.287 0.534 57.423
29575.708 0.535 57.399 0.842 -32.311 0.842 -32.311 0.535 57.399
29600.667 0.535 57.376 0.842 -32.335 0.842 -32.335 0.535 57.376
29625.625 0.535 57.352 0.842 -32.358 0.842 -32.358 0.535 57.352
29650.583 0.536 57.329 0.842 -32.382 0.842 -32.382 0.536 57.329
29675.542 0.536 57.305 0.842 -32.406 0.842 -32.406 0.536 57.305
29700.5 0.536 57.281 0.841 -32.43 0.841 -32.43 0.536 57.281
29725.458 0.537 57.258 0.841 -32.454 0.841 -32.454 0.537 57.258
29750.417 0.537 57.234 0.841 -32.478 0.841 -32.478 0.537 57.234
29775.375 0.537 57.211 0.841 -32.501 0.841 -32.501 0.537 57.211
29800.333 0.538 57.187 0.84 -32.525 0.84 -32.525 0.538 57.187
29825.292 0.538 57.164 0.84 -32.549 0.84 -32.549 0.538 57.164
29850.25 0.538 57.14 0.84 -32.573 0.84 -32.573 0.538 57.14
29875.208 0.539 57.117 0.84 -32.596 0.84 -32.596 0.539 57.117
29900.167 0.539 57.093 0.84 -32.62 0.84 -32.62 0.539 57.093
29925.125 0.539 57.07 0.839 -32.644 0.839 -32.644 0.539 57.07
29950.083 0.54 57.046 0.839 -32.668 0.839 -32.668 0.54 57.046
29975.042 0.54 57.023 0.839 -32.691 0.839 -32.691 0.54 57.023
30000 0.54 57 0.839 -32.715 0.839 -32.715 0.54 57
