!	AVX Thin Film Operation 	Date: April 2014		
!	Description: Accu-P® Series, Thin Film  SMD RF Capacitor
!	Part Number: 02013J2R9QBSTR					
!								
# MHZ S MA R 50

50 0.996 -5.206 0.091 84.781 0.091 84.781 0.996 -5.206
74.958 0.991 -7.779 0.135 82.202 0.135 82.202 0.991 -7.779
99.917 0.984 -10.321 0.179 79.653 0.179 79.653 0.984 -10.321
124.875 0.975 -12.825 0.222 77.143 0.222 77.143 0.975 -12.825
149.833 0.964 -15.281 0.264 74.681 0.264 74.681 0.964 -15.281
174.792 0.953 -17.682 0.304 72.273 0.304 72.273 0.953 -17.682
199.75 0.939 -20.023 0.342 69.925 0.342 69.925 0.939 -20.023
224.708 0.925 -22.298 0.379 67.644 0.379 67.644 0.925 -22.298
249.667 0.909 -24.504 0.415 65.431 0.415 65.431 0.909 -24.504
274.625 0.893 -26.637 0.448 63.291 0.448 63.291 0.893 -26.637
299.583 0.877 -28.696 0.48 61.226 0.48 61.226 0.877 -28.696
324.542 0.859 -30.68 0.51 59.235 0.51 59.235 0.859 -30.68
349.5 0.842 -32.589 0.539 57.32 0.539 57.32 0.842 -32.589
374.458 0.824 -34.422 0.565 55.48 0.565 55.48 0.824 -34.422
399.417 0.806 -36.182 0.59 53.714 0.59 53.714 0.806 -36.182
424.375 0.788 -37.869 0.614 52.02 0.614 52.02 0.788 -37.869
449.333 0.77 -39.485 0.636 50.398 0.636 50.398 0.77 -39.485
474.292 0.753 -41.033 0.656 48.844 0.656 48.844 0.753 -41.033
499.25 0.736 -42.514 0.676 47.356 0.676 47.356 0.736 -42.514
524.208 0.719 -43.931 0.694 45.932 0.694 45.932 0.719 -43.931
549.167 0.702 -45.287 0.711 44.569 0.711 44.569 0.702 -45.287
574.125 0.685 -46.585 0.726 43.265 0.726 43.265 0.685 -46.585
599.083 0.669 -47.826 0.741 42.016 0.741 42.016 0.669 -47.826
624.042 0.654 -49.014 0.755 40.822 0.755 40.822 0.654 -49.014
649 0.638 -50.151 0.768 39.678 0.768 39.678 0.638 -50.151
673.958 0.624 -51.24 0.78 38.582 0.78 38.582 0.624 -51.24
698.917 0.609 -52.282 0.791 37.533 0.791 37.533 0.609 -52.282
723.875 0.595 -53.281 0.802 36.527 0.802 36.527 0.595 -53.281
748.833 0.582 -54.239 0.811 35.563 0.811 35.563 0.582 -54.239
773.792 0.568 -55.157 0.821 34.638 0.821 34.638 0.568 -55.157
798.75 0.556 -56.037 0.829 33.751 0.829 33.751 0.556 -56.037
823.708 0.543 -56.882 0.838 32.898 0.838 32.898 0.543 -56.882
848.667 0.531 -57.694 0.845 32.08 0.845 32.08 0.531 -57.694
873.625 0.519 -58.474 0.852 31.293 0.852 31.293 0.519 -58.474
898.583 0.508 -59.223 0.859 30.536 0.859 30.536 0.508 -59.223
923.542 0.497 -59.944 0.866 29.808 0.866 29.808 0.497 -59.944
948.5 0.486 -60.638 0.872 29.107 0.872 29.107 0.486 -60.638
973.458 0.476 -61.306 0.877 28.432 0.877 28.432 0.476 -61.306
998.417 0.466 -61.949 0.883 27.782 0.883 27.782 0.466 -61.949
1023.375 0.456 -62.569 0.888 27.154 0.888 27.154 0.456 -62.569
1048.333 0.447 -63.167 0.892 26.549 0.892 26.549 0.447 -63.167
1073.292 0.438 -63.744 0.897 25.965 0.897 25.965 0.438 -63.744
1098.25 0.429 -64.301 0.901 25.4 0.901 25.4 0.429 -64.301
1123.208 0.42 -64.839 0.905 24.855 0.905 24.855 0.42 -64.839
1148.167 0.412 -65.359 0.909 24.327 0.909 24.327 0.412 -65.359
1173.125 0.404 -65.862 0.913 23.817 0.913 23.817 0.404 -65.862
1198.083 0.396 -66.348 0.916 23.323 0.916 23.323 0.396 -66.348
1223.042 0.388 -66.818 0.919 22.845 0.919 22.845 0.388 -66.818
1248 0.381 -67.274 0.922 22.382 0.922 22.382 0.381 -67.274
1272.958 0.374 -67.715 0.925 21.933 0.925 21.933 0.374 -67.715
1297.917 0.366 -68.143 0.928 21.497 0.928 21.497 0.366 -68.143
1322.875 0.36 -68.557 0.931 21.075 0.931 21.075 0.36 -68.557
1347.833 0.353 -68.96 0.933 20.665 0.933 20.665 0.353 -68.96
1372.792 0.346 -69.35 0.936 20.266 0.936 20.266 0.346 -69.35
1397.75 0.34 -69.729 0.938 19.879 0.938 19.879 0.34 -69.729
1422.708 0.334 -70.097 0.94 19.503 0.94 19.503 0.334 -70.097
1447.667 0.328 -70.455 0.942 19.137 0.942 19.137 0.328 -70.455
1472.625 0.322 -70.802 0.944 18.781 0.944 18.781 0.322 -70.802
1497.583 0.316 -71.14 0.946 18.434 0.946 18.434 0.316 -71.14
1522.542 0.311 -71.469 0.948 18.097 0.948 18.097 0.311 -71.469
1547.5 0.305 -71.789 0.95 17.768 0.95 17.768 0.305 -71.789
1572.458 0.3 -72.101 0.952 17.448 0.952 17.448 0.3 -72.101
1597.417 0.295 -72.404 0.953 17.136 0.953 17.136 0.295 -72.404
1622.375 0.29 -72.7 0.955 16.832 0.955 16.832 0.29 -72.7
1647.333 0.285 -72.988 0.956 16.535 0.956 16.535 0.285 -72.988
1672.292 0.28 -73.269 0.958 16.245 0.958 16.245 0.28 -73.269
1697.25 0.275 -73.543 0.959 15.962 0.959 15.962 0.275 -73.543
1722.208 0.27 -73.81 0.96 15.685 0.96 15.685 0.27 -73.81
1747.167 0.266 -74.071 0.962 15.415 0.962 15.415 0.266 -74.071
1772.125 0.261 -74.325 0.963 15.151 0.963 15.151 0.261 -74.325
1797.083 0.257 -74.574 0.964 14.893 0.964 14.893 0.257 -74.574
1822.042 0.253 -74.816 0.965 14.641 0.965 14.641 0.253 -74.816
1847 0.249 -75.054 0.966 14.394 0.966 14.394 0.249 -75.054
1871.958 0.245 -75.285 0.967 14.152 0.967 14.152 0.245 -75.285
1896.917 0.241 -75.512 0.968 13.916 0.968 13.916 0.241 -75.512
1921.875 0.237 -75.733 0.969 13.684 0.969 13.684 0.237 -75.733
1946.833 0.233 -75.95 0.97 13.458 0.97 13.458 0.233 -75.95
1971.792 0.229 -76.162 0.971 13.235 0.971 13.235 0.229 -76.162
1996.75 0.225 -76.369 0.972 13.018 0.972 13.018 0.225 -76.369
2021.708 0.222 -76.572 0.973 12.804 0.973 12.804 0.222 -76.572
2046.667 0.218 -76.771 0.974 12.595 0.974 12.595 0.218 -76.771
2071.625 0.215 -76.965 0.974 12.39 0.974 12.39 0.215 -76.965
2096.583 0.211 -77.156 0.975 12.188 0.975 12.188 0.211 -77.156
2121.542 0.208 -77.342 0.976 11.99 0.976 11.99 0.208 -77.342
2146.5 0.204 -77.525 0.976 11.796 0.976 11.796 0.204 -77.525
2171.458 0.201 -77.704 0.977 11.606 0.977 11.606 0.201 -77.704
2196.417 0.198 -77.88 0.978 11.419 0.978 11.419 0.198 -77.88
2221.375 0.195 -78.052 0.978 11.235 0.978 11.235 0.195 -78.052
2246.333 0.192 -78.22 0.979 11.054 0.979 11.054 0.192 -78.22
2271.292 0.189 -78.386 0.98 10.876 0.98 10.876 0.189 -78.386
2296.25 0.186 -78.548 0.98 10.702 0.98 10.702 0.186 -78.548
2321.208 0.183 -78.707 0.981 10.53 0.981 10.53 0.183 -78.707
2346.167 0.18 -78.863 0.981 10.362 0.981 10.362 0.18 -78.863
2371.125 0.177 -79.016 0.982 10.195 0.982 10.195 0.177 -79.016
2396.083 0.174 -79.167 0.982 10.032 0.982 10.032 0.174 -79.167
2421.042 0.171 -79.314 0.983 9.871 0.983 9.871 0.171 -79.314
2446 0.169 -79.459 0.983 9.713 0.983 9.713 0.169 -79.459
2470.958 0.166 -79.601 0.984 9.557 0.984 9.557 0.166 -79.601
2495.917 0.163 -79.74 0.984 9.404 0.984 9.404 0.163 -79.74
2520.875 0.161 -79.877 0.985 9.253 0.985 9.253 0.161 -79.877
2545.833 0.158 -80.012 0.985 9.104 0.985 9.104 0.158 -80.012
2570.792 0.156 -80.144 0.985 8.957 0.985 8.957 0.156 -80.144
2595.75 0.153 -80.273 0.986 8.813 0.986 8.813 0.153 -80.273
2620.708 0.151 -80.4 0.986 8.67 0.986 8.67 0.151 -80.4
2645.667 0.148 -80.525 0.986 8.53 0.986 8.53 0.148 -80.525
2670.625 0.146 -80.648 0.987 8.391 0.987 8.391 0.146 -80.648
2695.583 0.144 -80.768 0.987 8.254 0.987 8.254 0.144 -80.768
2720.542 0.141 -80.887 0.988 8.12 0.988 8.12 0.141 -80.887
2745.5 0.139 -81.003 0.988 7.987 0.988 7.987 0.139 -81.003
2770.458 0.137 -81.117 0.988 7.856 0.988 7.856 0.137 -81.117
2795.417 0.134 -81.229 0.988 7.726 0.988 7.726 0.134 -81.229
2820.375 0.132 -81.339 0.989 7.598 0.989 7.598 0.132 -81.339
2845.333 0.13 -81.447 0.989 7.472 0.989 7.472 0.13 -81.447
2870.292 0.128 -81.553 0.989 7.348 0.989 7.348 0.128 -81.553
2895.25 0.126 -81.657 0.99 7.225 0.99 7.225 0.126 -81.657
2920.208 0.124 -81.759 0.99 7.103 0.99 7.103 0.124 -81.759
2945.167 0.122 -81.86 0.99 6.983 0.99 6.983 0.122 -81.86
2970.125 0.12 -81.958 0.99 6.865 0.99 6.865 0.12 -81.958
2995.083 0.118 -82.054 0.991 6.748 0.991 6.748 0.118 -82.054
3020.042 0.116 -82.149 0.991 6.632 0.991 6.632 0.116 -82.149
3045 0.114 -82.242 0.991 6.518 0.991 6.518 0.114 -82.242
3069.958 0.112 -82.333 0.991 6.405 0.991 6.405 0.112 -82.333
3094.917 0.11 -82.422 0.992 6.293 0.992 6.293 0.11 -82.422
3119.875 0.108 -82.509 0.992 6.182 0.992 6.182 0.108 -82.509
3144.833 0.106 -82.595 0.992 6.073 0.992 6.073 0.106 -82.595
3169.792 0.104 -82.679 0.992 5.965 0.992 5.965 0.104 -82.679
3194.75 0.102 -82.761 0.992 5.858 0.992 5.858 0.102 -82.761
3219.708 0.1 -82.841 0.993 5.752 0.993 5.752 0.1 -82.841
3244.667 0.098 -82.919 0.993 5.647 0.993 5.647 0.098 -82.919
3269.625 0.097 -82.996 0.993 5.544 0.993 5.544 0.097 -82.996
3294.583 0.095 -83.071 0.993 5.441 0.993 5.441 0.095 -83.071
3319.542 0.093 -83.144 0.993 5.34 0.993 5.34 0.093 -83.144
3344.5 0.091 -83.215 0.993 5.239 0.993 5.239 0.091 -83.215
3369.458 0.09 -83.285 0.994 5.14 0.994 5.14 0.09 -83.285
3394.417 0.088 -83.352 0.994 5.042 0.994 5.042 0.088 -83.352
3419.375 0.086 -83.418 0.994 4.944 0.994 4.944 0.086 -83.418
3444.333 0.085 -83.481 0.994 4.847 0.994 4.847 0.085 -83.481
3469.292 0.083 -83.543 0.994 4.752 0.994 4.752 0.083 -83.543
3494.25 0.081 -83.603 0.994 4.657 0.994 4.657 0.081 -83.603
3519.208 0.08 -83.661 0.994 4.563 0.994 4.563 0.08 -83.661
3544.167 0.078 -83.717 0.994 4.47 0.994 4.47 0.078 -83.717
3569.125 0.076 -83.771 0.995 4.378 0.995 4.378 0.076 -83.771
3594.083 0.075 -83.823 0.995 4.287 0.995 4.287 0.075 -83.823
3619.042 0.073 -83.872 0.995 4.196 0.995 4.196 0.073 -83.872
3644 0.072 -83.92 0.995 4.107 0.995 4.107 0.072 -83.92
3668.958 0.07 -83.965 0.995 4.018 0.995 4.018 0.07 -83.965
3693.917 0.069 -84.008 0.995 3.93 0.995 3.93 0.069 -84.008
3718.875 0.067 -84.048 0.995 3.842 0.995 3.842 0.067 -84.048
3743.833 0.066 -84.086 0.995 3.756 0.995 3.756 0.066 -84.086
3768.792 0.064 -84.121 0.995 3.67 0.995 3.67 0.064 -84.121
3793.75 0.063 -84.154 0.996 3.585 0.996 3.585 0.063 -84.154
3818.708 0.061 -84.184 0.996 3.5 0.996 3.5 0.061 -84.184
3843.667 0.06 -84.21 0.996 3.416 0.996 3.416 0.06 -84.21
3868.625 0.058 -84.234 0.996 3.333 0.996 3.333 0.058 -84.234
3893.583 0.057 -84.255 0.996 3.251 0.996 3.251 0.057 -84.255
3918.542 0.055 -84.272 0.996 3.169 0.996 3.169 0.055 -84.272
3943.5 0.054 -84.286 0.996 3.088 0.996 3.088 0.054 -84.286
3968.458 0.053 -84.296 0.996 3.007 0.996 3.007 0.053 -84.296
3993.417 0.051 -84.303 0.996 2.927 0.996 2.927 0.051 -84.303
4018.375 0.05 -84.305 0.996 2.848 0.996 2.848 0.05 -84.305
4043.333 0.048 -84.303 0.996 2.769 0.996 2.769 0.048 -84.303
4068.292 0.047 -84.296 0.996 2.691 0.996 2.691 0.047 -84.296
4093.25 0.046 -84.284 0.996 2.613 0.996 2.613 0.046 -84.284
4118.208 0.044 -84.267 0.997 2.536 0.997 2.536 0.044 -84.267
4143.167 0.043 -84.244 0.997 2.46 0.997 2.46 0.043 -84.244
4168.125 0.042 -84.215 0.997 2.384 0.997 2.384 0.042 -84.215
4193.083 0.04 -84.179 0.997 2.308 0.997 2.308 0.04 -84.179
4218.042 0.039 -84.137 0.997 2.233 0.997 2.233 0.039 -84.137
4243 0.038 -84.086 0.997 2.159 0.997 2.159 0.038 -84.086
4267.958 0.036 -84.027 0.997 2.085 0.997 2.085 0.036 -84.027
4292.917 0.035 -83.959 0.997 2.012 0.997 2.012 0.035 -83.959
4317.875 0.034 -83.881 0.997 1.939 0.997 1.939 0.034 -83.881
4342.833 0.033 -83.792 0.997 1.866 0.997 1.866 0.033 -83.792
4367.792 0.031 -83.69 0.997 1.794 0.997 1.794 0.031 -83.69
4392.75 0.03 -83.575 0.997 1.723 0.997 1.723 0.03 -83.575
4417.708 0.029 -83.444 0.997 1.652 0.997 1.652 0.029 -83.444
4442.667 0.028 -83.297 0.997 1.581 0.997 1.581 0.028 -83.297
4467.625 0.026 -83.13 0.997 1.511 0.997 1.511 0.026 -83.13
4492.583 0.025 -82.942 0.997 1.441 0.997 1.441 0.025 -82.942
4517.542 0.024 -82.73 0.997 1.372 0.997 1.372 0.024 -82.73
4542.5 0.023 -82.489 0.997 1.303 0.997 1.303 0.023 -82.489
4567.458 0.022 -82.216 0.997 1.234 0.997 1.234 0.022 -82.216
4592.417 0.021 -81.905 0.997 1.166 0.997 1.166 0.021 -81.905
4617.375 0.019 -81.551 0.997 1.099 0.997 1.099 0.019 -81.551
4642.333 0.018 -81.144 0.997 1.031 0.997 1.031 0.018 -81.144
4667.292 0.017 -80.676 0.997 0.965 0.997 0.965 0.017 -80.676
4692.25 0.016 -80.133 0.997 0.898 0.997 0.898 0.016 -80.133
4717.208 0.015 -79.499 0.997 0.832 0.997 0.832 0.015 -79.499
4742.167 0.014 -78.752 0.997 0.766 0.997 0.766 0.014 -78.752
4767.125 0.012 -77.864 0.997 0.701 0.997 0.701 0.012 -77.864
4792.083 0.011 -76.795 0.997 0.636 0.997 0.636 0.011 -76.795
4817.042 0.01 -75.488 0.997 0.571 0.997 0.571 0.01 -75.488
4842 9.183e-3 -73.865 0.997 0.507 0.997 0.507 9.183e-3 -73.865
4866.958 8.113e-3 -71.803 0.997 0.443 0.997 0.443 8.113e-3 -71.803
4891.917 7.063e-3 -69.117 0.998 0.379 0.998 0.379 7.063e-3 -69.117
4916.875 6.041e-3 -65.506 0.998 0.316 0.998 0.316 6.041e-3 -65.506
4941.833 5.058e-3 -60.461 0.998 0.253 0.998 0.253 5.058e-3 -60.461
4966.792 4.138e-3 -53.094 0.998 0.19 0.998 0.19 4.138e-3 -53.094
4991.75 3.33e-3 -41.89 0.998 0.128 0.998 0.128 3.33e-3 -41.89
5016.708 2.727e-3 -24.792 0.998 0.066 0.998 0.066 2.727e-3 -24.792
5041.667 2.475e-3 -1.589 0.998 3.941e-3 0.998 3.941e-3 2.475e-3 -1.589
5066.625 2.67e-3 22.016 0.998 -0.057 0.998 -0.057 2.67e-3 22.016
5091.583 3.226e-3 39.802 0.998 -0.119 0.998 -0.119 3.226e-3 39.802
5116.542 3.991e-3 51.513 0.998 -0.179 0.998 -0.179 3.991e-3 51.513
5141.5 4.865e-3 59.19 0.998 -0.24 0.998 -0.24 4.865e-3 59.19
5166.458 5.795e-3 64.425 0.998 -0.3 0.998 -0.3 5.795e-3 64.425
5191.417 6.756e-3 68.158 0.998 -0.36 0.998 -0.36 6.756e-3 68.158
5216.375 7.735e-3 70.925 0.997 -0.42 0.997 -0.42 7.735e-3 70.925
5241.333 8.723e-3 73.045 0.997 -0.479 0.997 -0.479 8.723e-3 73.045
5266.292 9.717e-3 74.712 0.997 -0.538 0.997 -0.538 9.717e-3 74.712
5291.25 0.011 76.052 0.997 -0.597 0.997 -0.597 0.011 76.052
5316.208 0.012 77.149 0.997 -0.656 0.997 -0.656 0.012 77.149
5341.167 0.013 78.061 0.997 -0.714 0.997 -0.714 0.013 78.061
5366.125 0.014 78.828 0.997 -0.772 0.997 -0.772 0.014 78.828
5391.083 0.015 79.48 0.997 -0.83 0.997 -0.83 0.015 79.48
5416.042 0.016 80.04 0.997 -0.888 0.997 -0.888 0.016 80.04
5441 0.017 80.525 0.997 -0.945 0.997 -0.945 0.017 80.525
5465.958 0.018 80.948 0.997 -1.002 0.997 -1.002 0.018 80.948
5490.917 0.019 81.318 0.997 -1.059 0.997 -1.059 0.019 81.318
5515.875 0.02 81.644 0.997 -1.116 0.997 -1.116 0.02 81.644
5540.833 0.021 81.932 0.997 -1.172 0.997 -1.172 0.021 81.932
5565.792 0.022 82.189 0.997 -1.228 0.997 -1.228 0.022 82.189
5590.75 0.023 82.417 0.997 -1.284 0.997 -1.284 0.023 82.417
5615.708 0.024 82.621 0.997 -1.34 0.997 -1.34 0.024 82.621
5640.667 0.024 82.804 0.997 -1.395 0.997 -1.395 0.024 82.804
5665.625 0.025 82.969 0.997 -1.45 0.997 -1.45 0.025 82.969
5690.583 0.026 83.117 0.997 -1.505 0.997 -1.505 0.026 83.117
5715.542 0.027 83.25 0.997 -1.56 0.997 -1.56 0.027 83.25
5740.5 0.028 83.37 0.997 -1.615 0.997 -1.615 0.028 83.37
5765.458 0.029 83.478 0.997 -1.669 0.997 -1.669 0.029 83.478
5790.417 0.03 83.576 0.997 -1.723 0.997 -1.723 0.03 83.576
5815.375 0.031 83.664 0.997 -1.777 0.997 -1.777 0.031 83.664
5840.333 0.032 83.744 0.997 -1.831 0.997 -1.831 0.032 83.744
5865.292 0.033 83.816 0.997 -1.885 0.997 -1.885 0.033 83.816
5890.25 0.034 83.88 0.997 -1.938 0.997 -1.938 0.034 83.88
5915.208 0.035 83.939 0.997 -1.991 0.997 -1.991 0.035 83.939
5940.167 0.036 83.991 0.997 -2.044 0.997 -2.044 0.036 83.991
5965.125 0.037 84.038 0.997 -2.097 0.997 -2.097 0.037 84.038
5990.083 0.038 84.079 0.997 -2.15 0.997 -2.15 0.038 84.079
6015.042 0.039 84.117 0.997 -2.202 0.997 -2.202 0.039 84.117
6040 0.039 84.149 0.997 -2.254 0.997 -2.254 0.039 84.149
6064.958 0.04 84.178 0.997 -2.306 0.997 -2.306 0.04 84.178
6089.917 0.041 84.204 0.997 -2.358 0.997 -2.358 0.041 84.204
6114.875 0.042 84.226 0.997 -2.41 0.997 -2.41 0.042 84.226
6139.833 0.043 84.245 0.997 -2.462 0.997 -2.462 0.043 84.245
6164.792 0.044 84.261 0.997 -2.513 0.997 -2.513 0.044 84.261
6189.75 0.045 84.274 0.997 -2.564 0.997 -2.564 0.045 84.274
6214.708 0.046 84.284 0.996 -2.615 0.996 -2.615 0.046 84.284
6239.667 0.047 84.293 0.996 -2.666 0.996 -2.666 0.047 84.293
6264.625 0.047 84.299 0.996 -2.717 0.996 -2.717 0.047 84.299
6289.583 0.048 84.303 0.996 -2.767 0.996 -2.767 0.048 84.303
6314.542 0.049 84.305 0.996 -2.818 0.996 -2.818 0.049 84.305
6339.5 0.05 84.305 0.996 -2.868 0.996 -2.868 0.05 84.305
6364.458 0.051 84.303 0.996 -2.918 0.996 -2.918 0.051 84.303
6389.417 0.052 84.3 0.996 -2.968 0.996 -2.968 0.052 84.3
6414.375 0.053 84.295 0.996 -3.018 0.996 -3.018 0.053 84.295
6439.333 0.054 84.289 0.996 -3.067 0.996 -3.067 0.054 84.289
6464.292 0.054 84.282 0.996 -3.117 0.996 -3.117 0.054 84.282
6489.25 0.055 84.273 0.996 -3.166 0.996 -3.166 0.055 84.273
6514.208 0.056 84.263 0.996 -3.215 0.996 -3.215 0.056 84.263
6539.167 0.057 84.252 0.996 -3.264 0.996 -3.264 0.057 84.252
6564.125 0.058 84.24 0.996 -3.313 0.996 -3.313 0.058 84.24
6589.083 0.059 84.226 0.996 -3.362 0.996 -3.362 0.059 84.226
6614.042 0.06 84.212 0.996 -3.41 0.996 -3.41 0.06 84.212
6639 0.06 84.197 0.996 -3.459 0.996 -3.459 0.06 84.197
6663.958 0.061 84.181 0.996 -3.507 0.996 -3.507 0.061 84.181
6688.917 0.062 84.164 0.996 -3.555 0.996 -3.555 0.062 84.164
6713.875 0.063 84.147 0.996 -3.603 0.996 -3.603 0.063 84.147
6738.833 0.064 84.129 0.996 -3.651 0.996 -3.651 0.064 84.129
6763.792 0.065 84.11 0.995 -3.699 0.995 -3.699 0.065 84.11
6788.75 0.065 84.09 0.995 -3.746 0.995 -3.746 0.065 84.09
6813.708 0.066 84.069 0.995 -3.794 0.995 -3.794 0.066 84.069
6838.667 0.067 84.048 0.995 -3.841 0.995 -3.841 0.067 84.048
6863.625 0.068 84.027 0.995 -3.888 0.995 -3.888 0.068 84.027
6888.583 0.069 84.005 0.995 -3.936 0.995 -3.936 0.069 84.005
6913.542 0.069 83.982 0.995 -3.983 0.995 -3.983 0.069 83.982
6938.5 0.07 83.959 0.995 -4.029 0.995 -4.029 0.07 83.959
6963.458 0.071 83.935 0.995 -4.076 0.995 -4.076 0.071 83.935
6988.417 0.072 83.911 0.995 -4.123 0.995 -4.123 0.072 83.911
7013.375 0.073 83.887 0.995 -4.169 0.995 -4.169 0.073 83.887
7038.333 0.074 83.862 0.995 -4.216 0.995 -4.216 0.074 83.862
7063.292 0.074 83.837 0.995 -4.262 0.995 -4.262 0.074 83.837
7088.25 0.075 83.811 0.995 -4.308 0.995 -4.308 0.075 83.811
7113.208 0.076 83.785 0.995 -4.354 0.995 -4.354 0.076 83.785
7138.167 0.077 83.758 0.995 -4.4 0.995 -4.4 0.077 83.758
7163.125 0.078 83.732 0.995 -4.446 0.995 -4.446 0.078 83.732
7188.083 0.078 83.704 0.994 -4.492 0.994 -4.492 0.078 83.704
7213.042 0.079 83.677 0.994 -4.537 0.994 -4.537 0.079 83.677
7238 0.08 83.649 0.994 -4.583 0.994 -4.583 0.08 83.649
7262.958 0.081 83.621 0.994 -4.628 0.994 -4.628 0.081 83.621
7287.917 0.082 83.593 0.994 -4.673 0.994 -4.673 0.082 83.593
7312.875 0.082 83.565 0.994 -4.719 0.994 -4.719 0.082 83.565
7337.833 0.083 83.536 0.994 -4.764 0.994 -4.764 0.083 83.536
7362.792 0.084 83.507 0.994 -4.809 0.994 -4.809 0.084 83.507
7387.75 0.085 83.478 0.994 -4.853 0.994 -4.853 0.085 83.478
7412.708 0.085 83.448 0.994 -4.898 0.994 -4.898 0.085 83.448
7437.667 0.086 83.419 0.994 -4.943 0.994 -4.943 0.086 83.419
7462.625 0.087 83.389 0.994 -4.987 0.994 -4.987 0.087 83.389
7487.583 0.088 83.359 0.994 -5.032 0.994 -5.032 0.088 83.359
7512.542 0.089 83.328 0.994 -5.076 0.994 -5.076 0.089 83.328
7537.5 0.089 83.298 0.994 -5.12 0.994 -5.12 0.089 83.298
7562.458 0.09 83.267 0.993 -5.165 0.993 -5.165 0.09 83.267
7587.417 0.091 83.237 0.993 -5.209 0.993 -5.209 0.091 83.237
7612.375 0.092 83.206 0.993 -5.253 0.993 -5.253 0.092 83.206
7637.333 0.092 83.175 0.993 -5.296 0.993 -5.296 0.092 83.175
7662.292 0.093 83.144 0.993 -5.34 0.993 -5.34 0.093 83.144
7687.25 0.094 83.112 0.993 -5.384 0.993 -5.384 0.094 83.112
7712.208 0.095 83.081 0.993 -5.428 0.993 -5.428 0.095 83.081
7737.167 0.095 83.049 0.993 -5.471 0.993 -5.471 0.095 83.049
7762.125 0.096 83.018 0.993 -5.514 0.993 -5.514 0.096 83.018
7787.083 0.097 82.986 0.993 -5.558 0.993 -5.558 0.097 82.986
7812.042 0.098 82.954 0.993 -5.601 0.993 -5.601 0.098 82.954
7837 0.098 82.922 0.993 -5.644 0.993 -5.644 0.098 82.922
7861.958 0.099 82.89 0.993 -5.687 0.993 -5.687 0.099 82.89
7886.917 0.1 82.857 0.993 -5.73 0.993 -5.73 0.1 82.857
7911.875 0.101 82.825 0.992 -5.773 0.992 -5.773 0.101 82.825
7936.833 0.101 82.793 0.992 -5.816 0.992 -5.816 0.101 82.793
7961.792 0.102 82.76 0.992 -5.859 0.992 -5.859 0.102 82.76
7986.75 0.103 82.728 0.992 -5.901 0.992 -5.901 0.103 82.728
8011.708 0.104 82.695 0.992 -5.944 0.992 -5.944 0.104 82.695
8036.667 0.104 82.662 0.992 -5.986 0.992 -5.986 0.104 82.662
8061.625 0.105 82.629 0.992 -6.029 0.992 -6.029 0.105 82.629
8086.583 0.106 82.596 0.992 -6.071 0.992 -6.071 0.106 82.596
8111.542 0.107 82.563 0.992 -6.113 0.992 -6.113 0.107 82.563
8136.5 0.107 82.53 0.992 -6.155 0.992 -6.155 0.107 82.53
8161.458 0.108 82.497 0.992 -6.197 0.992 -6.197 0.108 82.497
8186.417 0.109 82.464 0.992 -6.239 0.992 -6.239 0.109 82.464
8211.375 0.109 82.431 0.992 -6.281 0.992 -6.281 0.109 82.431
8236.333 0.11 82.398 0.991 -6.323 0.991 -6.323 0.11 82.398
8261.292 0.111 82.364 0.991 -6.365 0.991 -6.365 0.111 82.364
8286.25 0.112 82.331 0.991 -6.407 0.991 -6.407 0.112 82.331
8311.208 0.112 82.298 0.991 -6.448 0.991 -6.448 0.112 82.298
8336.167 0.113 82.264 0.991 -6.49 0.991 -6.49 0.113 82.264
8361.125 0.114 82.231 0.991 -6.531 0.991 -6.531 0.114 82.231
8386.083 0.114 82.197 0.991 -6.573 0.991 -6.573 0.114 82.197
8411.042 0.115 82.164 0.991 -6.614 0.991 -6.614 0.115 82.164
8436 0.116 82.13 0.991 -6.655 0.991 -6.655 0.116 82.13
8460.958 0.117 82.096 0.991 -6.696 0.991 -6.696 0.117 82.096
8485.917 0.117 82.063 0.991 -6.738 0.991 -6.738 0.117 82.063
8510.875 0.118 82.029 0.991 -6.779 0.991 -6.779 0.118 82.029
8535.833 0.119 81.995 0.99 -6.82 0.99 -6.82 0.119 81.995
8560.792 0.119 81.961 0.99 -6.86 0.99 -6.86 0.119 81.961
8585.75 0.12 81.928 0.99 -6.901 0.99 -6.901 0.12 81.928
8610.708 0.121 81.894 0.99 -6.942 0.99 -6.942 0.121 81.894
8635.667 0.122 81.86 0.99 -6.983 0.99 -6.983 0.122 81.86
8660.625 0.122 81.826 0.99 -7.023 0.99 -7.023 0.122 81.826
8685.583 0.123 81.792 0.99 -7.064 0.99 -7.064 0.123 81.792
8710.542 0.124 81.758 0.99 -7.104 0.99 -7.104 0.124 81.758
8735.5 0.124 81.724 0.99 -7.145 0.99 -7.145 0.124 81.724
8760.458 0.125 81.69 0.99 -7.185 0.99 -7.185 0.125 81.69
8785.417 0.126 81.656 0.99 -7.226 0.99 -7.226 0.126 81.656
8810.375 0.126 81.622 0.99 -7.266 0.99 -7.266 0.126 81.622
8835.333 0.127 81.588 0.989 -7.306 0.989 -7.306 0.127 81.588
8860.292 0.128 81.554 0.989 -7.346 0.989 -7.346 0.128 81.554
8885.25 0.129 81.52 0.989 -7.386 0.989 -7.386 0.129 81.52
8910.208 0.129 81.486 0.989 -7.426 0.989 -7.426 0.129 81.486
8935.167 0.13 81.452 0.989 -7.466 0.989 -7.466 0.13 81.452
8960.125 0.131 81.418 0.989 -7.506 0.989 -7.506 0.131 81.418
8985.083 0.131 81.384 0.989 -7.546 0.989 -7.546 0.131 81.384
9010.042 0.132 81.35 0.989 -7.586 0.989 -7.586 0.132 81.35
9035 0.133 81.316 0.989 -7.625 0.989 -7.625 0.133 81.316
9059.958 0.133 81.282 0.989 -7.665 0.989 -7.665 0.133 81.282
9084.917 0.134 81.248 0.989 -7.704 0.989 -7.704 0.134 81.248
9109.875 0.135 81.214 0.988 -7.744 0.988 -7.744 0.135 81.214
9134.833 0.135 81.18 0.988 -7.783 0.988 -7.783 0.135 81.18
9159.792 0.136 81.146 0.988 -7.823 0.988 -7.823 0.136 81.146
9184.75 0.137 81.111 0.988 -7.862 0.988 -7.862 0.137 81.111
9209.708 0.137 81.077 0.988 -7.901 0.988 -7.901 0.137 81.077
9234.667 0.138 81.043 0.988 -7.941 0.988 -7.941 0.138 81.043
9259.625 0.139 81.009 0.988 -7.98 0.988 -7.98 0.139 81.009
9284.583 0.14 80.975 0.988 -8.019 0.988 -8.019 0.14 80.975
9309.542 0.14 80.941 0.988 -8.058 0.988 -8.058 0.14 80.941
9334.5 0.141 80.907 0.988 -8.097 0.988 -8.097 0.141 80.907
9359.458 0.142 80.873 0.987 -8.136 0.987 -8.136 0.142 80.873
9384.417 0.142 80.838 0.987 -8.175 0.987 -8.175 0.142 80.838
9409.375 0.143 80.804 0.987 -8.214 0.987 -8.214 0.143 80.804
9434.333 0.144 80.77 0.987 -8.252 0.987 -8.252 0.144 80.77
9459.292 0.144 80.736 0.987 -8.291 0.987 -8.291 0.144 80.736
9484.25 0.145 80.702 0.987 -8.33 0.987 -8.33 0.145 80.702
9509.208 0.146 80.668 0.987 -8.368 0.987 -8.368 0.146 80.668
9534.167 0.146 80.634 0.987 -8.407 0.987 -8.407 0.146 80.634
9559.125 0.147 80.6 0.987 -8.446 0.987 -8.446 0.147 80.6
9584.083 0.148 80.566 0.987 -8.484 0.987 -8.484 0.148 80.566
9609.042 0.148 80.532 0.987 -8.522 0.987 -8.522 0.148 80.532
9634 0.149 80.498 0.986 -8.561 0.986 -8.561 0.149 80.498
9658.958 0.15 80.463 0.986 -8.599 0.986 -8.599 0.15 80.463
9683.917 0.15 80.429 0.986 -8.637 0.986 -8.637 0.15 80.429
9708.875 0.151 80.395 0.986 -8.676 0.986 -8.676 0.151 80.395
9733.833 0.152 80.361 0.986 -8.714 0.986 -8.714 0.152 80.361
9758.792 0.152 80.327 0.986 -8.752 0.986 -8.752 0.152 80.327
9783.75 0.153 80.293 0.986 -8.79 0.986 -8.79 0.153 80.293
9808.708 0.153 80.259 0.986 -8.828 0.986 -8.828 0.153 80.259
9833.667 0.154 80.225 0.986 -8.866 0.986 -8.866 0.154 80.225
9858.625 0.155 80.191 0.986 -8.904 0.986 -8.904 0.155 80.191
9883.583 0.155 80.157 0.985 -8.942 0.985 -8.942 0.155 80.157
9908.542 0.156 80.123 0.985 -8.98 0.985 -8.98 0.156 80.123
9933.5 0.157 80.089 0.985 -9.017 0.985 -9.017 0.157 80.089
9958.458 0.157 80.055 0.985 -9.055 0.985 -9.055 0.157 80.055
9983.417 0.158 80.021 0.985 -9.093 0.985 -9.093 0.158 80.021
10008.375 0.159 79.988 0.985 -9.131 0.985 -9.131 0.159 79.988
10033.333 0.159 79.954 0.985 -9.168 0.985 -9.168 0.159 79.954
10058.292 0.16 79.92 0.985 -9.206 0.985 -9.206 0.16 79.92
10083.25 0.161 79.886 0.985 -9.243 0.985 -9.243 0.161 79.886
10108.208 0.161 79.852 0.984 -9.281 0.984 -9.281 0.161 79.852
10133.167 0.162 79.818 0.984 -9.318 0.984 -9.318 0.162 79.818
10158.125 0.163 79.784 0.984 -9.355 0.984 -9.355 0.163 79.784
10183.083 0.163 79.75 0.984 -9.393 0.984 -9.393 0.163 79.75
10208.042 0.164 79.716 0.984 -9.43 0.984 -9.43 0.164 79.716
10233 0.165 79.683 0.984 -9.467 0.984 -9.467 0.165 79.683
10257.958 0.165 79.649 0.984 -9.505 0.984 -9.505 0.165 79.649
10282.917 0.166 79.615 0.984 -9.542 0.984 -9.542 0.166 79.615
10307.875 0.166 79.581 0.984 -9.579 0.984 -9.579 0.166 79.581
10332.833 0.167 79.547 0.984 -9.616 0.984 -9.616 0.167 79.547
10357.792 0.168 79.514 0.983 -9.653 0.983 -9.653 0.168 79.514
10382.75 0.168 79.48 0.983 -9.69 0.983 -9.69 0.168 79.48
10407.708 0.169 79.446 0.983 -9.727 0.983 -9.727 0.169 79.446
10432.667 0.17 79.413 0.983 -9.764 0.983 -9.764 0.17 79.413
10457.625 0.17 79.379 0.983 -9.801 0.983 -9.801 0.17 79.379
10482.583 0.171 79.345 0.983 -9.837 0.983 -9.837 0.171 79.345
10507.542 0.172 79.311 0.983 -9.874 0.983 -9.874 0.172 79.311
10532.5 0.172 79.278 0.983 -9.911 0.983 -9.911 0.172 79.278
10557.458 0.173 79.244 0.983 -9.948 0.983 -9.948 0.173 79.244
10582.417 0.173 79.211 0.982 -9.984 0.982 -9.984 0.173 79.211
10607.375 0.174 79.177 0.982 -10.021 0.982 -10.021 0.174 79.177
10632.333 0.175 79.143 0.982 -10.057 0.982 -10.057 0.175 79.143
10657.292 0.175 79.11 0.982 -10.094 0.982 -10.094 0.175 79.11
10682.25 0.176 79.076 0.982 -10.13 0.982 -10.13 0.176 79.076
10707.208 0.177 79.043 0.982 -10.167 0.982 -10.167 0.177 79.043
10732.167 0.177 79.009 0.982 -10.203 0.982 -10.203 0.177 79.009
10757.125 0.178 78.976 0.982 -10.24 0.982 -10.24 0.178 78.976
10782.083 0.178 78.942 0.982 -10.276 0.982 -10.276 0.178 78.942
10807.042 0.179 78.909 0.981 -10.312 0.981 -10.312 0.179 78.909
10832 0.18 78.875 0.981 -10.349 0.981 -10.349 0.18 78.875
10856.958 0.18 78.842 0.981 -10.385 0.981 -10.385 0.18 78.842
10881.917 0.181 78.808 0.981 -10.421 0.981 -10.421 0.181 78.808
10906.875 0.182 78.775 0.981 -10.457 0.981 -10.457 0.182 78.775
10931.833 0.182 78.741 0.981 -10.493 0.981 -10.493 0.182 78.741
10956.792 0.183 78.708 0.981 -10.529 0.981 -10.529 0.183 78.708
10981.75 0.183 78.675 0.981 -10.565 0.981 -10.565 0.183 78.675
11006.708 0.184 78.641 0.98 -10.601 0.98 -10.601 0.184 78.641
11031.667 0.185 78.608 0.98 -10.637 0.98 -10.637 0.185 78.608
11056.625 0.185 78.575 0.98 -10.673 0.98 -10.673 0.185 78.575
11081.583 0.186 78.541 0.98 -10.709 0.98 -10.709 0.186 78.541
11106.542 0.186 78.508 0.98 -10.745 0.98 -10.745 0.186 78.508
11131.5 0.187 78.475 0.98 -10.781 0.98 -10.781 0.187 78.475
11156.458 0.188 78.441 0.98 -10.817 0.98 -10.817 0.188 78.441
11181.417 0.188 78.408 0.98 -10.852 0.98 -10.852 0.188 78.408
11206.375 0.189 78.375 0.98 -10.888 0.98 -10.888 0.189 78.375
11231.333 0.19 78.342 0.979 -10.924 0.979 -10.924 0.19 78.342
11256.292 0.19 78.309 0.979 -10.959 0.979 -10.959 0.19 78.309
11281.25 0.191 78.275 0.979 -10.995 0.979 -10.995 0.191 78.275
11306.208 0.191 78.242 0.979 -11.031 0.979 -11.031 0.191 78.242
11331.167 0.192 78.209 0.979 -11.066 0.979 -11.066 0.192 78.209
11356.125 0.193 78.176 0.979 -11.102 0.979 -11.102 0.193 78.176
11381.083 0.193 78.143 0.979 -11.137 0.979 -11.137 0.193 78.143
11406.042 0.194 78.11 0.979 -11.173 0.979 -11.173 0.194 78.11
11431 0.194 78.077 0.979 -11.208 0.979 -11.208 0.194 78.077
11455.958 0.195 78.044 0.978 -11.243 0.978 -11.243 0.195 78.044
11480.917 0.196 78.011 0.978 -11.279 0.978 -11.279 0.196 78.011
11505.875 0.196 77.978 0.978 -11.314 0.978 -11.314 0.196 77.978
11530.833 0.197 77.945 0.978 -11.349 0.978 -11.349 0.197 77.945
11555.792 0.197 77.912 0.978 -11.384 0.978 -11.384 0.197 77.912
11580.75 0.198 77.879 0.978 -11.42 0.978 -11.42 0.198 77.879
11605.708 0.199 77.846 0.978 -11.455 0.978 -11.455 0.199 77.846
11630.667 0.199 77.813 0.978 -11.49 0.978 -11.49 0.199 77.813
11655.625 0.2 77.78 0.977 -11.525 0.977 -11.525 0.2 77.78
11680.583 0.2 77.747 0.977 -11.56 0.977 -11.56 0.2 77.747
11705.542 0.201 77.714 0.977 -11.595 0.977 -11.595 0.201 77.714
11730.5 0.202 77.681 0.977 -11.63 0.977 -11.63 0.202 77.681
11755.458 0.202 77.648 0.977 -11.665 0.977 -11.665 0.202 77.648
11780.417 0.203 77.615 0.977 -11.7 0.977 -11.7 0.203 77.615
11805.375 0.203 77.583 0.977 -11.735 0.977 -11.735 0.203 77.583
11830.333 0.204 77.55 0.977 -11.77 0.977 -11.77 0.204 77.55
11855.292 0.205 77.517 0.976 -11.805 0.976 -11.805 0.205 77.517
11880.25 0.205 77.484 0.976 -11.839 0.976 -11.839 0.205 77.484
11905.208 0.206 77.452 0.976 -11.874 0.976 -11.874 0.206 77.452
11930.167 0.206 77.419 0.976 -11.909 0.976 -11.909 0.206 77.419
11955.125 0.207 77.386 0.976 -11.944 0.976 -11.944 0.207 77.386
11980.083 0.208 77.353 0.976 -11.978 0.976 -11.978 0.208 77.353
12005.042 0.208 77.321 0.976 -12.013 0.976 -12.013 0.208 77.321
12030 0.209 77.288 0.976 -12.048 0.976 -12.048 0.209 77.288
12054.958 0.209 77.256 0.975 -12.082 0.975 -12.082 0.209 77.256
12079.917 0.21 77.223 0.975 -12.117 0.975 -12.117 0.21 77.223
12104.875 0.211 77.19 0.975 -12.151 0.975 -12.151 0.211 77.19
12129.833 0.211 77.158 0.975 -12.186 0.975 -12.186 0.211 77.158
12154.792 0.212 77.125 0.975 -12.22 0.975 -12.22 0.212 77.125
12179.75 0.212 77.093 0.975 -12.255 0.975 -12.255 0.212 77.093
12204.708 0.213 77.06 0.975 -12.289 0.975 -12.289 0.213 77.06
12229.667 0.213 77.028 0.975 -12.324 0.975 -12.324 0.213 77.028
12254.625 0.214 76.995 0.974 -12.358 0.974 -12.358 0.214 76.995
12279.583 0.215 76.963 0.974 -12.392 0.974 -12.392 0.215 76.963
12304.542 0.215 76.93 0.974 -12.427 0.974 -12.427 0.215 76.93
12329.5 0.216 76.898 0.974 -12.461 0.974 -12.461 0.216 76.898
12354.458 0.216 76.865 0.974 -12.495 0.974 -12.495 0.216 76.865
12379.417 0.217 76.833 0.974 -12.529 0.974 -12.529 0.217 76.833
12404.375 0.218 76.8 0.974 -12.564 0.974 -12.564 0.218 76.8
12429.333 0.218 76.768 0.974 -12.598 0.974 -12.598 0.218 76.768
12454.292 0.219 76.736 0.973 -12.632 0.973 -12.632 0.219 76.736
12479.25 0.219 76.703 0.973 -12.666 0.973 -12.666 0.219 76.703
12504.208 0.22 76.671 0.973 -12.7 0.973 -12.7 0.22 76.671
12529.167 0.22 76.639 0.973 -12.734 0.973 -12.734 0.22 76.639
12554.125 0.221 76.606 0.973 -12.768 0.973 -12.768 0.221 76.606
12579.083 0.222 76.574 0.973 -12.802 0.973 -12.802 0.222 76.574
12604.042 0.222 76.542 0.973 -12.836 0.973 -12.836 0.222 76.542
12629 0.223 76.51 0.972 -12.87 0.972 -12.87 0.223 76.51
12653.958 0.223 76.477 0.972 -12.904 0.972 -12.904 0.223 76.477
12678.917 0.224 76.445 0.972 -12.938 0.972 -12.938 0.224 76.445
12703.875 0.224 76.413 0.972 -12.972 0.972 -12.972 0.224 76.413
12728.833 0.225 76.381 0.972 -13.005 0.972 -13.005 0.225 76.381
12753.792 0.226 76.349 0.972 -13.039 0.972 -13.039 0.226 76.349
12778.75 0.226 76.317 0.972 -13.073 0.972 -13.073 0.226 76.317
12803.708 0.227 76.285 0.972 -13.107 0.972 -13.107 0.227 76.285
12828.667 0.227 76.252 0.971 -13.14 0.971 -13.14 0.227 76.252
12853.625 0.228 76.22 0.971 -13.174 0.971 -13.174 0.228 76.22
12878.583 0.228 76.188 0.971 -13.208 0.971 -13.208 0.228 76.188
12903.542 0.229 76.156 0.971 -13.241 0.971 -13.241 0.229 76.156
12928.5 0.23 76.124 0.971 -13.275 0.971 -13.275 0.23 76.124
12953.458 0.23 76.092 0.971 -13.309 0.971 -13.309 0.23 76.092
12978.417 0.231 76.06 0.971 -13.342 0.971 -13.342 0.231 76.06
13003.375 0.231 76.028 0.97 -13.376 0.97 -13.376 0.231 76.028
13028.333 0.232 75.996 0.97 -13.409 0.97 -13.409 0.232 75.996
13053.292 0.232 75.964 0.97 -13.443 0.97 -13.443 0.232 75.964
13078.25 0.233 75.932 0.97 -13.476 0.97 -13.476 0.233 75.932
13103.208 0.234 75.901 0.97 -13.509 0.97 -13.509 0.234 75.901
13128.167 0.234 75.869 0.97 -13.543 0.97 -13.543 0.234 75.869
13153.125 0.235 75.837 0.97 -13.576 0.97 -13.576 0.235 75.837
13178.083 0.235 75.805 0.97 -13.61 0.97 -13.61 0.235 75.805
13203.042 0.236 75.773 0.969 -13.643 0.969 -13.643 0.236 75.773
13228 0.236 75.741 0.969 -13.676 0.969 -13.676 0.236 75.741
13252.958 0.237 75.709 0.969 -13.709 0.969 -13.709 0.237 75.709
13277.917 0.238 75.678 0.969 -13.743 0.969 -13.743 0.238 75.678
13302.875 0.238 75.646 0.969 -13.776 0.969 -13.776 0.238 75.646
13327.833 0.239 75.614 0.969 -13.809 0.969 -13.809 0.239 75.614
13352.792 0.239 75.582 0.969 -13.842 0.969 -13.842 0.239 75.582
13377.75 0.24 75.551 0.968 -13.875 0.968 -13.875 0.24 75.551
13402.708 0.24 75.519 0.968 -13.909 0.968 -13.909 0.24 75.519
13427.667 0.241 75.487 0.968 -13.942 0.968 -13.942 0.241 75.487
13452.625 0.242 75.456 0.968 -13.975 0.968 -13.975 0.242 75.456
13477.583 0.242 75.424 0.968 -14.008 0.968 -14.008 0.242 75.424
13502.542 0.243 75.392 0.968 -14.041 0.968 -14.041 0.243 75.392
13527.5 0.243 75.361 0.968 -14.074 0.968 -14.074 0.243 75.361
13552.458 0.244 75.329 0.967 -14.107 0.967 -14.107 0.244 75.329
13577.417 0.244 75.298 0.967 -14.14 0.967 -14.14 0.244 75.298
13602.375 0.245 75.266 0.967 -14.173 0.967 -14.173 0.245 75.266
13627.333 0.245 75.234 0.967 -14.206 0.967 -14.206 0.245 75.234
13652.292 0.246 75.203 0.967 -14.238 0.967 -14.238 0.246 75.203
13677.25 0.247 75.171 0.967 -14.271 0.967 -14.271 0.247 75.171
13702.208 0.247 75.14 0.967 -14.304 0.967 -14.304 0.247 75.14
13727.167 0.248 75.108 0.966 -14.337 0.966 -14.337 0.248 75.108
13752.125 0.248 75.077 0.966 -14.37 0.966 -14.37 0.248 75.077
13777.083 0.249 75.046 0.966 -14.402 0.966 -14.402 0.249 75.046
13802.042 0.249 75.014 0.966 -14.435 0.966 -14.435 0.249 75.014
13827 0.25 74.983 0.966 -14.468 0.966 -14.468 0.25 74.983
13851.958 0.25 74.951 0.966 -14.501 0.966 -14.501 0.25 74.951
13876.917 0.251 74.92 0.966 -14.533 0.966 -14.533 0.251 74.92
13901.875 0.252 74.889 0.965 -14.566 0.965 -14.566 0.252 74.889
13926.833 0.252 74.857 0.965 -14.598 0.965 -14.598 0.252 74.857
13951.792 0.253 74.826 0.965 -14.631 0.965 -14.631 0.253 74.826
13976.75 0.253 74.795 0.965 -14.664 0.965 -14.664 0.253 74.795
14001.708 0.254 74.763 0.965 -14.696 0.965 -14.696 0.254 74.763
14026.667 0.254 74.732 0.965 -14.729 0.965 -14.729 0.254 74.732
14051.625 0.255 74.701 0.965 -14.761 0.965 -14.761 0.255 74.701
14076.583 0.255 74.67 0.964 -14.794 0.964 -14.794 0.255 74.67
14101.542 0.256 74.638 0.964 -14.826 0.964 -14.826 0.256 74.638
14126.5 0.256 74.607 0.964 -14.859 0.964 -14.859 0.256 74.607
14151.458 0.257 74.576 0.964 -14.891 0.964 -14.891 0.257 74.576
14176.417 0.258 74.545 0.964 -14.923 0.964 -14.923 0.258 74.545
14201.375 0.258 74.514 0.964 -14.956 0.964 -14.956 0.258 74.514
14226.333 0.259 74.482 0.964 -14.988 0.964 -14.988 0.259 74.482
14251.292 0.259 74.451 0.963 -15.02 0.963 -15.02 0.259 74.451
14276.25 0.26 74.42 0.963 -15.053 0.963 -15.053 0.26 74.42
14301.208 0.26 74.389 0.963 -15.085 0.963 -15.085 0.26 74.389
14326.167 0.261 74.358 0.963 -15.117 0.963 -15.117 0.261 74.358
14351.125 0.261 74.327 0.963 -15.149 0.963 -15.149 0.261 74.327
14376.083 0.262 74.296 0.963 -15.182 0.963 -15.182 0.262 74.296
14401.042 0.262 74.265 0.963 -15.214 0.963 -15.214 0.262 74.265
14426 0.263 74.234 0.962 -15.246 0.962 -15.246 0.263 74.234
14450.958 0.264 74.203 0.962 -15.278 0.962 -15.278 0.264 74.203
14475.917 0.264 74.172 0.962 -15.31 0.962 -15.31 0.264 74.172
14500.875 0.265 74.141 0.962 -15.342 0.962 -15.342 0.265 74.141
14525.833 0.265 74.11 0.962 -15.374 0.962 -15.374 0.265 74.11
14550.792 0.266 74.079 0.962 -15.406 0.962 -15.406 0.266 74.079
14575.75 0.266 74.048 0.962 -15.439 0.962 -15.439 0.266 74.048
14600.708 0.267 74.017 0.961 -15.471 0.961 -15.471 0.267 74.017
14625.667 0.267 73.986 0.961 -15.503 0.961 -15.503 0.267 73.986
14650.625 0.268 73.956 0.961 -15.534 0.961 -15.534 0.268 73.956
14675.583 0.268 73.925 0.961 -15.566 0.961 -15.566 0.268 73.925
14700.542 0.269 73.894 0.961 -15.598 0.961 -15.598 0.269 73.894
14725.5 0.269 73.863 0.961 -15.63 0.961 -15.63 0.269 73.863
14750.458 0.27 73.832 0.96 -15.662 0.96 -15.662 0.27 73.832
14775.417 0.271 73.801 0.96 -15.694 0.96 -15.694 0.271 73.801
14800.375 0.271 73.771 0.96 -15.726 0.96 -15.726 0.271 73.771
14825.333 0.272 73.74 0.96 -15.758 0.96 -15.758 0.272 73.74
14850.292 0.272 73.709 0.96 -15.789 0.96 -15.789 0.272 73.709
14875.25 0.273 73.679 0.96 -15.821 0.96 -15.821 0.273 73.679
14900.208 0.273 73.648 0.96 -15.853 0.96 -15.853 0.273 73.648
14925.167 0.274 73.617 0.959 -15.885 0.959 -15.885 0.274 73.617
14950.125 0.274 73.586 0.959 -15.916 0.959 -15.916 0.274 73.586
14975.083 0.275 73.556 0.959 -15.948 0.959 -15.948 0.275 73.556
15000.042 0.275 73.525 0.959 -15.98 0.959 -15.98 0.275 73.525
15025 0.276 73.495 0.959 -16.011 0.959 -16.011 0.276 73.495
15049.958 0.276 73.464 0.959 -16.043 0.959 -16.043 0.276 73.464
15074.917 0.277 73.433 0.959 -16.075 0.959 -16.075 0.277 73.433
15099.875 0.277 73.403 0.958 -16.106 0.958 -16.106 0.277 73.403
15124.833 0.278 73.372 0.958 -16.138 0.958 -16.138 0.278 73.372
15149.792 0.278 73.342 0.958 -16.169 0.958 -16.169 0.278 73.342
15174.75 0.279 73.311 0.958 -16.201 0.958 -16.201 0.279 73.311
15199.708 0.28 73.281 0.958 -16.232 0.958 -16.232 0.28 73.281
15224.667 0.28 73.25 0.958 -16.264 0.958 -16.264 0.28 73.25
15249.625 0.281 73.22 0.957 -16.295 0.957 -16.295 0.281 73.22
15274.583 0.281 73.189 0.957 -16.327 0.957 -16.327 0.281 73.189
15299.542 0.282 73.159 0.957 -16.358 0.957 -16.358 0.282 73.159
15324.5 0.282 73.128 0.957 -16.39 0.957 -16.39 0.282 73.128
15349.458 0.283 73.098 0.957 -16.421 0.957 -16.421 0.283 73.098
15374.417 0.283 73.068 0.957 -16.452 0.957 -16.452 0.283 73.068
15399.375 0.284 73.037 0.957 -16.484 0.957 -16.484 0.284 73.037
15424.333 0.284 73.007 0.956 -16.515 0.956 -16.515 0.284 73.007
15449.292 0.285 72.976 0.956 -16.546 0.956 -16.546 0.285 72.976
15474.25 0.285 72.946 0.956 -16.578 0.956 -16.578 0.285 72.946
15499.208 0.286 72.916 0.956 -16.609 0.956 -16.609 0.286 72.916
15524.167 0.286 72.885 0.956 -16.64 0.956 -16.64 0.286 72.885
15549.125 0.287 72.855 0.956 -16.671 0.956 -16.671 0.287 72.855
15574.083 0.287 72.825 0.955 -16.703 0.955 -16.703 0.287 72.825
15599.042 0.288 72.795 0.955 -16.734 0.955 -16.734 0.288 72.795
15624 0.288 72.764 0.955 -16.765 0.955 -16.765 0.288 72.764
15648.958 0.289 72.734 0.955 -16.796 0.955 -16.796 0.289 72.734
15673.917 0.289 72.704 0.955 -16.827 0.955 -16.827 0.289 72.704
15698.875 0.29 72.674 0.955 -16.858 0.955 -16.858 0.29 72.674
15723.833 0.291 72.644 0.954 -16.889 0.954 -16.889 0.291 72.644
15748.792 0.291 72.613 0.954 -16.921 0.954 -16.921 0.291 72.613
15773.75 0.292 72.583 0.954 -16.952 0.954 -16.952 0.292 72.583
15798.708 0.292 72.553 0.954 -16.983 0.954 -16.983 0.292 72.553
15823.667 0.293 72.523 0.954 -17.014 0.954 -17.014 0.293 72.523
15848.625 0.293 72.493 0.954 -17.045 0.954 -17.045 0.293 72.493
15873.583 0.294 72.463 0.954 -17.076 0.954 -17.076 0.294 72.463
15898.542 0.294 72.433 0.953 -17.107 0.953 -17.107 0.294 72.433
15923.5 0.295 72.403 0.953 -17.138 0.953 -17.138 0.295 72.403
15948.458 0.295 72.373 0.953 -17.168 0.953 -17.168 0.295 72.373
15973.417 0.296 72.343 0.953 -17.199 0.953 -17.199 0.296 72.343
15998.375 0.296 72.313 0.953 -17.23 0.953 -17.23 0.296 72.313
16023.333 0.297 72.283 0.953 -17.261 0.953 -17.261 0.297 72.283
16048.292 0.297 72.253 0.952 -17.292 0.952 -17.292 0.297 72.253
16073.25 0.298 72.223 0.952 -17.323 0.952 -17.323 0.298 72.223
16098.208 0.298 72.193 0.952 -17.354 0.952 -17.354 0.298 72.193
16123.167 0.299 72.163 0.952 -17.384 0.952 -17.384 0.299 72.163
16148.125 0.299 72.133 0.952 -17.415 0.952 -17.415 0.299 72.133
16173.083 0.3 72.103 0.952 -17.446 0.952 -17.446 0.3 72.103
16198.042 0.3 72.073 0.951 -17.477 0.951 -17.477 0.3 72.073
16223 0.301 72.043 0.951 -17.507 0.951 -17.507 0.301 72.043
16247.958 0.301 72.013 0.951 -17.538 0.951 -17.538 0.301 72.013
16272.917 0.302 71.984 0.951 -17.569 0.951 -17.569 0.302 71.984
16297.875 0.302 71.954 0.951 -17.599 0.951 -17.599 0.302 71.954
16322.833 0.303 71.924 0.951 -17.63 0.951 -17.63 0.303 71.924
16347.792 0.303 71.894 0.951 -17.661 0.951 -17.661 0.303 71.894
16372.75 0.304 71.864 0.95 -17.691 0.95 -17.691 0.304 71.864
16397.708 0.304 71.835 0.95 -17.722 0.95 -17.722 0.304 71.835
16422.667 0.305 71.805 0.95 -17.752 0.95 -17.752 0.305 71.805
16447.625 0.305 71.775 0.95 -17.783 0.95 -17.783 0.305 71.775
16472.583 0.306 71.745 0.95 -17.813 0.95 -17.813 0.306 71.745
16497.542 0.306 71.716 0.95 -17.844 0.95 -17.844 0.306 71.716
16522.5 0.307 71.686 0.949 -17.874 0.949 -17.874 0.307 71.686
16547.458 0.307 71.656 0.949 -17.905 0.949 -17.905 0.307 71.656
16572.417 0.308 71.627 0.949 -17.935 0.949 -17.935 0.308 71.627
16597.375 0.308 71.597 0.949 -17.966 0.949 -17.966 0.308 71.597
16622.333 0.309 71.568 0.949 -17.996 0.949 -17.996 0.309 71.568
16647.292 0.309 71.538 0.949 -18.026 0.949 -18.026 0.309 71.538
16672.25 0.31 71.508 0.948 -18.057 0.948 -18.057 0.31 71.508
16697.208 0.31 71.479 0.948 -18.087 0.948 -18.087 0.31 71.479
16722.167 0.311 71.449 0.948 -18.118 0.948 -18.118 0.311 71.449
16747.125 0.311 71.42 0.948 -18.148 0.948 -18.148 0.311 71.42
16772.083 0.312 71.39 0.948 -18.178 0.948 -18.178 0.312 71.39
16797.042 0.312 71.361 0.948 -18.208 0.948 -18.208 0.312 71.361
16822 0.313 71.331 0.947 -18.239 0.947 -18.239 0.313 71.331
16846.958 0.313 71.302 0.947 -18.269 0.947 -18.269 0.313 71.302
16871.917 0.314 71.272 0.947 -18.299 0.947 -18.299 0.314 71.272
16896.875 0.314 71.243 0.947 -18.329 0.947 -18.329 0.314 71.243
16921.833 0.315 71.213 0.947 -18.36 0.947 -18.36 0.315 71.213
16946.792 0.315 71.184 0.947 -18.39 0.947 -18.39 0.315 71.184
16971.75 0.316 71.154 0.946 -18.42 0.946 -18.42 0.316 71.154
16996.708 0.316 71.125 0.946 -18.45 0.946 -18.45 0.316 71.125
17021.667 0.317 71.096 0.946 -18.48 0.946 -18.48 0.317 71.096
17046.625 0.317 71.066 0.946 -18.51 0.946 -18.51 0.317 71.066
17071.583 0.318 71.037 0.946 -18.54 0.946 -18.54 0.318 71.037
17096.542 0.318 71.008 0.946 -18.571 0.946 -18.571 0.318 71.008
17121.5 0.319 70.978 0.945 -18.601 0.945 -18.601 0.319 70.978
17146.458 0.319 70.949 0.945 -18.631 0.945 -18.631 0.319 70.949
17171.417 0.32 70.92 0.945 -18.661 0.945 -18.661 0.32 70.92
17196.375 0.32 70.89 0.945 -18.691 0.945 -18.691 0.32 70.89
17221.333 0.321 70.861 0.945 -18.721 0.945 -18.721 0.321 70.861
17246.292 0.321 70.832 0.945 -18.751 0.945 -18.751 0.321 70.832
17271.25 0.322 70.803 0.944 -18.781 0.944 -18.781 0.322 70.803
17296.208 0.322 70.773 0.944 -18.81 0.944 -18.81 0.322 70.773
17321.167 0.323 70.744 0.944 -18.84 0.944 -18.84 0.323 70.744
17346.125 0.323 70.715 0.944 -18.87 0.944 -18.87 0.323 70.715
17371.083 0.324 70.686 0.944 -18.9 0.944 -18.9 0.324 70.686
17396.042 0.324 70.657 0.944 -18.93 0.944 -18.93 0.324 70.657
17421 0.325 70.627 0.943 -18.96 0.943 -18.96 0.325 70.627
17445.958 0.325 70.598 0.943 -18.99 0.943 -18.99 0.325 70.598
17470.917 0.326 70.569 0.943 -19.02 0.943 -19.02 0.326 70.569
17495.875 0.326 70.54 0.943 -19.049 0.943 -19.049 0.326 70.54
17520.833 0.327 70.511 0.943 -19.079 0.943 -19.079 0.327 70.511
17545.792 0.327 70.482 0.943 -19.109 0.943 -19.109 0.327 70.482
17570.75 0.328 70.453 0.942 -19.139 0.942 -19.139 0.328 70.453
17595.708 0.328 70.424 0.942 -19.168 0.942 -19.168 0.328 70.424
17620.667 0.329 70.395 0.942 -19.198 0.942 -19.198 0.329 70.395
17645.625 0.329 70.366 0.942 -19.228 0.942 -19.228 0.329 70.366
17670.583 0.33 70.337 0.942 -19.257 0.942 -19.257 0.33 70.337
17695.542 0.33 70.308 0.942 -19.287 0.942 -19.287 0.33 70.308
17720.5 0.331 70.279 0.941 -19.317 0.941 -19.317 0.331 70.279
17745.458 0.331 70.25 0.941 -19.346 0.941 -19.346 0.331 70.25
17770.417 0.332 70.221 0.941 -19.376 0.941 -19.376 0.332 70.221
17795.375 0.332 70.192 0.941 -19.406 0.941 -19.406 0.332 70.192
17820.333 0.333 70.163 0.941 -19.435 0.941 -19.435 0.333 70.163
17845.292 0.333 70.134 0.941 -19.465 0.941 -19.465 0.333 70.134
17870.25 0.334 70.105 0.94 -19.494 0.94 -19.494 0.334 70.105
17895.208 0.334 70.076 0.94 -19.524 0.94 -19.524 0.334 70.076
17920.167 0.335 70.048 0.94 -19.553 0.94 -19.553 0.335 70.048
17945.125 0.335 70.019 0.94 -19.583 0.94 -19.583 0.335 70.019
17970.083 0.336 69.99 0.94 -19.612 0.94 -19.612 0.336 69.99
17995.042 0.336 69.961 0.939 -19.642 0.939 -19.642 0.336 69.961
18020 0.337 69.932 0.939 -19.671 0.939 -19.671 0.337 69.932
18044.958 0.337 69.904 0.939 -19.7 0.939 -19.7 0.337 69.904
18069.917 0.338 69.875 0.939 -19.73 0.939 -19.73 0.338 69.875
18094.875 0.338 69.846 0.939 -19.759 0.939 -19.759 0.338 69.846
18119.833 0.339 69.817 0.939 -19.789 0.939 -19.789 0.339 69.817
18144.792 0.339 69.789 0.938 -19.818 0.938 -19.818 0.339 69.789
18169.75 0.34 69.76 0.938 -19.847 0.938 -19.847 0.34 69.76
18194.708 0.34 69.731 0.938 -19.877 0.938 -19.877 0.34 69.731
18219.667 0.34 69.703 0.938 -19.906 0.938 -19.906 0.34 69.703
18244.625 0.341 69.674 0.938 -19.935 0.938 -19.935 0.341 69.674
18269.583 0.341 69.645 0.938 -19.965 0.938 -19.965 0.341 69.645
18294.542 0.342 69.617 0.937 -19.994 0.937 -19.994 0.342 69.617
18319.5 0.342 69.588 0.937 -20.023 0.937 -20.023 0.342 69.588
18344.458 0.343 69.559 0.937 -20.052 0.937 -20.052 0.343 69.559
18369.417 0.343 69.531 0.937 -20.081 0.937 -20.081 0.343 69.531
18394.375 0.344 69.502 0.937 -20.111 0.937 -20.111 0.344 69.502
18419.333 0.344 69.474 0.937 -20.14 0.937 -20.14 0.344 69.474
18444.292 0.345 69.445 0.936 -20.169 0.936 -20.169 0.345 69.445
18469.25 0.345 69.417 0.936 -20.198 0.936 -20.198 0.345 69.417
18494.208 0.346 69.388 0.936 -20.227 0.936 -20.227 0.346 69.388
18519.167 0.346 69.36 0.936 -20.256 0.936 -20.256 0.346 69.36
18544.125 0.347 69.331 0.936 -20.285 0.936 -20.285 0.347 69.331
18569.083 0.347 69.303 0.935 -20.314 0.935 -20.314 0.347 69.303
18594.042 0.348 69.274 0.935 -20.344 0.935 -20.344 0.348 69.274
18619 0.348 69.246 0.935 -20.373 0.935 -20.373 0.348 69.246
18643.958 0.349 69.217 0.935 -20.402 0.935 -20.402 0.349 69.217
18668.917 0.349 69.189 0.935 -20.431 0.935 -20.431 0.349 69.189
18693.875 0.35 69.16 0.935 -20.46 0.935 -20.46 0.35 69.16
18718.833 0.35 69.132 0.934 -20.489 0.934 -20.489 0.35 69.132
18743.792 0.351 69.104 0.934 -20.518 0.934 -20.518 0.351 69.104
18768.75 0.351 69.075 0.934 -20.547 0.934 -20.547 0.351 69.075
18793.708 0.351 69.047 0.934 -20.575 0.934 -20.575 0.351 69.047
18818.667 0.352 69.019 0.934 -20.604 0.934 -20.604 0.352 69.019
18843.625 0.352 68.99 0.934 -20.633 0.934 -20.633 0.352 68.99
18868.583 0.353 68.962 0.933 -20.662 0.933 -20.662 0.353 68.962
18893.542 0.353 68.934 0.933 -20.691 0.933 -20.691 0.353 68.934
18918.5 0.354 68.905 0.933 -20.72 0.933 -20.72 0.354 68.905
18943.458 0.354 68.877 0.933 -20.749 0.933 -20.749 0.354 68.877
18968.417 0.355 68.849 0.933 -20.777 0.933 -20.777 0.355 68.849
18993.375 0.355 68.821 0.932 -20.806 0.932 -20.806 0.355 68.821
19018.333 0.356 68.792 0.932 -20.835 0.932 -20.835 0.356 68.792
19043.292 0.356 68.764 0.932 -20.864 0.932 -20.864 0.356 68.764
19068.25 0.357 68.736 0.932 -20.893 0.932 -20.893 0.357 68.736
19093.208 0.357 68.708 0.932 -20.921 0.932 -20.921 0.357 68.708
19118.167 0.358 68.68 0.932 -20.95 0.932 -20.95 0.358 68.68
19143.125 0.358 68.652 0.931 -20.979 0.931 -20.979 0.358 68.652
19168.083 0.358 68.623 0.931 -21.007 0.931 -21.007 0.358 68.623
19193.042 0.359 68.595 0.931 -21.036 0.931 -21.036 0.359 68.595
19218 0.359 68.567 0.931 -21.065 0.931 -21.065 0.359 68.567
19242.958 0.36 68.539 0.931 -21.093 0.931 -21.093 0.36 68.539
19267.917 0.36 68.511 0.931 -21.122 0.931 -21.122 0.36 68.511
19292.875 0.361 68.483 0.93 -21.151 0.93 -21.151 0.361 68.483
19317.833 0.361 68.455 0.93 -21.179 0.93 -21.179 0.361 68.455
19342.792 0.362 68.427 0.93 -21.208 0.93 -21.208 0.362 68.427
19367.75 0.362 68.399 0.93 -21.236 0.93 -21.236 0.362 68.399
19392.708 0.363 68.371 0.93 -21.265 0.93 -21.265 0.363 68.371
19417.667 0.363 68.343 0.929 -21.293 0.929 -21.293 0.363 68.343
19442.625 0.364 68.315 0.929 -21.322 0.929 -21.322 0.364 68.315
19467.583 0.364 68.287 0.929 -21.35 0.929 -21.35 0.364 68.287
19492.542 0.365 68.259 0.929 -21.379 0.929 -21.379 0.365 68.259
19517.5 0.365 68.231 0.929 -21.407 0.929 -21.407 0.365 68.231
19542.458 0.365 68.203 0.929 -21.436 0.929 -21.436 0.365 68.203
19567.417 0.366 68.175 0.928 -21.464 0.928 -21.464 0.366 68.175
19592.375 0.366 68.147 0.928 -21.493 0.928 -21.493 0.366 68.147
19617.333 0.367 68.119 0.928 -21.521 0.928 -21.521 0.367 68.119
19642.292 0.367 68.091 0.928 -21.55 0.928 -21.55 0.367 68.091
19667.25 0.368 68.064 0.928 -21.578 0.928 -21.578 0.368 68.064
19692.208 0.368 68.036 0.927 -21.606 0.927 -21.606 0.368 68.036
19717.167 0.369 68.008 0.927 -21.635 0.927 -21.635 0.369 68.008
19742.125 0.369 67.98 0.927 -21.663 0.927 -21.663 0.369 67.98
19767.083 0.37 67.952 0.927 -21.691 0.927 -21.691 0.37 67.952
19792.042 0.37 67.925 0.927 -21.72 0.927 -21.72 0.37 67.925
19817 0.371 67.897 0.927 -21.748 0.927 -21.748 0.371 67.897
19841.958 0.371 67.869 0.926 -21.776 0.926 -21.776 0.371 67.869
19866.917 0.371 67.841 0.926 -21.804 0.926 -21.804 0.371 67.841
19891.875 0.372 67.814 0.926 -21.833 0.926 -21.833 0.372 67.814
19916.833 0.372 67.786 0.926 -21.861 0.926 -21.861 0.372 67.786
19941.792 0.373 67.758 0.926 -21.889 0.926 -21.889 0.373 67.758
19966.75 0.373 67.73 0.925 -21.917 0.925 -21.917 0.373 67.73
19991.708 0.374 67.703 0.925 -21.945 0.925 -21.945 0.374 67.703
20016.667 0.374 67.675 0.925 -21.974 0.925 -21.974 0.374 67.675
20041.625 0.375 67.647 0.925 -22.002 0.925 -22.002 0.375 67.647
20066.583 0.375 67.62 0.925 -22.03 0.925 -22.03 0.375 67.62
20091.542 0.376 67.592 0.925 -22.058 0.925 -22.058 0.376 67.592
20116.5 0.376 67.565 0.924 -22.086 0.924 -22.086 0.376 67.565
20141.458 0.376 67.537 0.924 -22.114 0.924 -22.114 0.376 67.537
20166.417 0.377 67.509 0.924 -22.142 0.924 -22.142 0.377 67.509
20191.375 0.377 67.482 0.924 -22.17 0.924 -22.17 0.377 67.482
20216.333 0.378 67.454 0.924 -22.198 0.924 -22.198 0.378 67.454
20241.292 0.378 67.427 0.923 -22.226 0.923 -22.226 0.378 67.427
20266.25 0.379 67.399 0.923 -22.254 0.923 -22.254 0.379 67.399
20291.208 0.379 67.372 0.923 -22.282 0.923 -22.282 0.379 67.372
20316.167 0.38 67.344 0.923 -22.31 0.923 -22.31 0.38 67.344
20341.125 0.38 67.317 0.923 -22.338 0.923 -22.338 0.38 67.317
20366.083 0.381 67.289 0.922 -22.366 0.922 -22.366 0.381 67.289
20391.042 0.381 67.262 0.922 -22.394 0.922 -22.394 0.381 67.262
20416 0.381 67.234 0.922 -22.422 0.922 -22.422 0.381 67.234
20440.958 0.382 67.207 0.922 -22.45 0.922 -22.45 0.382 67.207
20465.917 0.382 67.18 0.922 -22.478 0.922 -22.478 0.382 67.18
20490.875 0.383 67.152 0.922 -22.506 0.922 -22.506 0.383 67.152
20515.833 0.383 67.125 0.921 -22.533 0.921 -22.533 0.383 67.125
20540.792 0.384 67.097 0.921 -22.561 0.921 -22.561 0.384 67.097
20565.75 0.384 67.07 0.921 -22.589 0.921 -22.589 0.384 67.07
20590.708 0.385 67.043 0.921 -22.617 0.921 -22.617 0.385 67.043
20615.667 0.385 67.015 0.921 -22.645 0.921 -22.645 0.385 67.015
20640.625 0.385 66.988 0.92 -22.673 0.92 -22.673 0.385 66.988
20665.583 0.386 66.961 0.92 -22.7 0.92 -22.7 0.386 66.961
20690.542 0.386 66.934 0.92 -22.728 0.92 -22.728 0.386 66.934
20715.5 0.387 66.906 0.92 -22.756 0.92 -22.756 0.387 66.906
20740.458 0.387 66.879 0.92 -22.783 0.92 -22.783 0.387 66.879
20765.417 0.388 66.852 0.92 -22.811 0.92 -22.811 0.388 66.852
20790.375 0.388 66.825 0.919 -22.839 0.919 -22.839 0.388 66.825
20815.333 0.389 66.797 0.919 -22.867 0.919 -22.867 0.389 66.797
20840.292 0.389 66.77 0.919 -22.894 0.919 -22.894 0.389 66.77
20865.25 0.389 66.743 0.919 -22.922 0.919 -22.922 0.389 66.743
20890.208 0.39 66.716 0.919 -22.949 0.919 -22.949 0.39 66.716
20915.167 0.39 66.689 0.918 -22.977 0.918 -22.977 0.39 66.689
20940.125 0.391 66.661 0.918 -23.005 0.918 -23.005 0.391 66.661
20965.083 0.391 66.634 0.918 -23.032 0.918 -23.032 0.391 66.634
20990.042 0.392 66.607 0.918 -23.06 0.918 -23.06 0.392 66.607
21015 0.392 66.58 0.918 -23.087 0.918 -23.087 0.392 66.58
21039.958 0.393 66.553 0.917 -23.115 0.917 -23.115 0.393 66.553
21064.917 0.393 66.526 0.917 -23.142 0.917 -23.142 0.393 66.526
21089.875 0.393 66.499 0.917 -23.17 0.917 -23.17 0.393 66.499
21114.833 0.394 66.472 0.917 -23.197 0.917 -23.197 0.394 66.472
21139.792 0.394 66.445 0.917 -23.225 0.917 -23.225 0.394 66.445
21164.75 0.395 66.418 0.917 -23.252 0.917 -23.252 0.395 66.418
21189.708 0.395 66.391 0.916 -23.28 0.916 -23.28 0.395 66.391
21214.667 0.396 66.364 0.916 -23.307 0.916 -23.307 0.396 66.364
21239.625 0.396 66.337 0.916 -23.335 0.916 -23.335 0.396 66.337
21264.583 0.397 66.31 0.916 -23.362 0.916 -23.362 0.397 66.31
21289.542 0.397 66.283 0.916 -23.39 0.916 -23.39 0.397 66.283
21314.5 0.397 66.256 0.915 -23.417 0.915 -23.417 0.397 66.256
21339.458 0.398 66.229 0.915 -23.444 0.915 -23.444 0.398 66.229
21364.417 0.398 66.202 0.915 -23.472 0.915 -23.472 0.398 66.202
21389.375 0.399 66.175 0.915 -23.499 0.915 -23.499 0.399 66.175
21414.333 0.399 66.148 0.915 -23.526 0.915 -23.526 0.399 66.148
21439.292 0.4 66.121 0.914 -23.554 0.914 -23.554 0.4 66.121
21464.25 0.4 66.094 0.914 -23.581 0.914 -23.581 0.4 66.094
21489.208 0.4 66.068 0.914 -23.608 0.914 -23.608 0.4 66.068
21514.167 0.401 66.041 0.914 -23.635 0.914 -23.635 0.401 66.041
21539.125 0.401 66.014 0.914 -23.663 0.914 -23.663 0.401 66.014
21564.083 0.402 65.987 0.913 -23.69 0.913 -23.69 0.402 65.987
21589.042 0.402 65.96 0.913 -23.717 0.913 -23.717 0.402 65.96
21614 0.403 65.933 0.913 -23.744 0.913 -23.744 0.403 65.933
21638.958 0.403 65.907 0.913 -23.771 0.913 -23.771 0.403 65.907
21663.917 0.404 65.88 0.913 -23.799 0.913 -23.799 0.404 65.88
21688.875 0.404 65.853 0.913 -23.826 0.913 -23.826 0.404 65.853
21713.833 0.404 65.826 0.912 -23.853 0.912 -23.853 0.404 65.826
21738.792 0.405 65.8 0.912 -23.88 0.912 -23.88 0.405 65.8
21763.75 0.405 65.773 0.912 -23.907 0.912 -23.907 0.405 65.773
21788.708 0.406 65.746 0.912 -23.934 0.912 -23.934 0.406 65.746
21813.667 0.406 65.72 0.912 -23.961 0.912 -23.961 0.406 65.72
21838.625 0.407 65.693 0.911 -23.988 0.911 -23.988 0.407 65.693
21863.583 0.407 65.666 0.911 -24.015 0.911 -24.015 0.407 65.666
21888.542 0.407 65.64 0.911 -24.043 0.911 -24.043 0.407 65.64
21913.5 0.408 65.613 0.911 -24.07 0.911 -24.07 0.408 65.613
21938.458 0.408 65.586 0.911 -24.097 0.911 -24.097 0.408 65.586
21963.417 0.409 65.56 0.91 -24.124 0.91 -24.124 0.409 65.56
21988.375 0.409 65.533 0.91 -24.151 0.91 -24.151 0.409 65.533
22013.333 0.41 65.507 0.91 -24.177 0.91 -24.177 0.41 65.507
22038.292 0.41 65.48 0.91 -24.204 0.91 -24.204 0.41 65.48
22063.25 0.41 65.454 0.91 -24.231 0.91 -24.231 0.41 65.454
22088.208 0.411 65.427 0.909 -24.258 0.909 -24.258 0.411 65.427
22113.167 0.411 65.401 0.909 -24.285 0.909 -24.285 0.411 65.401
22138.125 0.412 65.374 0.909 -24.312 0.909 -24.312 0.412 65.374
22163.083 0.412 65.348 0.909 -24.339 0.909 -24.339 0.412 65.348
22188.042 0.413 65.321 0.909 -24.366 0.909 -24.366 0.413 65.321
22213 0.413 65.295 0.908 -24.393 0.908 -24.393 0.413 65.295
22237.958 0.413 65.268 0.908 -24.42 0.908 -24.42 0.413 65.268
22262.917 0.414 65.242 0.908 -24.446 0.908 -24.446 0.414 65.242
22287.875 0.414 65.215 0.908 -24.473 0.908 -24.473 0.414 65.215
22312.833 0.415 65.189 0.908 -24.5 0.908 -24.5 0.415 65.189
22337.792 0.415 65.163 0.908 -24.527 0.908 -24.527 0.415 65.163
22362.75 0.416 65.136 0.907 -24.554 0.907 -24.554 0.416 65.136
22387.708 0.416 65.11 0.907 -24.58 0.907 -24.58 0.416 65.11
22412.667 0.416 65.083 0.907 -24.607 0.907 -24.607 0.416 65.083
22437.625 0.417 65.057 0.907 -24.634 0.907 -24.634 0.417 65.057
22462.583 0.417 65.031 0.907 -24.66 0.907 -24.66 0.417 65.031
22487.542 0.418 65.004 0.906 -24.687 0.906 -24.687 0.418 65.004
22512.5 0.418 64.978 0.906 -24.714 0.906 -24.714 0.418 64.978
22537.458 0.419 64.952 0.906 -24.74 0.906 -24.74 0.419 64.952
22562.417 0.419 64.926 0.906 -24.767 0.906 -24.767 0.419 64.926
22587.375 0.419 64.899 0.906 -24.794 0.906 -24.794 0.419 64.899
22612.333 0.42 64.873 0.905 -24.82 0.905 -24.82 0.42 64.873
22637.292 0.42 64.847 0.905 -24.847 0.905 -24.847 0.42 64.847
22662.25 0.421 64.821 0.905 -24.874 0.905 -24.874 0.421 64.821
22687.208 0.421 64.794 0.905 -24.9 0.905 -24.9 0.421 64.794
22712.167 0.421 64.768 0.905 -24.927 0.905 -24.927 0.421 64.768
22737.125 0.422 64.742 0.904 -24.953 0.904 -24.953 0.422 64.742
22762.083 0.422 64.716 0.904 -24.98 0.904 -24.98 0.422 64.716
22787.042 0.423 64.69 0.904 -25.006 0.904 -25.006 0.423 64.69
22812 0.423 64.664 0.904 -25.033 0.904 -25.033 0.423 64.664
22836.958 0.424 64.637 0.904 -25.059 0.904 -25.059 0.424 64.637
22861.917 0.424 64.611 0.903 -25.086 0.903 -25.086 0.424 64.611
22886.875 0.424 64.585 0.903 -25.112 0.903 -25.112 0.424 64.585
22911.833 0.425 64.559 0.903 -25.139 0.903 -25.139 0.425 64.559
22936.792 0.425 64.533 0.903 -25.165 0.903 -25.165 0.425 64.533
22961.75 0.426 64.507 0.903 -25.192 0.903 -25.192 0.426 64.507
22986.708 0.426 64.481 0.902 -25.218 0.902 -25.218 0.426 64.481
23011.667 0.426 64.455 0.902 -25.244 0.902 -25.244 0.426 64.455
23036.625 0.427 64.429 0.902 -25.271 0.902 -25.271 0.427 64.429
23061.583 0.427 64.403 0.902 -25.297 0.902 -25.297 0.427 64.403
23086.542 0.428 64.377 0.902 -25.324 0.902 -25.324 0.428 64.377
23111.5 0.428 64.351 0.901 -25.35 0.901 -25.35 0.428 64.351
23136.458 0.429 64.325 0.901 -25.376 0.901 -25.376 0.429 64.325
23161.417 0.429 64.299 0.901 -25.403 0.901 -25.403 0.429 64.299
23186.375 0.429 64.273 0.901 -25.429 0.901 -25.429 0.429 64.273
23211.333 0.43 64.247 0.901 -25.455 0.901 -25.455 0.43 64.247
23236.292 0.43 64.221 0.9 -25.481 0.9 -25.481 0.43 64.221
23261.25 0.431 64.195 0.9 -25.508 0.9 -25.508 0.431 64.195
23286.208 0.431 64.169 0.9 -25.534 0.9 -25.534 0.431 64.169
23311.167 0.431 64.143 0.9 -25.56 0.9 -25.56 0.431 64.143
23336.125 0.432 64.118 0.9 -25.586 0.9 -25.586 0.432 64.118
23361.083 0.432 64.092 0.9 -25.613 0.9 -25.613 0.432 64.092
23386.042 0.433 64.066 0.899 -25.639 0.899 -25.639 0.433 64.066
23411 0.433 64.04 0.899 -25.665 0.899 -25.665 0.433 64.04
23435.958 0.434 64.014 0.899 -25.691 0.899 -25.691 0.434 64.014
23460.917 0.434 63.988 0.899 -25.717 0.899 -25.717 0.434 63.988
23485.875 0.434 63.963 0.899 -25.743 0.899 -25.743 0.434 63.963
23510.833 0.435 63.937 0.898 -25.769 0.898 -25.769 0.435 63.937
23535.792 0.435 63.911 0.898 -25.796 0.898 -25.796 0.435 63.911
23560.75 0.436 63.885 0.898 -25.822 0.898 -25.822 0.436 63.885
23585.708 0.436 63.86 0.898 -25.848 0.898 -25.848 0.436 63.86
23610.667 0.436 63.834 0.898 -25.874 0.898 -25.874 0.436 63.834
23635.625 0.437 63.808 0.897 -25.9 0.897 -25.9 0.437 63.808
23660.583 0.437 63.782 0.897 -25.926 0.897 -25.926 0.437 63.782
23685.542 0.438 63.757 0.897 -25.952 0.897 -25.952 0.438 63.757
23710.5 0.438 63.731 0.897 -25.978 0.897 -25.978 0.438 63.731
23735.458 0.438 63.705 0.897 -26.004 0.897 -26.004 0.438 63.705
23760.417 0.439 63.68 0.896 -26.03 0.896 -26.03 0.439 63.68
23785.375 0.439 63.654 0.896 -26.056 0.896 -26.056 0.439 63.654
23810.333 0.44 63.629 0.896 -26.082 0.896 -26.082 0.44 63.629
23835.292 0.44 63.603 0.896 -26.108 0.896 -26.108 0.44 63.603
23860.25 0.44 63.577 0.896 -26.134 0.896 -26.134 0.44 63.577
23885.208 0.441 63.552 0.895 -26.16 0.895 -26.16 0.441 63.552
23910.167 0.441 63.526 0.895 -26.185 0.895 -26.185 0.441 63.526
23935.125 0.442 63.501 0.895 -26.211 0.895 -26.211 0.442 63.501
23960.083 0.442 63.475 0.895 -26.237 0.895 -26.237 0.442 63.475
23985.042 0.442 63.45 0.895 -26.263 0.895 -26.263 0.442 63.45
24010 0.443 63.424 0.894 -26.289 0.894 -26.289 0.443 63.424
24034.958 0.443 63.399 0.894 -26.315 0.894 -26.315 0.443 63.399
24059.917 0.444 63.373 0.894 -26.341 0.894 -26.341 0.444 63.373
24084.875 0.444 63.348 0.894 -26.366 0.894 -26.366 0.444 63.348
24109.833 0.445 63.322 0.894 -26.392 0.894 -26.392 0.445 63.322
24134.792 0.445 63.297 0.893 -26.418 0.893 -26.418 0.445 63.297
24159.75 0.445 63.271 0.893 -26.444 0.893 -26.444 0.445 63.271
24184.708 0.446 63.246 0.893 -26.469 0.893 -26.469 0.446 63.246
24209.667 0.446 63.22 0.893 -26.495 0.893 -26.495 0.446 63.22
24234.625 0.447 63.195 0.893 -26.521 0.893 -26.521 0.447 63.195
24259.583 0.447 63.17 0.892 -26.547 0.892 -26.547 0.447 63.17
24284.542 0.447 63.144 0.892 -26.572 0.892 -26.572 0.447 63.144
24309.5 0.448 63.119 0.892 -26.598 0.892 -26.598 0.448 63.119
24334.458 0.448 63.094 0.892 -26.624 0.892 -26.624 0.448 63.094
24359.417 0.449 63.068 0.892 -26.649 0.892 -26.649 0.449 63.068
24384.375 0.449 63.043 0.891 -26.675 0.891 -26.675 0.449 63.043
24409.333 0.449 63.018 0.891 -26.7 0.891 -26.7 0.449 63.018
24434.292 0.45 62.992 0.891 -26.726 0.891 -26.726 0.45 62.992
24459.25 0.45 62.967 0.891 -26.752 0.891 -26.752 0.45 62.967
24484.208 0.451 62.942 0.891 -26.777 0.891 -26.777 0.451 62.942
24509.167 0.451 62.917 0.89 -26.803 0.89 -26.803 0.451 62.917
24534.125 0.451 62.891 0.89 -26.828 0.89 -26.828 0.451 62.891
24559.083 0.452 62.866 0.89 -26.854 0.89 -26.854 0.452 62.866
24584.042 0.452 62.841 0.89 -26.879 0.89 -26.879 0.452 62.841
24609 0.453 62.816 0.89 -26.905 0.89 -26.905 0.453 62.816
24633.958 0.453 62.79 0.889 -26.93 0.889 -26.93 0.453 62.79
24658.917 0.453 62.765 0.889 -26.956 0.889 -26.956 0.453 62.765
24683.875 0.454 62.74 0.889 -26.981 0.889 -26.981 0.454 62.74
24708.833 0.454 62.715 0.889 -27.007 0.889 -27.007 0.454 62.715
24733.792 0.454 62.69 0.889 -27.032 0.889 -27.032 0.454 62.69
24758.75 0.455 62.665 0.888 -27.058 0.888 -27.058 0.455 62.665
24783.708 0.455 62.64 0.888 -27.083 0.888 -27.083 0.455 62.64
24808.667 0.456 62.614 0.888 -27.109 0.888 -27.109 0.456 62.614
24833.625 0.456 62.589 0.888 -27.134 0.888 -27.134 0.456 62.589
24858.583 0.456 62.564 0.888 -27.159 0.888 -27.159 0.456 62.564
24883.542 0.457 62.539 0.887 -27.185 0.887 -27.185 0.457 62.539
24908.5 0.457 62.514 0.887 -27.21 0.887 -27.21 0.457 62.514
24933.458 0.458 62.489 0.887 -27.235 0.887 -27.235 0.458 62.489
24958.417 0.458 62.464 0.887 -27.261 0.887 -27.261 0.458 62.464
24983.375 0.458 62.439 0.887 -27.286 0.887 -27.286 0.458 62.439
25008.333 0.459 62.414 0.886 -27.311 0.886 -27.311 0.459 62.414
25033.292 0.459 62.389 0.886 -27.337 0.886 -27.337 0.459 62.389
25058.25 0.46 62.364 0.886 -27.362 0.886 -27.362 0.46 62.364
25083.208 0.46 62.339 0.886 -27.387 0.886 -27.387 0.46 62.339
25108.167 0.46 62.314 0.886 -27.412 0.886 -27.412 0.46 62.314
25133.125 0.461 62.289 0.885 -27.438 0.885 -27.438 0.461 62.289
25158.083 0.461 62.264 0.885 -27.463 0.885 -27.463 0.461 62.264
25183.042 0.462 62.24 0.885 -27.488 0.885 -27.488 0.462 62.24
25208 0.462 62.215 0.885 -27.513 0.885 -27.513 0.462 62.215
25232.958 0.462 62.19 0.885 -27.538 0.885 -27.538 0.462 62.19
25257.917 0.463 62.165 0.884 -27.564 0.884 -27.564 0.463 62.165
25282.875 0.463 62.14 0.884 -27.589 0.884 -27.589 0.463 62.14
25307.833 0.464 62.115 0.884 -27.614 0.884 -27.614 0.464 62.115
25332.792 0.464 62.09 0.884 -27.639 0.884 -27.639 0.464 62.09
25357.75 0.464 62.066 0.883 -27.664 0.883 -27.664 0.464 62.066
25382.708 0.465 62.041 0.883 -27.689 0.883 -27.689 0.465 62.041
25407.667 0.465 62.016 0.883 -27.714 0.883 -27.714 0.465 62.016
25432.625 0.465 61.991 0.883 -27.739 0.883 -27.739 0.465 61.991
25457.583 0.466 61.966 0.883 -27.764 0.883 -27.764 0.466 61.966
25482.542 0.466 61.942 0.882 -27.789 0.882 -27.789 0.466 61.942
25507.5 0.467 61.917 0.882 -27.814 0.882 -27.814 0.467 61.917
25532.458 0.467 61.892 0.882 -27.839 0.882 -27.839 0.467 61.892
25557.417 0.467 61.867 0.882 -27.864 0.882 -27.864 0.467 61.867
25582.375 0.468 61.843 0.882 -27.889 0.882 -27.889 0.468 61.843
25607.333 0.468 61.818 0.881 -27.914 0.881 -27.914 0.468 61.818
25632.292 0.469 61.793 0.881 -27.939 0.881 -27.939 0.469 61.793
25657.25 0.469 61.769 0.881 -27.964 0.881 -27.964 0.469 61.769
25682.208 0.469 61.744 0.881 -27.989 0.881 -27.989 0.469 61.744
25707.167 0.47 61.719 0.881 -28.014 0.881 -28.014 0.47 61.719
25732.125 0.47 61.695 0.88 -28.039 0.88 -28.039 0.47 61.695
25757.083 0.47 61.67 0.88 -28.064 0.88 -28.064 0.47 61.67
25782.042 0.471 61.646 0.88 -28.089 0.88 -28.089 0.471 61.646
25807 0.471 61.621 0.88 -28.114 0.88 -28.114 0.471 61.621
25831.958 0.472 61.596 0.88 -28.138 0.88 -28.138 0.472 61.596
25856.917 0.472 61.572 0.879 -28.163 0.879 -28.163 0.472 61.572
25881.875 0.472 61.547 0.879 -28.188 0.879 -28.188 0.472 61.547
25906.833 0.473 61.523 0.879 -28.213 0.879 -28.213 0.473 61.523
25931.792 0.473 61.498 0.879 -28.238 0.879 -28.238 0.473 61.498
25956.75 0.474 61.474 0.879 -28.263 0.879 -28.263 0.474 61.474
25981.708 0.474 61.449 0.878 -28.287 0.878 -28.287 0.474 61.449
26006.667 0.474 61.425 0.878 -28.312 0.878 -28.312 0.474 61.425
26031.625 0.475 61.4 0.878 -28.337 0.878 -28.337 0.475 61.4
26056.583 0.475 61.376 0.878 -28.362 0.878 -28.362 0.475 61.376
26081.542 0.475 61.351 0.878 -28.386 0.878 -28.386 0.475 61.351
26106.5 0.476 61.327 0.877 -28.411 0.877 -28.411 0.476 61.327
26131.458 0.476 61.302 0.877 -28.436 0.877 -28.436 0.476 61.302
26156.417 0.477 61.278 0.877 -28.46 0.877 -28.46 0.477 61.278
26181.375 0.477 61.254 0.877 -28.485 0.877 -28.485 0.477 61.254
26206.333 0.477 61.229 0.877 -28.51 0.877 -28.51 0.477 61.229
26231.292 0.478 61.205 0.876 -28.534 0.876 -28.534 0.478 61.205
26256.25 0.478 61.181 0.876 -28.559 0.876 -28.559 0.478 61.181
26281.208 0.478 61.156 0.876 -28.584 0.876 -28.584 0.478 61.156
26306.167 0.479 61.132 0.876 -28.608 0.876 -28.608 0.479 61.132
26331.125 0.479 61.108 0.876 -28.633 0.876 -28.633 0.479 61.108
26356.083 0.48 61.083 0.875 -28.657 0.875 -28.657 0.48 61.083
26381.042 0.48 61.059 0.875 -28.682 0.875 -28.682 0.48 61.059
26406 0.48 61.035 0.875 -28.706 0.875 -28.706 0.48 61.035
26430.958 0.481 61.01 0.875 -28.731 0.875 -28.731 0.481 61.01
26455.917 0.481 60.986 0.875 -28.756 0.875 -28.756 0.481 60.986
26480.875 0.481 60.962 0.874 -28.78 0.874 -28.78 0.481 60.962
26505.833 0.482 60.938 0.874 -28.805 0.874 -28.805 0.482 60.938
26530.792 0.482 60.913 0.874 -28.829 0.874 -28.829 0.482 60.913
26555.75 0.483 60.889 0.874 -28.853 0.874 -28.853 0.483 60.889
26580.708 0.483 60.865 0.873 -28.878 0.873 -28.878 0.483 60.865
26605.667 0.483 60.841 0.873 -28.902 0.873 -28.902 0.483 60.841
26630.625 0.484 60.817 0.873 -28.927 0.873 -28.927 0.484 60.817
26655.583 0.484 60.793 0.873 -28.951 0.873 -28.951 0.484 60.793
26680.542 0.484 60.768 0.873 -28.976 0.873 -28.976 0.484 60.768
26705.5 0.485 60.744 0.872 -29 0.872 -29 0.485 60.744
26730.458 0.485 60.72 0.872 -29.024 0.872 -29.024 0.485 60.72
26755.417 0.486 60.696 0.872 -29.049 0.872 -29.049 0.486 60.696
26780.375 0.486 60.672 0.872 -29.073 0.872 -29.073 0.486 60.672
26805.333 0.486 60.648 0.872 -29.097 0.872 -29.097 0.486 60.648
26830.292 0.487 60.624 0.871 -29.122 0.871 -29.122 0.487 60.624
26855.25 0.487 60.6 0.871 -29.146 0.871 -29.146 0.487 60.6
26880.208 0.487 60.576 0.871 -29.17 0.871 -29.17 0.487 60.576
26905.167 0.488 60.552 0.871 -29.195 0.871 -29.195 0.488 60.552
26930.125 0.488 60.528 0.871 -29.219 0.871 -29.219 0.488 60.528
26955.083 0.489 60.504 0.87 -29.243 0.87 -29.243 0.489 60.504
26980.042 0.489 60.48 0.87 -29.267 0.87 -29.267 0.489 60.48
27005 0.489 60.456 0.87 -29.292 0.87 -29.292 0.489 60.456
27029.958 0.49 60.432 0.87 -29.316 0.87 -29.316 0.49 60.432
27054.917 0.49 60.408 0.87 -29.34 0.87 -29.34 0.49 60.408
27079.875 0.49 60.384 0.869 -29.364 0.869 -29.364 0.49 60.384
27104.833 0.491 60.36 0.869 -29.388 0.869 -29.388 0.491 60.36
27129.792 0.491 60.336 0.869 -29.413 0.869 -29.413 0.491 60.336
27154.75 0.491 60.312 0.869 -29.437 0.869 -29.437 0.491 60.312
27179.708 0.492 60.288 0.869 -29.461 0.869 -29.461 0.492 60.288
27204.667 0.492 60.264 0.868 -29.485 0.868 -29.485 0.492 60.264
27229.625 0.493 60.24 0.868 -29.509 0.868 -29.509 0.493 60.24
27254.583 0.493 60.216 0.868 -29.533 0.868 -29.533 0.493 60.216
27279.542 0.493 60.193 0.868 -29.557 0.868 -29.557 0.493 60.193
27304.5 0.494 60.169 0.868 -29.581 0.868 -29.581 0.494 60.169
27329.458 0.494 60.145 0.867 -29.606 0.867 -29.606 0.494 60.145
27354.417 0.494 60.121 0.867 -29.63 0.867 -29.63 0.494 60.121
27379.375 0.495 60.097 0.867 -29.654 0.867 -29.654 0.495 60.097
27404.333 0.495 60.074 0.867 -29.678 0.867 -29.678 0.495 60.074
27429.292 0.495 60.05 0.866 -29.702 0.866 -29.702 0.495 60.05
27454.25 0.496 60.026 0.866 -29.726 0.866 -29.726 0.496 60.026
27479.208 0.496 60.002 0.866 -29.75 0.866 -29.75 0.496 60.002
27504.167 0.497 59.979 0.866 -29.774 0.866 -29.774 0.497 59.979
27529.125 0.497 59.955 0.866 -29.798 0.866 -29.798 0.497 59.955
27554.083 0.497 59.931 0.865 -29.822 0.865 -29.822 0.497 59.931
27579.042 0.498 59.907 0.865 -29.846 0.865 -29.846 0.498 59.907
27604 0.498 59.884 0.865 -29.869 0.865 -29.869 0.498 59.884
27628.958 0.498 59.86 0.865 -29.893 0.865 -29.893 0.498 59.86
27653.917 0.499 59.836 0.865 -29.917 0.865 -29.917 0.499 59.836
27678.875 0.499 59.813 0.864 -29.941 0.864 -29.941 0.499 59.813
27703.833 0.499 59.789 0.864 -29.965 0.864 -29.965 0.499 59.789
27728.792 0.5 59.765 0.864 -29.989 0.864 -29.989 0.5 59.765
27753.75 0.5 59.742 0.864 -30.013 0.864 -30.013 0.5 59.742
27778.708 0.501 59.718 0.864 -30.037 0.864 -30.037 0.501 59.718
27803.667 0.501 59.695 0.863 -30.06 0.863 -30.06 0.501 59.695
27828.625 0.501 59.671 0.863 -30.084 0.863 -30.084 0.501 59.671
27853.583 0.502 59.648 0.863 -30.108 0.863 -30.108 0.502 59.648
27878.542 0.502 59.624 0.863 -30.132 0.863 -30.132 0.502 59.624
27903.5 0.502 59.6 0.863 -30.156 0.863 -30.156 0.502 59.6
27928.458 0.503 59.577 0.862 -30.179 0.862 -30.179 0.503 59.577
27953.417 0.503 59.553 0.862 -30.203 0.862 -30.203 0.503 59.553
27978.375 0.503 59.53 0.862 -30.227 0.862 -30.227 0.503 59.53
28003.333 0.504 59.506 0.862 -30.25 0.862 -30.25 0.504 59.506
28028.292 0.504 59.483 0.861 -30.274 0.861 -30.274 0.504 59.483
28053.25 0.505 59.459 0.861 -30.298 0.861 -30.298 0.505 59.459
28078.208 0.505 59.436 0.861 -30.322 0.861 -30.322 0.505 59.436
28103.167 0.505 59.413 0.861 -30.345 0.861 -30.345 0.505 59.413
28128.125 0.506 59.389 0.861 -30.369 0.861 -30.369 0.506 59.389
28153.083 0.506 59.366 0.86 -30.393 0.86 -30.393 0.506 59.366
28178.042 0.506 59.342 0.86 -30.416 0.86 -30.416 0.506 59.342
28203 0.507 59.319 0.86 -30.44 0.86 -30.44 0.507 59.319
28227.958 0.507 59.296 0.86 -30.463 0.86 -30.463 0.507 59.296
28252.917 0.507 59.272 0.86 -30.487 0.86 -30.487 0.507 59.272
28277.875 0.508 59.249 0.859 -30.511 0.859 -30.511 0.508 59.249
28302.833 0.508 59.226 0.859 -30.534 0.859 -30.534 0.508 59.226
28327.792 0.508 59.202 0.859 -30.558 0.859 -30.558 0.508 59.202
28352.75 0.509 59.179 0.859 -30.581 0.859 -30.581 0.509 59.179
28377.708 0.509 59.156 0.859 -30.605 0.859 -30.605 0.509 59.156
28402.667 0.509 59.132 0.858 -30.628 0.858 -30.628 0.509 59.132
28427.625 0.51 59.109 0.858 -30.652 0.858 -30.652 0.51 59.109
28452.583 0.51 59.086 0.858 -30.675 0.858 -30.675 0.51 59.086
28477.542 0.511 59.062 0.858 -30.699 0.858 -30.699 0.511 59.062
28502.5 0.511 59.039 0.858 -30.722 0.858 -30.722 0.511 59.039
28527.458 0.511 59.016 0.857 -30.746 0.857 -30.746 0.511 59.016
28552.417 0.512 58.993 0.857 -30.769 0.857 -30.769 0.512 58.993
28577.375 0.512 58.97 0.857 -30.792 0.857 -30.792 0.512 58.97
28602.333 0.512 58.946 0.857 -30.816 0.857 -30.816 0.512 58.946
28627.292 0.513 58.923 0.856 -30.839 0.856 -30.839 0.513 58.923
28652.25 0.513 58.9 0.856 -30.863 0.856 -30.863 0.513 58.9
28677.208 0.513 58.877 0.856 -30.886 0.856 -30.886 0.513 58.877
28702.167 0.514 58.854 0.856 -30.909 0.856 -30.909 0.514 58.854
28727.125 0.514 58.831 0.856 -30.933 0.856 -30.933 0.514 58.831
28752.083 0.514 58.808 0.855 -30.956 0.855 -30.956 0.514 58.808
28777.042 0.515 58.784 0.855 -30.979 0.855 -30.979 0.515 58.784
28802 0.515 58.761 0.855 -31.003 0.855 -31.003 0.515 58.761
28826.958 0.515 58.738 0.855 -31.026 0.855 -31.026 0.515 58.738
28851.917 0.516 58.715 0.855 -31.049 0.855 -31.049 0.516 58.715
28876.875 0.516 58.692 0.854 -31.073 0.854 -31.073 0.516 58.692
28901.833 0.516 58.669 0.854 -31.096 0.854 -31.096 0.516 58.669
28926.792 0.517 58.646 0.854 -31.119 0.854 -31.119 0.517 58.646
28951.75 0.517 58.623 0.854 -31.142 0.854 -31.142 0.517 58.623
28976.708 0.518 58.6 0.854 -31.166 0.854 -31.166 0.518 58.6
29001.667 0.518 58.577 0.853 -31.189 0.853 -31.189 0.518 58.577
29026.625 0.518 58.554 0.853 -31.212 0.853 -31.212 0.518 58.554
29051.583 0.519 58.531 0.853 -31.235 0.853 -31.235 0.519 58.531
29076.542 0.519 58.508 0.853 -31.258 0.853 -31.258 0.519 58.508
29101.5 0.519 58.485 0.853 -31.282 0.853 -31.282 0.519 58.485
29126.458 0.52 58.462 0.852 -31.305 0.852 -31.305 0.52 58.462
29151.417 0.52 58.439 0.852 -31.328 0.852 -31.328 0.52 58.439
29176.375 0.52 58.416 0.852 -31.351 0.852 -31.351 0.52 58.416
29201.333 0.521 58.393 0.852 -31.374 0.852 -31.374 0.521 58.393
29226.292 0.521 58.371 0.851 -31.397 0.851 -31.397 0.521 58.371
29251.25 0.521 58.348 0.851 -31.42 0.851 -31.42 0.521 58.348
29276.208 0.522 58.325 0.851 -31.443 0.851 -31.443 0.522 58.325
29301.167 0.522 58.302 0.851 -31.466 0.851 -31.466 0.522 58.302
29326.125 0.522 58.279 0.851 -31.489 0.851 -31.489 0.522 58.279
29351.083 0.523 58.256 0.85 -31.512 0.85 -31.512 0.523 58.256
29376.042 0.523 58.233 0.85 -31.536 0.85 -31.536 0.523 58.233
29401 0.523 58.211 0.85 -31.559 0.85 -31.559 0.523 58.211
29425.958 0.524 58.188 0.85 -31.582 0.85 -31.582 0.524 58.188
29450.917 0.524 58.165 0.85 -31.605 0.85 -31.605 0.524 58.165
29475.875 0.524 58.142 0.849 -31.627 0.849 -31.627 0.524 58.142
29500.833 0.525 58.12 0.849 -31.65 0.849 -31.65 0.525 58.12
29525.792 0.525 58.097 0.849 -31.673 0.849 -31.673 0.525 58.097
29550.75 0.525 58.074 0.849 -31.696 0.849 -31.696 0.525 58.074
29575.708 0.526 58.051 0.849 -31.719 0.849 -31.719 0.526 58.051
29600.667 0.526 58.029 0.848 -31.742 0.848 -31.742 0.526 58.029
29625.625 0.526 58.006 0.848 -31.765 0.848 -31.765 0.526 58.006
29650.583 0.527 57.983 0.848 -31.788 0.848 -31.788 0.527 57.983
29675.542 0.527 57.961 0.848 -31.811 0.848 -31.811 0.527 57.961
29700.5 0.527 57.938 0.847 -31.834 0.847 -31.834 0.527 57.938
29725.458 0.528 57.915 0.847 -31.857 0.847 -31.857 0.528 57.915
29750.417 0.528 57.893 0.847 -31.879 0.847 -31.879 0.528 57.893
29775.375 0.528 57.87 0.847 -31.902 0.847 -31.902 0.528 57.87
29800.333 0.529 57.847 0.847 -31.925 0.847 -31.925 0.529 57.847
29825.292 0.529 57.825 0.846 -31.948 0.846 -31.948 0.529 57.825
29850.25 0.529 57.802 0.846 -31.971 0.846 -31.971 0.529 57.802
29875.208 0.53 57.78 0.846 -31.993 0.846 -31.993 0.53 57.78
29900.167 0.53 57.757 0.846 -32.016 0.846 -32.016 0.53 57.757
29925.125 0.53 57.735 0.846 -32.039 0.846 -32.039 0.53 57.735
29950.083 0.531 57.712 0.845 -32.062 0.845 -32.062 0.531 57.712
29975.042 0.531 57.689 0.845 -32.084 0.845 -32.084 0.531 57.689
30000 0.532 57.667 0.845 -32.107 0.845 -32.107 0.532 57.667
