!	AVX Thin Film Operation 	Date: April 2014		
!	Description: Accu-P® Series, Thin Film  SMD RF Capacitor
!	Part Number: 0201YK7R5BBSTR					
!								
# MHZ S MA R 50

50 0.973 -13.26 0.229 76.717 0.229 76.717 0.973 -13.26
74.958 0.943 -19.461 0.333 70.505 0.333 70.505 0.943 -19.461
99.917 0.904 -25.227 0.426 64.728 0.426 64.728 0.904 -25.227
124.875 0.861 -30.499 0.508 59.445 0.508 59.445 0.861 -30.499
149.833 0.816 -35.262 0.577 54.671 0.577 54.671 0.816 -35.262
174.792 0.77 -39.53 0.636 50.391 0.636 50.391 0.77 -39.53
199.75 0.726 -43.337 0.686 46.573 0.686 46.573 0.726 -43.337
224.708 0.684 -46.727 0.728 43.172 0.728 43.172 0.684 -46.727
249.667 0.645 -49.744 0.763 40.143 0.763 40.143 0.645 -49.744
274.625 0.608 -52.433 0.793 37.443 0.793 37.443 0.608 -52.433
299.583 0.574 -54.836 0.818 35.029 0.818 35.029 0.574 -54.836
324.542 0.543 -56.988 0.839 32.865 0.839 32.865 0.543 -56.988
349.5 0.514 -58.923 0.856 30.918 0.856 30.918 0.514 -58.923
374.458 0.487 -60.668 0.872 29.161 0.872 29.161 0.487 -60.668
399.417 0.463 -62.248 0.885 27.57 0.885 27.57 0.463 -62.248
424.375 0.44 -63.682 0.896 26.124 0.896 26.124 0.44 -63.682
449.333 0.42 -64.989 0.906 24.805 0.906 24.805 0.42 -64.989
474.292 0.4 -66.185 0.915 23.598 0.915 23.598 0.4 -66.185
499.25 0.383 -67.281 0.922 22.489 0.922 22.489 0.383 -67.281
524.208 0.366 -68.29 0.929 21.468 0.929 21.468 0.366 -68.29
549.167 0.351 -69.221 0.935 20.525 0.935 20.525 0.351 -69.221
574.125 0.336 -70.082 0.94 19.652 0.94 19.652 0.336 -70.082
599.083 0.323 -70.881 0.945 18.84 0.945 18.84 0.323 -70.881
624.042 0.31 -71.625 0.949 18.084 0.949 18.084 0.31 -71.625
649 0.299 -72.318 0.953 17.379 0.953 17.379 0.299 -72.318
673.958 0.288 -72.965 0.956 16.719 0.956 16.719 0.288 -72.965
698.917 0.277 -73.571 0.959 16.1 0.959 16.1 0.277 -73.571
723.875 0.268 -74.14 0.962 15.518 0.962 15.518 0.268 -74.14
748.833 0.258 -74.675 0.964 14.97 0.964 14.97 0.258 -74.675
773.792 0.25 -75.178 0.967 14.453 0.967 14.453 0.25 -75.178
798.75 0.241 -75.653 0.969 13.965 0.969 13.965 0.241 -75.653
823.708 0.233 -76.102 0.971 13.502 0.971 13.502 0.233 -76.102
848.667 0.226 -76.527 0.973 13.064 0.973 13.064 0.226 -76.527
873.625 0.219 -76.93 0.974 12.647 0.974 12.647 0.219 -76.93
898.583 0.212 -77.312 0.976 12.251 0.976 12.251 0.212 -77.312
923.542 0.206 -77.675 0.977 11.873 0.977 11.873 0.206 -77.675
948.5 0.2 -78.021 0.978 11.513 0.978 11.513 0.2 -78.021
973.458 0.194 -78.35 0.979 11.169 0.979 11.169 0.194 -78.35
998.417 0.188 -78.664 0.981 10.84 0.981 10.84 0.188 -78.664
1023.375 0.183 -78.963 0.982 10.525 0.982 10.525 0.183 -78.963
1048.333 0.177 -79.25 0.982 10.223 0.982 10.223 0.177 -79.25
1073.292 0.173 -79.524 0.983 9.934 0.983 9.934 0.173 -79.524
1098.25 0.168 -79.786 0.984 9.655 0.984 9.655 0.168 -79.786
1123.208 0.163 -80.038 0.985 9.388 0.985 9.388 0.163 -80.038
1148.167 0.159 -80.279 0.986 9.13 0.986 9.13 0.159 -80.279
1173.125 0.154 -80.511 0.986 8.882 0.986 8.882 0.154 -80.511
1198.083 0.15 -80.733 0.987 8.642 0.987 8.642 0.15 -80.733
1223.042 0.146 -80.947 0.988 8.411 0.988 8.411 0.146 -80.947
1248 0.142 -81.152 0.988 8.188 0.988 8.188 0.142 -81.152
1272.958 0.139 -81.35 0.989 7.972 0.989 7.972 0.139 -81.35
1297.917 0.135 -81.541 0.989 7.763 0.989 7.763 0.135 -81.541
1322.875 0.132 -81.724 0.99 7.56 0.99 7.56 0.132 -81.724
1347.833 0.128 -81.901 0.99 7.364 0.99 7.364 0.128 -81.901
1372.792 0.125 -82.072 0.991 7.174 0.991 7.174 0.125 -82.072
1397.75 0.122 -82.236 0.991 6.989 0.991 6.989 0.122 -82.236
1422.708 0.119 -82.395 0.991 6.81 0.991 6.81 0.119 -82.395
1447.667 0.116 -82.548 0.992 6.635 0.992 6.635 0.116 -82.548
1472.625 0.113 -82.696 0.992 6.466 0.992 6.466 0.113 -82.696
1497.583 0.11 -82.839 0.992 6.301 0.992 6.301 0.11 -82.839
1522.542 0.107 -82.977 0.993 6.14 0.993 6.14 0.107 -82.977
1547.5 0.104 -83.11 0.993 5.984 0.993 5.984 0.104 -83.11
1572.458 0.102 -83.239 0.993 5.831 0.993 5.831 0.102 -83.239
1597.417 0.099 -83.363 0.993 5.682 0.993 5.682 0.099 -83.363
1622.375 0.097 -83.483 0.994 5.537 0.994 5.537 0.097 -83.483
1647.333 0.094 -83.599 0.994 5.396 0.994 5.396 0.094 -83.599
1672.292 0.092 -83.711 0.994 5.257 0.994 5.257 0.092 -83.711
1697.25 0.089 -83.819 0.994 5.122 0.994 5.122 0.089 -83.819
1722.208 0.087 -83.923 0.995 4.99 0.995 4.99 0.087 -83.923
1747.167 0.085 -84.023 0.995 4.86 0.995 4.86 0.085 -84.023
1772.125 0.083 -84.12 0.995 4.734 0.995 4.734 0.083 -84.12
1797.083 0.08 -84.213 0.995 4.61 0.995 4.61 0.08 -84.213
1822.042 0.078 -84.302 0.995 4.488 0.995 4.488 0.078 -84.302
1847 0.076 -84.388 0.995 4.369 0.995 4.369 0.076 -84.388
1871.958 0.074 -84.47 0.996 4.253 0.996 4.253 0.074 -84.47
1896.917 0.072 -84.549 0.996 4.138 0.996 4.138 0.072 -84.549
1921.875 0.07 -84.625 0.996 4.026 0.996 4.026 0.07 -84.625
1946.833 0.068 -84.697 0.996 3.916 0.996 3.916 0.068 -84.697
1971.792 0.066 -84.766 0.996 3.808 0.996 3.808 0.066 -84.766
1996.75 0.065 -84.831 0.996 3.702 0.996 3.702 0.065 -84.831
2021.708 0.063 -84.892 0.996 3.598 0.996 3.598 0.063 -84.892
2046.667 0.061 -84.95 0.996 3.495 0.996 3.495 0.061 -84.95
2071.625 0.059 -85.005 0.997 3.394 0.997 3.394 0.059 -85.005
2096.583 0.058 -85.056 0.997 3.295 0.997 3.295 0.058 -85.056
2121.542 0.056 -85.103 0.997 3.198 0.997 3.198 0.056 -85.103
2146.5 0.054 -85.146 0.997 3.102 0.997 3.102 0.054 -85.146
2171.458 0.052 -85.186 0.997 3.008 0.997 3.008 0.052 -85.186
2196.417 0.051 -85.221 0.997 2.915 0.997 2.915 0.051 -85.221
2221.375 0.049 -85.252 0.997 2.823 0.997 2.823 0.049 -85.252
2246.333 0.048 -85.278 0.997 2.733 0.997 2.733 0.048 -85.278
2271.292 0.046 -85.3 0.997 2.644 0.997 2.644 0.046 -85.3
2296.25 0.045 -85.318 0.997 2.557 0.997 2.557 0.045 -85.318
2321.208 0.043 -85.33 0.997 2.47 0.997 2.47 0.043 -85.33
2346.167 0.042 -85.336 0.997 2.385 0.997 2.385 0.042 -85.336
2371.125 0.04 -85.337 0.998 2.301 0.998 2.301 0.04 -85.337
2396.083 0.039 -85.332 0.998 2.218 0.998 2.218 0.039 -85.332
2421.042 0.037 -85.32 0.998 2.137 0.998 2.137 0.037 -85.32
2446 0.036 -85.301 0.998 2.056 0.998 2.056 0.036 -85.301
2470.958 0.035 -85.274 0.998 1.976 0.998 1.976 0.035 -85.274
2495.917 0.033 -85.239 0.998 1.898 0.998 1.898 0.033 -85.239
2520.875 0.032 -85.194 0.998 1.82 0.998 1.82 0.032 -85.194
2545.833 0.03 -85.14 0.998 1.743 0.998 1.743 0.03 -85.14
2570.792 0.029 -85.074 0.998 1.667 0.998 1.667 0.029 -85.074
2595.75 0.028 -84.996 0.998 1.592 0.998 1.592 0.028 -84.996
2620.708 0.027 -84.903 0.998 1.518 0.998 1.518 0.027 -84.903
2645.667 0.025 -84.796 0.998 1.445 0.998 1.445 0.025 -84.796
2670.625 0.024 -84.67 0.998 1.372 0.998 1.372 0.024 -84.67
2695.583 0.023 -84.524 0.998 1.301 0.998 1.301 0.023 -84.524
2720.542 0.022 -84.355 0.998 1.23 0.998 1.23 0.022 -84.355
2745.5 0.02 -84.159 0.998 1.16 0.998 1.16 0.02 -84.159
2770.458 0.019 -83.932 0.998 1.09 0.998 1.09 0.019 -83.932
2795.417 0.018 -83.667 0.998 1.021 0.998 1.021 0.018 -83.667
2820.375 0.017 -83.359 0.998 0.953 0.998 0.953 0.017 -83.359
2845.333 0.016 -82.996 0.998 0.886 0.998 0.886 0.016 -82.996
2870.292 0.014 -82.569 0.998 0.819 0.998 0.819 0.014 -82.569
2895.25 0.013 -82.06 0.998 0.753 0.998 0.753 0.013 -82.06
2920.208 0.012 -81.45 0.998 0.688 0.998 0.688 0.012 -81.45
2945.167 0.011 -80.707 0.998 0.623 0.998 0.623 0.011 -80.707
2970.125 9.887e-3 -79.792 0.998 0.558 0.998 0.558 9.887e-3 -79.792
2995.083 8.793e-3 -78.641 0.998 0.495 0.998 0.495 8.793e-3 -78.641
3020.042 7.713e-3 -77.161 0.998 0.432 0.998 0.432 7.713e-3 -77.161
3045 6.651e-3 -75.201 0.998 0.369 0.998 0.369 6.651e-3 -75.201
3069.958 5.608e-3 -72.505 0.998 0.307 0.998 0.307 5.608e-3 -72.505
3094.917 4.593e-3 -68.604 0.998 0.245 0.998 0.245 4.593e-3 -68.604
3119.875 3.621e-3 -62.572 0.998 0.184 0.998 0.184 3.621e-3 -62.572
3144.833 2.725e-3 -52.409 0.998 0.124 0.998 0.124 2.725e-3 -52.409
3169.792 1.997e-3 -33.858 0.998 0.064 0.998 0.064 1.997e-3 -33.858
3194.75 1.659e-3 -2.587 0.998 4.298e-3 0.998 4.298e-3 1.659e-3 -2.587
3219.708 1.914e-3 29.935 0.998 -0.055 0.998 -0.055 1.914e-3 29.935
3244.667 2.582e-3 49.957 0.998 -0.113 0.998 -0.113 2.582e-3 49.957
3269.625 3.424e-3 60.877 0.998 -0.172 0.998 -0.172 3.424e-3 60.877
3294.583 4.334e-3 67.286 0.998 -0.229 0.998 -0.229 4.334e-3 67.286
3319.542 5.272e-3 71.392 0.998 -0.287 0.998 -0.287 5.272e-3 71.392
3344.5 6.224e-3 74.212 0.998 -0.344 0.998 -0.344 6.224e-3 74.212
3369.458 7.179e-3 76.253 0.998 -0.4 0.998 -0.4 7.179e-3 76.253
3394.417 8.136e-3 77.79 0.998 -0.456 0.998 -0.456 8.136e-3 77.79
3419.375 9.091e-3 78.983 0.998 -0.512 0.998 -0.512 9.091e-3 78.983
3444.333 0.01 79.933 0.998 -0.567 0.998 -0.567 0.01 79.933
3469.292 0.011 80.704 0.998 -0.622 0.998 -0.622 0.011 80.704
3494.25 0.012 81.34 0.998 -0.677 0.998 -0.677 0.012 81.34
3519.208 0.013 81.871 0.998 -0.731 0.998 -0.731 0.013 81.871
3544.167 0.014 82.32 0.998 -0.785 0.998 -0.785 0.014 82.32
3569.125 0.015 82.703 0.998 -0.839 0.998 -0.839 0.015 82.703
3594.083 0.016 83.033 0.998 -0.892 0.998 -0.892 0.016 83.033
3619.042 0.017 83.318 0.998 -0.945 0.998 -0.945 0.017 83.318
3644 0.017 83.566 0.998 -0.998 0.998 -0.998 0.017 83.566
3668.958 0.018 83.783 0.998 -1.05 0.998 -1.05 0.018 83.783
3693.917 0.019 83.973 0.998 -1.102 0.998 -1.102 0.019 83.973
3718.875 0.02 84.141 0.998 -1.154 0.998 -1.154 0.02 84.141
3743.833 0.021 84.29 0.998 -1.205 0.998 -1.205 0.021 84.29
3768.792 0.022 84.421 0.998 -1.256 0.998 -1.256 0.022 84.421
3793.75 0.023 84.538 0.998 -1.307 0.998 -1.307 0.023 84.538
3818.708 0.024 84.642 0.998 -1.357 0.998 -1.357 0.024 84.642
3843.667 0.025 84.734 0.998 -1.408 0.998 -1.408 0.025 84.734
3868.625 0.025 84.816 0.998 -1.458 0.998 -1.458 0.025 84.816
3893.583 0.026 84.889 0.998 -1.507 0.998 -1.507 0.026 84.889
3918.542 0.027 84.954 0.998 -1.557 0.998 -1.557 0.027 84.954
3943.5 0.028 85.011 0.998 -1.606 0.998 -1.606 0.028 85.011
3968.458 0.029 85.062 0.998 -1.655 0.998 -1.655 0.029 85.062
3993.417 0.03 85.107 0.998 -1.704 0.998 -1.704 0.03 85.107
4018.375 0.031 85.147 0.998 -1.752 0.998 -1.752 0.031 85.147
4043.333 0.031 85.181 0.998 -1.801 0.998 -1.801 0.031 85.181
4068.292 0.032 85.212 0.998 -1.849 0.998 -1.849 0.032 85.212
4093.25 0.033 85.238 0.998 -1.896 0.998 -1.896 0.033 85.238
4118.208 0.034 85.26 0.998 -1.944 0.998 -1.944 0.034 85.26
4143.167 0.035 85.28 0.998 -1.991 0.998 -1.991 0.035 85.28
4168.125 0.036 85.295 0.998 -2.038 0.998 -2.038 0.036 85.295
4193.083 0.036 85.309 0.998 -2.085 0.998 -2.085 0.036 85.309
4218.042 0.037 85.319 0.998 -2.132 0.998 -2.132 0.037 85.319
4243 0.038 85.327 0.998 -2.179 0.998 -2.179 0.038 85.327
4267.958 0.039 85.332 0.998 -2.225 0.998 -2.225 0.039 85.332
4292.917 0.04 85.336 0.998 -2.271 0.998 -2.271 0.04 85.336
4317.875 0.04 85.337 0.998 -2.317 0.998 -2.317 0.04 85.337
4342.833 0.041 85.337 0.997 -2.363 0.997 -2.363 0.041 85.337
4367.792 0.042 85.335 0.997 -2.408 0.997 -2.408 0.042 85.335
4392.75 0.043 85.331 0.997 -2.454 0.997 -2.454 0.043 85.331
4417.708 0.044 85.326 0.997 -2.499 0.997 -2.499 0.044 85.326
4442.667 0.044 85.32 0.997 -2.544 0.997 -2.544 0.044 85.32
4467.625 0.045 85.312 0.997 -2.589 0.997 -2.589 0.045 85.312
4492.583 0.046 85.303 0.997 -2.633 0.997 -2.633 0.046 85.303
4517.542 0.047 85.293 0.997 -2.678 0.997 -2.678 0.047 85.293
4542.5 0.048 85.281 0.997 -2.722 0.997 -2.722 0.048 85.281
4567.458 0.048 85.269 0.997 -2.766 0.997 -2.766 0.048 85.269
4592.417 0.049 85.256 0.997 -2.81 0.997 -2.81 0.049 85.256
4617.375 0.05 85.242 0.997 -2.854 0.997 -2.854 0.05 85.242
4642.333 0.051 85.227 0.997 -2.898 0.997 -2.898 0.051 85.227
4667.292 0.051 85.211 0.997 -2.941 0.997 -2.941 0.051 85.211
4692.25 0.052 85.195 0.997 -2.985 0.997 -2.985 0.052 85.195
4717.208 0.053 85.178 0.997 -3.028 0.997 -3.028 0.053 85.178
4742.167 0.054 85.16 0.997 -3.071 0.997 -3.071 0.054 85.16
4767.125 0.054 85.141 0.997 -3.114 0.997 -3.114 0.054 85.141
4792.083 0.055 85.122 0.997 -3.157 0.997 -3.157 0.055 85.122
4817.042 0.056 85.102 0.997 -3.199 0.997 -3.199 0.056 85.102
4842 0.057 85.082 0.997 -3.242 0.997 -3.242 0.057 85.082
4866.958 0.057 85.061 0.997 -3.284 0.997 -3.284 0.057 85.061
4891.917 0.058 85.04 0.997 -3.326 0.997 -3.326 0.058 85.04
4916.875 0.059 85.019 0.997 -3.368 0.997 -3.368 0.059 85.019
4941.833 0.06 84.997 0.997 -3.41 0.997 -3.41 0.06 84.997
4966.792 0.06 84.974 0.997 -3.452 0.997 -3.452 0.06 84.974
4991.75 0.061 84.951 0.996 -3.494 0.996 -3.494 0.061 84.951
5016.708 0.062 84.928 0.996 -3.535 0.996 -3.535 0.062 84.928
5041.667 0.062 84.904 0.996 -3.577 0.996 -3.577 0.062 84.904
5066.625 0.063 84.88 0.996 -3.618 0.996 -3.618 0.063 84.88
5091.583 0.064 84.856 0.996 -3.66 0.996 -3.66 0.064 84.856
5116.542 0.065 84.831 0.996 -3.701 0.996 -3.701 0.065 84.831
5141.5 0.065 84.807 0.996 -3.742 0.996 -3.742 0.065 84.807
5166.458 0.066 84.781 0.996 -3.782 0.996 -3.782 0.066 84.781
5191.417 0.067 84.756 0.996 -3.823 0.996 -3.823 0.067 84.756
5216.375 0.067 84.73 0.996 -3.864 0.996 -3.864 0.067 84.73
5241.333 0.068 84.704 0.996 -3.904 0.996 -3.904 0.068 84.704
5266.292 0.069 84.678 0.996 -3.945 0.996 -3.945 0.069 84.678
5291.25 0.07 84.652 0.996 -3.985 0.996 -3.985 0.07 84.652
5316.208 0.07 84.625 0.996 -4.025 0.996 -4.025 0.07 84.625
5341.167 0.071 84.599 0.996 -4.066 0.996 -4.066 0.071 84.599
5366.125 0.072 84.572 0.996 -4.106 0.996 -4.106 0.072 84.572
5391.083 0.072 84.545 0.996 -4.145 0.996 -4.145 0.072 84.545
5416.042 0.073 84.517 0.996 -4.185 0.996 -4.185 0.073 84.517
5441 0.074 84.49 0.996 -4.225 0.996 -4.225 0.074 84.49
5465.958 0.074 84.462 0.996 -4.265 0.996 -4.265 0.074 84.462
5490.917 0.075 84.434 0.996 -4.304 0.996 -4.304 0.075 84.434
5515.875 0.076 84.406 0.995 -4.344 0.995 -4.344 0.076 84.406
5540.833 0.076 84.378 0.995 -4.383 0.995 -4.383 0.076 84.378
5565.792 0.077 84.35 0.995 -4.422 0.995 -4.422 0.077 84.35
5590.75 0.078 84.322 0.995 -4.461 0.995 -4.461 0.078 84.322
5615.708 0.078 84.293 0.995 -4.5 0.995 -4.5 0.078 84.293
5640.667 0.079 84.265 0.995 -4.539 0.995 -4.539 0.079 84.265
5665.625 0.08 84.236 0.995 -4.578 0.995 -4.578 0.08 84.236
5690.583 0.081 84.207 0.995 -4.617 0.995 -4.617 0.081 84.207
5715.542 0.081 84.178 0.995 -4.656 0.995 -4.656 0.081 84.178
5740.5 0.082 84.149 0.995 -4.694 0.995 -4.694 0.082 84.149
5765.458 0.083 84.12 0.995 -4.733 0.995 -4.733 0.083 84.12
5790.417 0.083 84.091 0.995 -4.771 0.995 -4.771 0.083 84.091
5815.375 0.084 84.062 0.995 -4.81 0.995 -4.81 0.084 84.062
5840.333 0.085 84.033 0.995 -4.848 0.995 -4.848 0.085 84.033
5865.292 0.085 84.003 0.995 -4.886 0.995 -4.886 0.085 84.003
5890.25 0.086 83.974 0.995 -4.924 0.995 -4.924 0.086 83.974
5915.208 0.087 83.944 0.995 -4.962 0.995 -4.962 0.087 83.944
5940.167 0.087 83.914 0.995 -5 0.995 -5 0.087 83.914
5965.125 0.088 83.885 0.994 -5.038 0.994 -5.038 0.088 83.885
5990.083 0.088 83.855 0.994 -5.076 0.994 -5.076 0.088 83.855
6015.042 0.089 83.825 0.994 -5.114 0.994 -5.114 0.089 83.825
6040 0.09 83.795 0.994 -5.152 0.994 -5.152 0.09 83.795
6064.958 0.09 83.765 0.994 -5.189 0.994 -5.189 0.09 83.765
6089.917 0.091 83.735 0.994 -5.227 0.994 -5.227 0.091 83.735
6114.875 0.092 83.705 0.994 -5.264 0.994 -5.264 0.092 83.705
6139.833 0.092 83.675 0.994 -5.302 0.994 -5.302 0.092 83.675
6164.792 0.093 83.645 0.994 -5.339 0.994 -5.339 0.093 83.645
6189.75 0.094 83.615 0.994 -5.376 0.994 -5.376 0.094 83.615
6214.708 0.094 83.585 0.994 -5.413 0.994 -5.413 0.094 83.585
6239.667 0.095 83.554 0.994 -5.451 0.994 -5.451 0.095 83.554
6264.625 0.096 83.524 0.994 -5.488 0.994 -5.488 0.096 83.524
6289.583 0.096 83.494 0.994 -5.525 0.994 -5.525 0.096 83.494
6314.542 0.097 83.463 0.994 -5.561 0.994 -5.561 0.097 83.463
6339.5 0.098 83.433 0.994 -5.598 0.994 -5.598 0.098 83.433
6364.458 0.098 83.403 0.994 -5.635 0.994 -5.635 0.098 83.403
6389.417 0.099 83.372 0.993 -5.672 0.993 -5.672 0.099 83.372
6414.375 0.099 83.342 0.993 -5.709 0.993 -5.709 0.099 83.342
6439.333 0.1 83.311 0.993 -5.745 0.993 -5.745 0.1 83.311
6464.292 0.101 83.28 0.993 -5.782 0.993 -5.782 0.101 83.28
6489.25 0.101 83.25 0.993 -5.818 0.993 -5.818 0.101 83.25
6514.208 0.102 83.219 0.993 -5.855 0.993 -5.855 0.102 83.219
6539.167 0.103 83.189 0.993 -5.891 0.993 -5.891 0.103 83.189
6564.125 0.103 83.158 0.993 -5.927 0.993 -5.927 0.103 83.158
6589.083 0.104 83.127 0.993 -5.964 0.993 -5.964 0.104 83.127
6614.042 0.105 83.097 0.993 -6 0.993 -6 0.105 83.097
6639 0.105 83.066 0.993 -6.036 0.993 -6.036 0.105 83.066
6663.958 0.106 83.035 0.993 -6.072 0.993 -6.072 0.106 83.035
6688.917 0.106 83.005 0.993 -6.108 0.993 -6.108 0.106 83.005
6713.875 0.107 82.974 0.993 -6.144 0.993 -6.144 0.107 82.974
6738.833 0.108 82.943 0.993 -6.18 0.993 -6.18 0.108 82.943
6763.792 0.108 82.912 0.992 -6.216 0.992 -6.216 0.108 82.912
6788.75 0.109 82.881 0.992 -6.252 0.992 -6.252 0.109 82.881
6813.708 0.11 82.851 0.992 -6.287 0.992 -6.287 0.11 82.851
6838.667 0.11 82.82 0.992 -6.323 0.992 -6.323 0.11 82.82
6863.625 0.111 82.789 0.992 -6.359 0.992 -6.359 0.111 82.789
6888.583 0.111 82.758 0.992 -6.394 0.992 -6.394 0.111 82.758
6913.542 0.112 82.727 0.992 -6.43 0.992 -6.43 0.112 82.727
6938.5 0.113 82.697 0.992 -6.466 0.992 -6.466 0.113 82.697
6963.458 0.113 82.666 0.992 -6.501 0.992 -6.501 0.113 82.666
6988.417 0.114 82.635 0.992 -6.536 0.992 -6.536 0.114 82.635
7013.375 0.114 82.604 0.992 -6.572 0.992 -6.572 0.114 82.604
7038.333 0.115 82.573 0.992 -6.607 0.992 -6.607 0.115 82.573
7063.292 0.116 82.542 0.992 -6.642 0.992 -6.642 0.116 82.542
7088.25 0.116 82.511 0.992 -6.678 0.992 -6.678 0.116 82.511
7113.208 0.117 82.48 0.991 -6.713 0.991 -6.713 0.117 82.48
7138.167 0.118 82.45 0.991 -6.748 0.991 -6.748 0.118 82.45
7163.125 0.118 82.419 0.991 -6.783 0.991 -6.783 0.118 82.419
7188.083 0.119 82.388 0.991 -6.818 0.991 -6.818 0.119 82.388
7213.042 0.119 82.357 0.991 -6.853 0.991 -6.853 0.119 82.357
7238 0.12 82.326 0.991 -6.888 0.991 -6.888 0.12 82.326
7262.958 0.121 82.295 0.991 -6.923 0.991 -6.923 0.121 82.295
7287.917 0.121 82.264 0.991 -6.958 0.991 -6.958 0.121 82.264
7312.875 0.122 82.233 0.991 -6.992 0.991 -6.992 0.122 82.233
7337.833 0.122 82.202 0.991 -7.027 0.991 -7.027 0.122 82.202
7362.792 0.123 82.171 0.991 -7.062 0.991 -7.062 0.123 82.171
7387.75 0.124 82.141 0.991 -7.097 0.991 -7.097 0.124 82.141
7412.708 0.124 82.11 0.991 -7.131 0.991 -7.131 0.124 82.11
7437.667 0.125 82.079 0.991 -7.166 0.991 -7.166 0.125 82.079
7462.625 0.125 82.048 0.99 -7.2 0.99 -7.2 0.125 82.048
7487.583 0.126 82.017 0.99 -7.235 0.99 -7.235 0.126 82.017
7512.542 0.127 81.986 0.99 -7.269 0.99 -7.269 0.127 81.986
7537.5 0.127 81.955 0.99 -7.304 0.99 -7.304 0.127 81.955
7562.458 0.128 81.924 0.99 -7.338 0.99 -7.338 0.128 81.924
7587.417 0.128 81.893 0.99 -7.373 0.99 -7.373 0.128 81.893
7612.375 0.129 81.863 0.99 -7.407 0.99 -7.407 0.129 81.863
7637.333 0.13 81.832 0.99 -7.441 0.99 -7.441 0.13 81.832
7662.292 0.13 81.801 0.99 -7.475 0.99 -7.475 0.13 81.801
7687.25 0.131 81.77 0.99 -7.51 0.99 -7.51 0.131 81.77
7712.208 0.131 81.739 0.99 -7.544 0.99 -7.544 0.131 81.739
7737.167 0.132 81.708 0.99 -7.578 0.99 -7.578 0.132 81.708
7762.125 0.132 81.677 0.99 -7.612 0.99 -7.612 0.132 81.677
7787.083 0.133 81.647 0.989 -7.646 0.989 -7.646 0.133 81.647
7812.042 0.134 81.616 0.989 -7.68 0.989 -7.68 0.134 81.616
7837 0.134 81.585 0.989 -7.714 0.989 -7.714 0.134 81.585
7861.958 0.135 81.554 0.989 -7.748 0.989 -7.748 0.135 81.554
7886.917 0.135 81.523 0.989 -7.782 0.989 -7.782 0.135 81.523
7911.875 0.136 81.492 0.989 -7.816 0.989 -7.816 0.136 81.492
7936.833 0.137 81.462 0.989 -7.85 0.989 -7.85 0.137 81.462
7961.792 0.137 81.431 0.989 -7.883 0.989 -7.883 0.137 81.431
7986.75 0.138 81.4 0.989 -7.917 0.989 -7.917 0.138 81.4
8011.708 0.138 81.369 0.989 -7.951 0.989 -7.951 0.138 81.369
8036.667 0.139 81.338 0.989 -7.985 0.989 -7.985 0.139 81.338
8061.625 0.139 81.308 0.989 -8.018 0.989 -8.018 0.139 81.308
8086.583 0.14 81.277 0.989 -8.052 0.989 -8.052 0.14 81.277
8111.542 0.141 81.246 0.988 -8.086 0.988 -8.086 0.141 81.246
8136.5 0.141 81.215 0.988 -8.119 0.988 -8.119 0.141 81.215
8161.458 0.142 81.185 0.988 -8.153 0.988 -8.153 0.142 81.185
8186.417 0.142 81.154 0.988 -8.186 0.988 -8.186 0.142 81.154
8211.375 0.143 81.123 0.988 -8.22 0.988 -8.22 0.143 81.123
8236.333 0.144 81.092 0.988 -8.253 0.988 -8.253 0.144 81.092
8261.292 0.144 81.062 0.988 -8.286 0.988 -8.286 0.144 81.062
8286.25 0.145 81.031 0.988 -8.32 0.988 -8.32 0.145 81.031
8311.208 0.145 81 0.988 -8.353 0.988 -8.353 0.145 81
8336.167 0.146 80.969 0.988 -8.386 0.988 -8.386 0.146 80.969
8361.125 0.146 80.939 0.988 -8.42 0.988 -8.42 0.146 80.939
8386.083 0.147 80.908 0.987 -8.453 0.987 -8.453 0.147 80.908
8411.042 0.148 80.877 0.987 -8.486 0.987 -8.486 0.148 80.877
8436 0.148 80.847 0.987 -8.519 0.987 -8.519 0.148 80.847
8460.958 0.149 80.816 0.987 -8.552 0.987 -8.552 0.149 80.816
8485.917 0.149 80.785 0.987 -8.586 0.987 -8.586 0.149 80.785
8510.875 0.15 80.755 0.987 -8.619 0.987 -8.619 0.15 80.755
8535.833 0.15 80.724 0.987 -8.652 0.987 -8.652 0.15 80.724
8560.792 0.151 80.694 0.987 -8.685 0.987 -8.685 0.151 80.694
8585.75 0.152 80.663 0.987 -8.718 0.987 -8.718 0.152 80.663
8610.708 0.152 80.632 0.987 -8.751 0.987 -8.751 0.152 80.632
8635.667 0.153 80.602 0.987 -8.784 0.987 -8.784 0.153 80.602
8660.625 0.153 80.571 0.987 -8.817 0.987 -8.817 0.153 80.571
8685.583 0.154 80.541 0.986 -8.849 0.986 -8.849 0.154 80.541
8710.542 0.154 80.51 0.986 -8.882 0.986 -8.882 0.154 80.51
8735.5 0.155 80.48 0.986 -8.915 0.986 -8.915 0.155 80.48
8760.458 0.156 80.449 0.986 -8.948 0.986 -8.948 0.156 80.449
8785.417 0.156 80.418 0.986 -8.981 0.986 -8.981 0.156 80.418
8810.375 0.157 80.388 0.986 -9.013 0.986 -9.013 0.157 80.388
8835.333 0.157 80.357 0.986 -9.046 0.986 -9.046 0.157 80.357
8860.292 0.158 80.327 0.986 -9.079 0.986 -9.079 0.158 80.327
8885.25 0.158 80.296 0.986 -9.111 0.986 -9.111 0.158 80.296
8910.208 0.159 80.266 0.986 -9.144 0.986 -9.144 0.159 80.266
8935.167 0.159 80.235 0.986 -9.177 0.986 -9.177 0.159 80.235
8960.125 0.16 80.205 0.985 -9.209 0.985 -9.209 0.16 80.205
8985.083 0.161 80.175 0.985 -9.242 0.985 -9.242 0.161 80.175
9010.042 0.161 80.144 0.985 -9.274 0.985 -9.274 0.161 80.144
9035 0.162 80.114 0.985 -9.307 0.985 -9.307 0.162 80.114
9059.958 0.162 80.083 0.985 -9.339 0.985 -9.339 0.162 80.083
9084.917 0.163 80.053 0.985 -9.372 0.985 -9.372 0.163 80.053
9109.875 0.163 80.022 0.985 -9.404 0.985 -9.404 0.163 80.022
9134.833 0.164 79.992 0.985 -9.437 0.985 -9.437 0.164 79.992
9159.792 0.165 79.962 0.985 -9.469 0.985 -9.469 0.165 79.962
9184.75 0.165 79.931 0.985 -9.501 0.985 -9.501 0.165 79.931
9209.708 0.166 79.901 0.985 -9.534 0.985 -9.534 0.166 79.901
9234.667 0.166 79.871 0.984 -9.566 0.984 -9.566 0.166 79.871
9259.625 0.167 79.84 0.984 -9.598 0.984 -9.598 0.167 79.84
9284.583 0.167 79.81 0.984 -9.63 0.984 -9.63 0.167 79.81
9309.542 0.168 79.78 0.984 -9.663 0.984 -9.663 0.168 79.78
9334.5 0.168 79.749 0.984 -9.695 0.984 -9.695 0.168 79.749
9359.458 0.169 79.719 0.984 -9.727 0.984 -9.727 0.169 79.719
9384.417 0.17 79.689 0.984 -9.759 0.984 -9.759 0.17 79.689
9409.375 0.17 79.658 0.984 -9.791 0.984 -9.791 0.17 79.658
9434.333 0.171 79.628 0.984 -9.823 0.984 -9.823 0.171 79.628
9459.292 0.171 79.598 0.984 -9.856 0.984 -9.856 0.171 79.598
9484.25 0.172 79.568 0.984 -9.888 0.984 -9.888 0.172 79.568
9509.208 0.172 79.537 0.983 -9.92 0.983 -9.92 0.172 79.537
9534.167 0.173 79.507 0.983 -9.952 0.983 -9.952 0.173 79.507
9559.125 0.173 79.477 0.983 -9.984 0.983 -9.984 0.173 79.477
9584.083 0.174 79.447 0.983 -10.016 0.983 -10.016 0.174 79.447
9609.042 0.174 79.417 0.983 -10.047 0.983 -10.047 0.174 79.417
9634 0.175 79.386 0.983 -10.079 0.983 -10.079 0.175 79.386
9658.958 0.176 79.356 0.983 -10.111 0.983 -10.111 0.176 79.356
9683.917 0.176 79.326 0.983 -10.143 0.983 -10.143 0.176 79.326
9708.875 0.177 79.296 0.983 -10.175 0.983 -10.175 0.177 79.296
9733.833 0.177 79.266 0.983 -10.207 0.983 -10.207 0.177 79.266
9758.792 0.178 79.236 0.982 -10.239 0.982 -10.239 0.178 79.236
9783.75 0.178 79.205 0.982 -10.27 0.982 -10.27 0.178 79.205
9808.708 0.179 79.175 0.982 -10.302 0.982 -10.302 0.179 79.175
9833.667 0.179 79.145 0.982 -10.334 0.982 -10.334 0.179 79.145
9858.625 0.18 79.115 0.982 -10.366 0.982 -10.366 0.18 79.115
9883.583 0.18 79.085 0.982 -10.397 0.982 -10.397 0.18 79.085
9908.542 0.181 79.055 0.982 -10.429 0.982 -10.429 0.181 79.055
9933.5 0.182 79.025 0.982 -10.461 0.982 -10.461 0.182 79.025
9958.458 0.182 78.995 0.982 -10.492 0.982 -10.492 0.182 78.995
9983.417 0.183 78.965 0.982 -10.524 0.982 -10.524 0.183 78.965
10008.375 0.183 78.935 0.981 -10.555 0.981 -10.555 0.183 78.935
10033.333 0.184 78.905 0.981 -10.587 0.981 -10.587 0.184 78.905
10058.292 0.184 78.875 0.981 -10.619 0.981 -10.619 0.184 78.875
10083.25 0.185 78.845 0.981 -10.65 0.981 -10.65 0.185 78.845
10108.208 0.185 78.815 0.981 -10.682 0.981 -10.682 0.185 78.815
10133.167 0.186 78.785 0.981 -10.713 0.981 -10.713 0.186 78.785
10158.125 0.186 78.755 0.981 -10.745 0.981 -10.745 0.186 78.755
10183.083 0.187 78.725 0.981 -10.776 0.981 -10.776 0.187 78.725
10208.042 0.188 78.695 0.981 -10.807 0.981 -10.807 0.188 78.695
10233 0.188 78.665 0.981 -10.839 0.981 -10.839 0.188 78.665
10257.958 0.189 78.635 0.98 -10.87 0.98 -10.87 0.189 78.635
10282.917 0.189 78.605 0.98 -10.902 0.98 -10.902 0.189 78.605
10307.875 0.19 78.575 0.98 -10.933 0.98 -10.933 0.19 78.575
10332.833 0.19 78.546 0.98 -10.964 0.98 -10.964 0.19 78.546
10357.792 0.191 78.516 0.98 -10.996 0.98 -10.996 0.191 78.516
10382.75 0.191 78.486 0.98 -11.027 0.98 -11.027 0.191 78.486
10407.708 0.192 78.456 0.98 -11.058 0.98 -11.058 0.192 78.456
10432.667 0.192 78.426 0.98 -11.089 0.98 -11.089 0.192 78.426
10457.625 0.193 78.396 0.98 -11.121 0.98 -11.121 0.193 78.396
10482.583 0.193 78.366 0.979 -11.152 0.979 -11.152 0.193 78.366
10507.542 0.194 78.337 0.979 -11.183 0.979 -11.183 0.194 78.337
10532.5 0.194 78.307 0.979 -11.214 0.979 -11.214 0.194 78.307
10557.458 0.195 78.277 0.979 -11.245 0.979 -11.245 0.195 78.277
10582.417 0.196 78.247 0.979 -11.276 0.979 -11.276 0.196 78.247
10607.375 0.196 78.218 0.979 -11.308 0.979 -11.308 0.196 78.218
10632.333 0.197 78.188 0.979 -11.339 0.979 -11.339 0.197 78.188
10657.292 0.197 78.158 0.979 -11.37 0.979 -11.37 0.197 78.158
10682.25 0.198 78.128 0.979 -11.401 0.979 -11.401 0.198 78.128
10707.208 0.198 78.099 0.979 -11.432 0.979 -11.432 0.198 78.099
10732.167 0.199 78.069 0.978 -11.463 0.978 -11.463 0.199 78.069
10757.125 0.199 78.039 0.978 -11.494 0.978 -11.494 0.199 78.039
10782.083 0.2 78.01 0.978 -11.525 0.978 -11.525 0.2 78.01
10807.042 0.2 77.98 0.978 -11.556 0.978 -11.556 0.2 77.98
10832 0.201 77.95 0.978 -11.587 0.978 -11.587 0.201 77.95
10856.958 0.201 77.921 0.978 -11.618 0.978 -11.618 0.201 77.921
10881.917 0.202 77.891 0.978 -11.648 0.978 -11.648 0.202 77.891
10906.875 0.202 77.861 0.978 -11.679 0.978 -11.679 0.202 77.861
10931.833 0.203 77.832 0.978 -11.71 0.978 -11.71 0.203 77.832
10956.792 0.203 77.802 0.977 -11.741 0.977 -11.741 0.203 77.802
10981.75 0.204 77.772 0.977 -11.772 0.977 -11.772 0.204 77.772
11006.708 0.205 77.743 0.977 -11.803 0.977 -11.803 0.205 77.743
11031.667 0.205 77.713 0.977 -11.833 0.977 -11.833 0.205 77.713
11056.625 0.206 77.684 0.977 -11.864 0.977 -11.864 0.206 77.684
11081.583 0.206 77.654 0.977 -11.895 0.977 -11.895 0.206 77.654
11106.542 0.207 77.625 0.977 -11.926 0.977 -11.926 0.207 77.625
11131.5 0.207 77.595 0.977 -11.957 0.977 -11.957 0.207 77.595
11156.458 0.208 77.566 0.977 -11.987 0.977 -11.987 0.208 77.566
11181.417 0.208 77.536 0.976 -12.018 0.976 -12.018 0.208 77.536
11206.375 0.209 77.507 0.976 -12.049 0.976 -12.049 0.209 77.507
11231.333 0.209 77.477 0.976 -12.079 0.976 -12.079 0.209 77.477
11256.292 0.21 77.448 0.976 -12.11 0.976 -12.11 0.21 77.448
11281.25 0.21 77.418 0.976 -12.14 0.976 -12.14 0.21 77.418
11306.208 0.211 77.389 0.976 -12.171 0.976 -12.171 0.211 77.389
11331.167 0.211 77.359 0.976 -12.202 0.976 -12.202 0.211 77.359
11356.125 0.212 77.33 0.976 -12.232 0.976 -12.232 0.212 77.33
11381.083 0.212 77.3 0.976 -12.263 0.976 -12.263 0.212 77.3
11406.042 0.213 77.271 0.975 -12.293 0.975 -12.293 0.213 77.271
11431 0.213 77.241 0.975 -12.324 0.975 -12.324 0.213 77.241
11455.958 0.214 77.212 0.975 -12.354 0.975 -12.354 0.214 77.212
11480.917 0.214 77.183 0.975 -12.385 0.975 -12.385 0.214 77.183
11505.875 0.215 77.153 0.975 -12.415 0.975 -12.415 0.215 77.153
11530.833 0.216 77.124 0.975 -12.446 0.975 -12.446 0.216 77.124
11555.792 0.216 77.095 0.975 -12.476 0.975 -12.476 0.216 77.095
11580.75 0.217 77.065 0.975 -12.507 0.975 -12.507 0.217 77.065
11605.708 0.217 77.036 0.975 -12.537 0.975 -12.537 0.217 77.036
11630.667 0.218 77.007 0.974 -12.567 0.974 -12.567 0.218 77.007
11655.625 0.218 76.977 0.974 -12.598 0.974 -12.598 0.218 76.977
11680.583 0.219 76.948 0.974 -12.628 0.974 -12.628 0.219 76.948
11705.542 0.219 76.919 0.974 -12.658 0.974 -12.658 0.219 76.919
11730.5 0.22 76.889 0.974 -12.689 0.974 -12.689 0.22 76.889
11755.458 0.22 76.86 0.974 -12.719 0.974 -12.719 0.22 76.86
11780.417 0.221 76.831 0.974 -12.749 0.974 -12.749 0.221 76.831
11805.375 0.221 76.802 0.974 -12.78 0.974 -12.78 0.221 76.802
11830.333 0.222 76.772 0.973 -12.81 0.973 -12.81 0.222 76.772
11855.292 0.222 76.743 0.973 -12.84 0.973 -12.84 0.222 76.743
11880.25 0.223 76.714 0.973 -12.87 0.973 -12.87 0.223 76.714
11905.208 0.223 76.685 0.973 -12.901 0.973 -12.901 0.223 76.685
11930.167 0.224 76.656 0.973 -12.931 0.973 -12.931 0.224 76.656
11955.125 0.224 76.626 0.973 -12.961 0.973 -12.961 0.224 76.626
11980.083 0.225 76.597 0.973 -12.991 0.973 -12.991 0.225 76.597
12005.042 0.225 76.568 0.973 -13.021 0.973 -13.021 0.225 76.568
12030 0.226 76.539 0.973 -13.051 0.973 -13.051 0.226 76.539
12054.958 0.226 76.51 0.972 -13.082 0.972 -13.082 0.226 76.51
12079.917 0.227 76.481 0.972 -13.112 0.972 -13.112 0.227 76.481
12104.875 0.227 76.452 0.972 -13.142 0.972 -13.142 0.227 76.452
12129.833 0.228 76.422 0.972 -13.172 0.972 -13.172 0.228 76.422
12154.792 0.228 76.393 0.972 -13.202 0.972 -13.202 0.228 76.393
12179.75 0.229 76.364 0.972 -13.232 0.972 -13.232 0.229 76.364
12204.708 0.229 76.335 0.972 -13.262 0.972 -13.262 0.229 76.335
12229.667 0.23 76.306 0.972 -13.292 0.972 -13.292 0.23 76.306
12254.625 0.23 76.277 0.971 -13.322 0.971 -13.322 0.23 76.277
12279.583 0.231 76.248 0.971 -13.352 0.971 -13.352 0.231 76.248
12304.542 0.231 76.219 0.971 -13.382 0.971 -13.382 0.231 76.219
12329.5 0.232 76.19 0.971 -13.412 0.971 -13.412 0.232 76.19
12354.458 0.232 76.161 0.971 -13.442 0.971 -13.442 0.232 76.161
12379.417 0.233 76.132 0.971 -13.472 0.971 -13.472 0.233 76.132
12404.375 0.233 76.103 0.971 -13.502 0.971 -13.502 0.233 76.103
12429.333 0.234 76.074 0.971 -13.531 0.971 -13.531 0.234 76.074
12454.292 0.234 76.045 0.971 -13.561 0.971 -13.561 0.234 76.045
12479.25 0.235 76.016 0.97 -13.591 0.97 -13.591 0.235 76.016
12504.208 0.236 75.987 0.97 -13.621 0.97 -13.621 0.236 75.987
12529.167 0.236 75.958 0.97 -13.651 0.97 -13.651 0.236 75.958
12554.125 0.237 75.929 0.97 -13.681 0.97 -13.681 0.237 75.929
12579.083 0.237 75.9 0.97 -13.71 0.97 -13.71 0.237 75.9
12604.042 0.238 75.871 0.97 -13.74 0.97 -13.74 0.238 75.871
12629 0.238 75.842 0.97 -13.77 0.97 -13.77 0.238 75.842
12653.958 0.239 75.814 0.97 -13.8 0.97 -13.8 0.239 75.814
12678.917 0.239 75.785 0.969 -13.829 0.969 -13.829 0.239 75.785
12703.875 0.24 75.756 0.969 -13.859 0.969 -13.859 0.24 75.756
12728.833 0.24 75.727 0.969 -13.889 0.969 -13.889 0.24 75.727
12753.792 0.241 75.698 0.969 -13.919 0.969 -13.919 0.241 75.698
12778.75 0.241 75.669 0.969 -13.948 0.969 -13.948 0.241 75.669
12803.708 0.242 75.641 0.969 -13.978 0.969 -13.978 0.242 75.641
12828.667 0.242 75.612 0.969 -14.008 0.969 -14.008 0.242 75.612
12853.625 0.243 75.583 0.969 -14.037 0.969 -14.037 0.243 75.583
12878.583 0.243 75.554 0.968 -14.067 0.968 -14.067 0.243 75.554
12903.542 0.244 75.525 0.968 -14.096 0.968 -14.096 0.244 75.525
12928.5 0.244 75.497 0.968 -14.126 0.968 -14.126 0.244 75.497
12953.458 0.245 75.468 0.968 -14.156 0.968 -14.156 0.245 75.468
12978.417 0.245 75.439 0.968 -14.185 0.968 -14.185 0.245 75.439
13003.375 0.246 75.41 0.968 -14.215 0.968 -14.215 0.246 75.41
13028.333 0.246 75.382 0.968 -14.244 0.968 -14.244 0.246 75.382
13053.292 0.247 75.353 0.968 -14.274 0.968 -14.274 0.247 75.353
13078.25 0.247 75.324 0.967 -14.303 0.967 -14.303 0.247 75.324
13103.208 0.248 75.295 0.967 -14.333 0.967 -14.333 0.248 75.295
13128.167 0.248 75.267 0.967 -14.362 0.967 -14.362 0.248 75.267
13153.125 0.249 75.238 0.967 -14.392 0.967 -14.392 0.249 75.238
13178.083 0.249 75.209 0.967 -14.421 0.967 -14.421 0.249 75.209
13203.042 0.25 75.181 0.967 -14.451 0.967 -14.451 0.25 75.181
13228 0.25 75.152 0.967 -14.48 0.967 -14.48 0.25 75.152
13252.958 0.251 75.124 0.967 -14.51 0.967 -14.51 0.251 75.124
13277.917 0.251 75.095 0.966 -14.539 0.966 -14.539 0.251 75.095
13302.875 0.252 75.066 0.966 -14.568 0.966 -14.568 0.252 75.066
13327.833 0.252 75.038 0.966 -14.598 0.966 -14.598 0.252 75.038
13352.792 0.253 75.009 0.966 -14.627 0.966 -14.627 0.253 75.009
13377.75 0.253 74.98 0.966 -14.656 0.966 -14.656 0.253 74.98
13402.708 0.254 74.952 0.966 -14.686 0.966 -14.686 0.254 74.952
13427.667 0.254 74.923 0.966 -14.715 0.966 -14.715 0.254 74.923
13452.625 0.255 74.895 0.965 -14.744 0.965 -14.744 0.255 74.895
13477.583 0.255 74.866 0.965 -14.774 0.965 -14.774 0.255 74.866
13502.542 0.255 74.838 0.965 -14.803 0.965 -14.803 0.255 74.838
13527.5 0.256 74.809 0.965 -14.832 0.965 -14.832 0.256 74.809
13552.458 0.256 74.781 0.965 -14.861 0.965 -14.861 0.256 74.781
13577.417 0.257 74.752 0.965 -14.891 0.965 -14.891 0.257 74.752
13602.375 0.257 74.724 0.965 -14.92 0.965 -14.92 0.257 74.724
13627.333 0.258 74.695 0.965 -14.949 0.965 -14.949 0.258 74.695
13652.292 0.258 74.667 0.964 -14.978 0.964 -14.978 0.258 74.667
13677.25 0.259 74.638 0.964 -15.007 0.964 -15.007 0.259 74.638
13702.208 0.259 74.61 0.964 -15.037 0.964 -15.037 0.259 74.61
13727.167 0.26 74.581 0.964 -15.066 0.964 -15.066 0.26 74.581
13752.125 0.26 74.553 0.964 -15.095 0.964 -15.095 0.26 74.553
13777.083 0.261 74.525 0.964 -15.124 0.964 -15.124 0.261 74.525
13802.042 0.261 74.496 0.964 -15.153 0.964 -15.153 0.261 74.496
13827 0.262 74.468 0.963 -15.182 0.963 -15.182 0.262 74.468
13851.958 0.262 74.439 0.963 -15.211 0.963 -15.211 0.262 74.439
13876.917 0.263 74.411 0.963 -15.24 0.963 -15.24 0.263 74.411
13901.875 0.263 74.383 0.963 -15.269 0.963 -15.269 0.263 74.383
13926.833 0.264 74.354 0.963 -15.298 0.963 -15.298 0.264 74.354
13951.792 0.264 74.326 0.963 -15.328 0.963 -15.328 0.264 74.326
13976.75 0.265 74.298 0.963 -15.357 0.963 -15.357 0.265 74.298
14001.708 0.265 74.269 0.963 -15.386 0.963 -15.386 0.265 74.269
14026.667 0.266 74.241 0.962 -15.415 0.962 -15.415 0.266 74.241
14051.625 0.266 74.213 0.962 -15.443 0.962 -15.443 0.266 74.213
14076.583 0.267 74.184 0.962 -15.472 0.962 -15.472 0.267 74.184
14101.542 0.267 74.156 0.962 -15.501 0.962 -15.501 0.267 74.156
14126.5 0.268 74.128 0.962 -15.53 0.962 -15.53 0.268 74.128
14151.458 0.268 74.1 0.962 -15.559 0.962 -15.559 0.268 74.1
14176.417 0.269 74.071 0.962 -15.588 0.962 -15.588 0.269 74.071
14201.375 0.269 74.043 0.961 -15.617 0.961 -15.617 0.269 74.043
14226.333 0.27 74.015 0.961 -15.646 0.961 -15.646 0.27 74.015
14251.292 0.27 73.987 0.961 -15.675 0.961 -15.675 0.27 73.987
14276.25 0.271 73.959 0.961 -15.704 0.961 -15.704 0.271 73.959
14301.208 0.271 73.93 0.961 -15.733 0.961 -15.733 0.271 73.93
14326.167 0.272 73.902 0.961 -15.761 0.961 -15.761 0.272 73.902
14351.125 0.272 73.874 0.961 -15.79 0.961 -15.79 0.272 73.874
14376.083 0.273 73.846 0.961 -15.819 0.961 -15.819 0.273 73.846
14401.042 0.273 73.818 0.96 -15.848 0.96 -15.848 0.273 73.818
14426 0.274 73.789 0.96 -15.877 0.96 -15.877 0.274 73.789
14450.958 0.274 73.761 0.96 -15.905 0.96 -15.905 0.274 73.761
14475.917 0.275 73.733 0.96 -15.934 0.96 -15.934 0.275 73.733
14500.875 0.275 73.705 0.96 -15.963 0.96 -15.963 0.275 73.705
14525.833 0.276 73.677 0.96 -15.992 0.96 -15.992 0.276 73.677
14550.792 0.276 73.649 0.96 -16.02 0.96 -16.02 0.276 73.649
14575.75 0.276 73.621 0.959 -16.049 0.959 -16.049 0.276 73.621
14600.708 0.277 73.593 0.959 -16.078 0.959 -16.078 0.277 73.593
14625.667 0.277 73.565 0.959 -16.106 0.959 -16.106 0.277 73.565
14650.625 0.278 73.537 0.959 -16.135 0.959 -16.135 0.278 73.537
14675.583 0.278 73.509 0.959 -16.164 0.959 -16.164 0.278 73.509
14700.542 0.279 73.481 0.959 -16.192 0.959 -16.192 0.279 73.481
14725.5 0.279 73.453 0.959 -16.221 0.959 -16.221 0.279 73.453
14750.458 0.28 73.425 0.958 -16.25 0.958 -16.25 0.28 73.425
14775.417 0.28 73.397 0.958 -16.278 0.958 -16.278 0.28 73.397
14800.375 0.281 73.369 0.958 -16.307 0.958 -16.307 0.281 73.369
14825.333 0.281 73.341 0.958 -16.335 0.958 -16.335 0.281 73.341
14850.292 0.282 73.313 0.958 -16.364 0.958 -16.364 0.282 73.313
14875.25 0.282 73.285 0.958 -16.393 0.958 -16.393 0.282 73.285
14900.208 0.283 73.257 0.958 -16.421 0.958 -16.421 0.283 73.257
14925.167 0.283 73.229 0.957 -16.45 0.957 -16.45 0.283 73.229
14950.125 0.284 73.201 0.957 -16.478 0.957 -16.478 0.284 73.201
14975.083 0.284 73.173 0.957 -16.507 0.957 -16.507 0.284 73.173
15000.042 0.285 73.145 0.957 -16.535 0.957 -16.535 0.285 73.145
15025 0.285 73.117 0.957 -16.564 0.957 -16.564 0.285 73.117
15049.958 0.286 73.089 0.957 -16.592 0.957 -16.592 0.286 73.089
15074.917 0.286 73.061 0.957 -16.621 0.957 -16.621 0.286 73.061
15099.875 0.287 73.033 0.956 -16.649 0.956 -16.649 0.287 73.033
15124.833 0.287 73.006 0.956 -16.677 0.956 -16.677 0.287 73.006
15149.792 0.287 72.978 0.956 -16.706 0.956 -16.706 0.287 72.978
15174.75 0.288 72.95 0.956 -16.734 0.956 -16.734 0.288 72.95
15199.708 0.288 72.922 0.956 -16.763 0.956 -16.763 0.288 72.922
15224.667 0.289 72.894 0.956 -16.791 0.956 -16.791 0.289 72.894
15249.625 0.289 72.866 0.956 -16.819 0.956 -16.819 0.289 72.866
15274.583 0.29 72.839 0.955 -16.848 0.955 -16.848 0.29 72.839
15299.542 0.29 72.811 0.955 -16.876 0.955 -16.876 0.29 72.811
15324.5 0.291 72.783 0.955 -16.904 0.955 -16.904 0.291 72.783
15349.458 0.291 72.755 0.955 -16.933 0.955 -16.933 0.291 72.755
15374.417 0.292 72.728 0.955 -16.961 0.955 -16.961 0.292 72.728
15399.375 0.292 72.7 0.955 -16.989 0.955 -16.989 0.292 72.7
15424.333 0.293 72.672 0.955 -17.018 0.955 -17.018 0.293 72.672
15449.292 0.293 72.644 0.954 -17.046 0.954 -17.046 0.293 72.644
15474.25 0.294 72.617 0.954 -17.074 0.954 -17.074 0.294 72.617
15499.208 0.294 72.589 0.954 -17.102 0.954 -17.102 0.294 72.589
15524.167 0.295 72.561 0.954 -17.131 0.954 -17.131 0.295 72.561
15549.125 0.295 72.534 0.954 -17.159 0.954 -17.159 0.295 72.534
15574.083 0.295 72.506 0.954 -17.187 0.954 -17.187 0.295 72.506
15599.042 0.296 72.478 0.954 -17.215 0.954 -17.215 0.296 72.478
15624 0.296 72.451 0.953 -17.243 0.953 -17.243 0.296 72.451
15648.958 0.297 72.423 0.953 -17.272 0.953 -17.272 0.297 72.423
15673.917 0.297 72.395 0.953 -17.3 0.953 -17.3 0.297 72.395
15698.875 0.298 72.368 0.953 -17.328 0.953 -17.328 0.298 72.368
15723.833 0.298 72.34 0.953 -17.356 0.953 -17.356 0.298 72.34
15748.792 0.299 72.313 0.953 -17.384 0.953 -17.384 0.299 72.313
15773.75 0.299 72.285 0.953 -17.412 0.953 -17.412 0.299 72.285
15798.708 0.3 72.257 0.952 -17.44 0.952 -17.44 0.3 72.257
15823.667 0.3 72.23 0.952 -17.468 0.952 -17.468 0.3 72.23
15848.625 0.301 72.202 0.952 -17.496 0.952 -17.496 0.301 72.202
15873.583 0.301 72.175 0.952 -17.524 0.952 -17.524 0.301 72.175
15898.542 0.302 72.147 0.952 -17.553 0.952 -17.553 0.302 72.147
15923.5 0.302 72.12 0.952 -17.581 0.952 -17.581 0.302 72.12
15948.458 0.303 72.092 0.952 -17.609 0.952 -17.609 0.303 72.092
15973.417 0.303 72.065 0.951 -17.637 0.951 -17.637 0.303 72.065
15998.375 0.303 72.037 0.951 -17.665 0.951 -17.665 0.303 72.037
16023.333 0.304 72.01 0.951 -17.693 0.951 -17.693 0.304 72.01
16048.292 0.304 71.982 0.951 -17.721 0.951 -17.721 0.304 71.982
16073.25 0.305 71.955 0.951 -17.749 0.951 -17.749 0.305 71.955
16098.208 0.305 71.927 0.951 -17.776 0.951 -17.776 0.305 71.927
16123.167 0.306 71.9 0.951 -17.804 0.951 -17.804 0.306 71.9
16148.125 0.306 71.872 0.95 -17.832 0.95 -17.832 0.306 71.872
16173.083 0.307 71.845 0.95 -17.86 0.95 -17.86 0.307 71.845
16198.042 0.307 71.818 0.95 -17.888 0.95 -17.888 0.307 71.818
16223 0.308 71.79 0.95 -17.916 0.95 -17.916 0.308 71.79
16247.958 0.308 71.763 0.95 -17.944 0.95 -17.944 0.308 71.763
16272.917 0.309 71.735 0.95 -17.972 0.95 -17.972 0.309 71.735
16297.875 0.309 71.708 0.949 -18 0.949 -18 0.309 71.708
16322.833 0.309 71.681 0.949 -18.028 0.949 -18.028 0.309 71.681
16347.792 0.31 71.653 0.949 -18.055 0.949 -18.055 0.31 71.653
16372.75 0.31 71.626 0.949 -18.083 0.949 -18.083 0.31 71.626
16397.708 0.311 71.599 0.949 -18.111 0.949 -18.111 0.311 71.599
16422.667 0.311 71.571 0.949 -18.139 0.949 -18.139 0.311 71.571
16447.625 0.312 71.544 0.949 -18.167 0.949 -18.167 0.312 71.544
16472.583 0.312 71.517 0.948 -18.194 0.948 -18.194 0.312 71.517
16497.542 0.313 71.489 0.948 -18.222 0.948 -18.222 0.313 71.489
16522.5 0.313 71.462 0.948 -18.25 0.948 -18.25 0.313 71.462
16547.458 0.314 71.435 0.948 -18.278 0.948 -18.278 0.314 71.435
16572.417 0.314 71.408 0.948 -18.305 0.948 -18.305 0.314 71.408
16597.375 0.315 71.38 0.948 -18.333 0.948 -18.333 0.315 71.38
16622.333 0.315 71.353 0.948 -18.361 0.948 -18.361 0.315 71.353
16647.292 0.315 71.326 0.947 -18.388 0.947 -18.388 0.315 71.326
16672.25 0.316 71.299 0.947 -18.416 0.947 -18.416 0.316 71.299
16697.208 0.316 71.271 0.947 -18.444 0.947 -18.444 0.316 71.271
16722.167 0.317 71.244 0.947 -18.471 0.947 -18.471 0.317 71.244
16747.125 0.317 71.217 0.947 -18.499 0.947 -18.499 0.317 71.217
16772.083 0.318 71.19 0.947 -18.527 0.947 -18.527 0.318 71.19
16797.042 0.318 71.163 0.946 -18.554 0.946 -18.554 0.318 71.163
16822 0.319 71.136 0.946 -18.582 0.946 -18.582 0.319 71.136
16846.958 0.319 71.108 0.946 -18.609 0.946 -18.609 0.319 71.108
16871.917 0.32 71.081 0.946 -18.637 0.946 -18.637 0.32 71.081
16896.875 0.32 71.054 0.946 -18.665 0.946 -18.665 0.32 71.054
16921.833 0.32 71.027 0.946 -18.692 0.946 -18.692 0.32 71.027
16946.792 0.321 71 0.946 -18.72 0.946 -18.72 0.321 71
16971.75 0.321 70.973 0.945 -18.747 0.945 -18.747 0.321 70.973
16996.708 0.322 70.946 0.945 -18.775 0.945 -18.775 0.322 70.946
17021.667 0.322 70.919 0.945 -18.802 0.945 -18.802 0.322 70.919
17046.625 0.323 70.892 0.945 -18.83 0.945 -18.83 0.323 70.892
17071.583 0.323 70.865 0.945 -18.857 0.945 -18.857 0.323 70.865
17096.542 0.324 70.838 0.945 -18.885 0.945 -18.885 0.324 70.838
17121.5 0.324 70.811 0.944 -18.912 0.944 -18.912 0.324 70.811
17146.458 0.325 70.784 0.944 -18.94 0.944 -18.94 0.325 70.784
17171.417 0.325 70.757 0.944 -18.967 0.944 -18.967 0.325 70.757
17196.375 0.325 70.73 0.944 -18.995 0.944 -18.995 0.325 70.73
17221.333 0.326 70.703 0.944 -19.022 0.944 -19.022 0.326 70.703
17246.292 0.326 70.676 0.944 -19.049 0.944 -19.049 0.326 70.676
17271.25 0.327 70.649 0.944 -19.077 0.944 -19.077 0.327 70.649
17296.208 0.327 70.622 0.943 -19.104 0.943 -19.104 0.327 70.622
17321.167 0.328 70.595 0.943 -19.132 0.943 -19.132 0.328 70.595
17346.125 0.328 70.568 0.943 -19.159 0.943 -19.159 0.328 70.568
17371.083 0.329 70.541 0.943 -19.186 0.943 -19.186 0.329 70.541
17396.042 0.329 70.514 0.943 -19.214 0.943 -19.214 0.329 70.514
17421 0.33 70.487 0.943 -19.241 0.943 -19.241 0.33 70.487
17445.958 0.33 70.46 0.942 -19.268 0.942 -19.268 0.33 70.46
17470.917 0.33 70.433 0.942 -19.296 0.942 -19.296 0.33 70.433
17495.875 0.331 70.406 0.942 -19.323 0.942 -19.323 0.331 70.406
17520.833 0.331 70.379 0.942 -19.35 0.942 -19.35 0.331 70.379
17545.792 0.332 70.353 0.942 -19.377 0.942 -19.377 0.332 70.353
17570.75 0.332 70.326 0.942 -19.405 0.942 -19.405 0.332 70.326
17595.708 0.333 70.299 0.941 -19.432 0.941 -19.432 0.333 70.299
17620.667 0.333 70.272 0.941 -19.459 0.941 -19.459 0.333 70.272
17645.625 0.334 70.245 0.941 -19.486 0.941 -19.486 0.334 70.245
17670.583 0.334 70.218 0.941 -19.514 0.941 -19.514 0.334 70.218
17695.542 0.334 70.192 0.941 -19.541 0.941 -19.541 0.334 70.192
17720.5 0.335 70.165 0.941 -19.568 0.941 -19.568 0.335 70.165
17745.458 0.335 70.138 0.941 -19.595 0.941 -19.595 0.335 70.138
17770.417 0.336 70.111 0.94 -19.622 0.94 -19.622 0.336 70.111
17795.375 0.336 70.085 0.94 -19.649 0.94 -19.649 0.336 70.085
17820.333 0.337 70.058 0.94 -19.677 0.94 -19.677 0.337 70.058
17845.292 0.337 70.031 0.94 -19.704 0.94 -19.704 0.337 70.031
17870.25 0.338 70.004 0.94 -19.731 0.94 -19.731 0.338 70.004
17895.208 0.338 69.978 0.94 -19.758 0.94 -19.758 0.338 69.978
17920.167 0.338 69.951 0.939 -19.785 0.939 -19.785 0.338 69.951
17945.125 0.339 69.924 0.939 -19.812 0.939 -19.812 0.339 69.924
17970.083 0.339 69.898 0.939 -19.839 0.939 -19.839 0.339 69.898
17995.042 0.34 69.871 0.939 -19.866 0.939 -19.866 0.34 69.871
18020 0.34 69.844 0.939 -19.893 0.939 -19.893 0.34 69.844
18044.958 0.341 69.818 0.939 -19.92 0.939 -19.92 0.341 69.818
18069.917 0.341 69.791 0.938 -19.947 0.938 -19.947 0.341 69.791
18094.875 0.342 69.764 0.938 -19.974 0.938 -19.974 0.342 69.764
18119.833 0.342 69.738 0.938 -20.001 0.938 -20.001 0.342 69.738
18144.792 0.342 69.711 0.938 -20.028 0.938 -20.028 0.342 69.711
18169.75 0.343 69.685 0.938 -20.055 0.938 -20.055 0.343 69.685
18194.708 0.343 69.658 0.938 -20.082 0.938 -20.082 0.343 69.658
18219.667 0.344 69.631 0.937 -20.109 0.937 -20.109 0.344 69.631
18244.625 0.344 69.605 0.937 -20.136 0.937 -20.136 0.344 69.605
18269.583 0.345 69.578 0.937 -20.163 0.937 -20.163 0.345 69.578
18294.542 0.345 69.552 0.937 -20.19 0.937 -20.19 0.345 69.552
18319.5 0.346 69.525 0.937 -20.217 0.937 -20.217 0.346 69.525
18344.458 0.346 69.499 0.937 -20.244 0.937 -20.244 0.346 69.499
18369.417 0.346 69.472 0.937 -20.271 0.937 -20.271 0.346 69.472
18394.375 0.347 69.446 0.936 -20.298 0.936 -20.298 0.347 69.446
18419.333 0.347 69.419 0.936 -20.324 0.936 -20.324 0.347 69.419
18444.292 0.348 69.393 0.936 -20.351 0.936 -20.351 0.348 69.393
18469.25 0.348 69.366 0.936 -20.378 0.936 -20.378 0.348 69.366
18494.208 0.349 69.34 0.936 -20.405 0.936 -20.405 0.349 69.34
18519.167 0.349 69.313 0.936 -20.432 0.936 -20.432 0.349 69.313
18544.125 0.35 69.287 0.935 -20.459 0.935 -20.459 0.35 69.287
18569.083 0.35 69.26 0.935 -20.485 0.935 -20.485 0.35 69.26
18594.042 0.35 69.234 0.935 -20.512 0.935 -20.512 0.35 69.234
18619 0.351 69.208 0.935 -20.539 0.935 -20.539 0.351 69.208
18643.958 0.351 69.181 0.935 -20.566 0.935 -20.566 0.351 69.181
18668.917 0.352 69.155 0.935 -20.592 0.935 -20.592 0.352 69.155
18693.875 0.352 69.128 0.934 -20.619 0.934 -20.619 0.352 69.128
18718.833 0.353 69.102 0.934 -20.646 0.934 -20.646 0.353 69.102
18743.792 0.353 69.076 0.934 -20.673 0.934 -20.673 0.353 69.076
18768.75 0.353 69.049 0.934 -20.699 0.934 -20.699 0.353 69.049
18793.708 0.354 69.023 0.934 -20.726 0.934 -20.726 0.354 69.023
18818.667 0.354 68.997 0.934 -20.753 0.934 -20.753 0.354 68.997
18843.625 0.355 68.97 0.933 -20.779 0.933 -20.779 0.355 68.97
18868.583 0.355 68.944 0.933 -20.806 0.933 -20.806 0.355 68.944
18893.542 0.356 68.918 0.933 -20.833 0.933 -20.833 0.356 68.918
18918.5 0.356 68.891 0.933 -20.859 0.933 -20.859 0.356 68.891
18943.458 0.357 68.865 0.933 -20.886 0.933 -20.886 0.357 68.865
18968.417 0.357 68.839 0.933 -20.913 0.933 -20.913 0.357 68.839
18993.375 0.357 68.813 0.932 -20.939 0.932 -20.939 0.357 68.813
19018.333 0.358 68.786 0.932 -20.966 0.932 -20.966 0.358 68.786
19043.292 0.358 68.76 0.932 -20.992 0.932 -20.992 0.358 68.76
19068.25 0.359 68.734 0.932 -21.019 0.932 -21.019 0.359 68.734
19093.208 0.359 68.708 0.932 -21.045 0.932 -21.045 0.359 68.708
19118.167 0.36 68.682 0.932 -21.072 0.932 -21.072 0.36 68.682
19143.125 0.36 68.655 0.931 -21.098 0.931 -21.098 0.36 68.655
19168.083 0.36 68.629 0.931 -21.125 0.931 -21.125 0.36 68.629
19193.042 0.361 68.603 0.931 -21.152 0.931 -21.152 0.361 68.603
19218 0.361 68.577 0.931 -21.178 0.931 -21.178 0.361 68.577
19242.958 0.362 68.551 0.931 -21.204 0.931 -21.204 0.362 68.551
19267.917 0.362 68.525 0.931 -21.231 0.931 -21.231 0.362 68.525
19292.875 0.363 68.498 0.93 -21.257 0.93 -21.257 0.363 68.498
19317.833 0.363 68.472 0.93 -21.284 0.93 -21.284 0.363 68.472
19342.792 0.363 68.446 0.93 -21.31 0.93 -21.31 0.363 68.446
19367.75 0.364 68.42 0.93 -21.337 0.93 -21.337 0.364 68.42
19392.708 0.364 68.394 0.93 -21.363 0.93 -21.363 0.364 68.394
19417.667 0.365 68.368 0.93 -21.39 0.93 -21.39 0.365 68.368
19442.625 0.365 68.342 0.929 -21.416 0.929 -21.416 0.365 68.342
19467.583 0.366 68.316 0.929 -21.442 0.929 -21.442 0.366 68.316
19492.542 0.366 68.29 0.929 -21.469 0.929 -21.469 0.366 68.29
19517.5 0.366 68.264 0.929 -21.495 0.929 -21.495 0.366 68.264
19542.458 0.367 68.238 0.929 -21.521 0.929 -21.521 0.367 68.238
19567.417 0.367 68.212 0.929 -21.548 0.929 -21.548 0.367 68.212
19592.375 0.368 68.186 0.928 -21.574 0.928 -21.574 0.368 68.186
19617.333 0.368 68.16 0.928 -21.6 0.928 -21.6 0.368 68.16
19642.292 0.369 68.134 0.928 -21.627 0.928 -21.627 0.369 68.134
19667.25 0.369 68.108 0.928 -21.653 0.928 -21.653 0.369 68.108
19692.208 0.369 68.082 0.928 -21.679 0.928 -21.679 0.369 68.082
19717.167 0.37 68.056 0.928 -21.706 0.928 -21.706 0.37 68.056
19742.125 0.37 68.03 0.927 -21.732 0.927 -21.732 0.37 68.03
19767.083 0.371 68.004 0.927 -21.758 0.927 -21.758 0.371 68.004
19792.042 0.371 67.978 0.927 -21.784 0.927 -21.784 0.371 67.978
19817 0.372 67.952 0.927 -21.811 0.927 -21.811 0.372 67.952
19841.958 0.372 67.926 0.927 -21.837 0.927 -21.837 0.372 67.926
19866.917 0.372 67.9 0.927 -21.863 0.927 -21.863 0.372 67.9
19891.875 0.373 67.874 0.926 -21.889 0.926 -21.889 0.373 67.874
19916.833 0.373 67.849 0.926 -21.915 0.926 -21.915 0.373 67.849
19941.792 0.374 67.823 0.926 -21.942 0.926 -21.942 0.374 67.823
19966.75 0.374 67.797 0.926 -21.968 0.926 -21.968 0.374 67.797
19991.708 0.375 67.771 0.926 -21.994 0.926 -21.994 0.375 67.771
20016.667 0.375 67.745 0.926 -22.02 0.926 -22.02 0.375 67.745
20041.625 0.375 67.719 0.925 -22.046 0.925 -22.046 0.375 67.719
20066.583 0.376 67.694 0.925 -22.072 0.925 -22.072 0.376 67.694
20091.542 0.376 67.668 0.925 -22.098 0.925 -22.098 0.376 67.668
20116.5 0.377 67.642 0.925 -22.124 0.925 -22.124 0.377 67.642
20141.458 0.377 67.616 0.925 -22.151 0.925 -22.151 0.377 67.616
20166.417 0.377 67.59 0.924 -22.177 0.924 -22.177 0.377 67.59
20191.375 0.378 67.565 0.924 -22.203 0.924 -22.203 0.378 67.565
20216.333 0.378 67.539 0.924 -22.229 0.924 -22.229 0.378 67.539
20241.292 0.379 67.513 0.924 -22.255 0.924 -22.255 0.379 67.513
20266.25 0.379 67.487 0.924 -22.281 0.924 -22.281 0.379 67.487
20291.208 0.38 67.462 0.924 -22.307 0.924 -22.307 0.38 67.462
20316.167 0.38 67.436 0.923 -22.333 0.923 -22.333 0.38 67.436
20341.125 0.38 67.41 0.923 -22.359 0.923 -22.359 0.38 67.41
20366.083 0.381 67.385 0.923 -22.385 0.923 -22.385 0.381 67.385
20391.042 0.381 67.359 0.923 -22.411 0.923 -22.411 0.381 67.359
20416 0.382 67.333 0.923 -22.437 0.923 -22.437 0.382 67.333
20440.958 0.382 67.308 0.923 -22.463 0.923 -22.463 0.382 67.308
20465.917 0.383 67.282 0.922 -22.489 0.922 -22.489 0.383 67.282
20490.875 0.383 67.256 0.922 -22.514 0.922 -22.514 0.383 67.256
20515.833 0.383 67.231 0.922 -22.54 0.922 -22.54 0.383 67.231
20540.792 0.384 67.205 0.922 -22.566 0.922 -22.566 0.384 67.205
20565.75 0.384 67.18 0.922 -22.592 0.922 -22.592 0.384 67.18
20590.708 0.385 67.154 0.922 -22.618 0.922 -22.618 0.385 67.154
20615.667 0.385 67.128 0.921 -22.644 0.921 -22.644 0.385 67.128
20640.625 0.385 67.103 0.921 -22.67 0.921 -22.67 0.385 67.103
20665.583 0.386 67.077 0.921 -22.696 0.921 -22.696 0.386 67.077
20690.542 0.386 67.052 0.921 -22.721 0.921 -22.721 0.386 67.052
20715.5 0.387 67.026 0.921 -22.747 0.921 -22.747 0.387 67.026
20740.458 0.387 67.001 0.921 -22.773 0.921 -22.773 0.387 67.001
20765.417 0.388 66.975 0.92 -22.799 0.92 -22.799 0.388 66.975
20790.375 0.388 66.95 0.92 -22.825 0.92 -22.825 0.388 66.95
20815.333 0.388 66.924 0.92 -22.85 0.92 -22.85 0.388 66.924
20840.292 0.389 66.899 0.92 -22.876 0.92 -22.876 0.389 66.899
20865.25 0.389 66.873 0.92 -22.902 0.92 -22.902 0.389 66.873
20890.208 0.39 66.848 0.919 -22.928 0.919 -22.928 0.39 66.848
20915.167 0.39 66.822 0.919 -22.953 0.919 -22.953 0.39 66.822
20940.125 0.39 66.797 0.919 -22.979 0.919 -22.979 0.39 66.797
20965.083 0.391 66.771 0.919 -23.005 0.919 -23.005 0.391 66.771
20990.042 0.391 66.746 0.919 -23.031 0.919 -23.031 0.391 66.746
21015 0.392 66.721 0.919 -23.056 0.919 -23.056 0.392 66.721
21039.958 0.392 66.695 0.918 -23.082 0.918 -23.082 0.392 66.695
21064.917 0.392 66.67 0.918 -23.108 0.918 -23.108 0.392 66.67
21089.875 0.393 66.644 0.918 -23.133 0.918 -23.133 0.393 66.644
21114.833 0.393 66.619 0.918 -23.159 0.918 -23.159 0.393 66.619
21139.792 0.394 66.594 0.918 -23.185 0.918 -23.185 0.394 66.594
21164.75 0.394 66.568 0.918 -23.21 0.918 -23.21 0.394 66.568
21189.708 0.395 66.543 0.917 -23.236 0.917 -23.236 0.395 66.543
21214.667 0.395 66.518 0.917 -23.261 0.917 -23.261 0.395 66.518
21239.625 0.395 66.492 0.917 -23.287 0.917 -23.287 0.395 66.492
21264.583 0.396 66.467 0.917 -23.313 0.917 -23.313 0.396 66.467
21289.542 0.396 66.442 0.917 -23.338 0.917 -23.338 0.396 66.442
21314.5 0.397 66.417 0.916 -23.364 0.916 -23.364 0.397 66.417
21339.458 0.397 66.391 0.916 -23.389 0.916 -23.389 0.397 66.391
21364.417 0.397 66.366 0.916 -23.415 0.916 -23.415 0.397 66.366
21389.375 0.398 66.341 0.916 -23.44 0.916 -23.44 0.398 66.341
21414.333 0.398 66.315 0.916 -23.466 0.916 -23.466 0.398 66.315
21439.292 0.399 66.29 0.916 -23.491 0.916 -23.491 0.399 66.29
21464.25 0.399 66.265 0.915 -23.517 0.915 -23.517 0.399 66.265
21489.208 0.399 66.24 0.915 -23.542 0.915 -23.542 0.399 66.24
21514.167 0.4 66.215 0.915 -23.568 0.915 -23.568 0.4 66.215
21539.125 0.4 66.189 0.915 -23.593 0.915 -23.593 0.4 66.189
21564.083 0.401 66.164 0.915 -23.619 0.915 -23.619 0.401 66.164
21589.042 0.401 66.139 0.915 -23.644 0.915 -23.644 0.401 66.139
21614 0.401 66.114 0.914 -23.669 0.914 -23.669 0.401 66.114
21638.958 0.402 66.089 0.914 -23.695 0.914 -23.695 0.402 66.089
21663.917 0.402 66.064 0.914 -23.72 0.914 -23.72 0.402 66.064
21688.875 0.403 66.039 0.914 -23.746 0.914 -23.746 0.403 66.039
21713.833 0.403 66.013 0.914 -23.771 0.914 -23.771 0.403 66.013
21738.792 0.403 65.988 0.913 -23.796 0.913 -23.796 0.403 65.988
21763.75 0.404 65.963 0.913 -23.822 0.913 -23.822 0.404 65.963
21788.708 0.404 65.938 0.913 -23.847 0.913 -23.847 0.404 65.938
21813.667 0.405 65.913 0.913 -23.872 0.913 -23.872 0.405 65.913
21838.625 0.405 65.888 0.913 -23.898 0.913 -23.898 0.405 65.888
21863.583 0.406 65.863 0.913 -23.923 0.913 -23.923 0.406 65.863
21888.542 0.406 65.838 0.912 -23.948 0.912 -23.948 0.406 65.838
21913.5 0.406 65.813 0.912 -23.974 0.912 -23.974 0.406 65.813
21938.458 0.407 65.788 0.912 -23.999 0.912 -23.999 0.407 65.788
21963.417 0.407 65.763 0.912 -24.024 0.912 -24.024 0.407 65.763
21988.375 0.408 65.738 0.912 -24.049 0.912 -24.049 0.408 65.738
22013.333 0.408 65.713 0.912 -24.075 0.912 -24.075 0.408 65.713
22038.292 0.408 65.688 0.911 -24.1 0.911 -24.1 0.408 65.688
22063.25 0.409 65.663 0.911 -24.125 0.911 -24.125 0.409 65.663
22088.208 0.409 65.638 0.911 -24.15 0.911 -24.15 0.409 65.638
22113.167 0.41 65.613 0.911 -24.175 0.911 -24.175 0.41 65.613
22138.125 0.41 65.588 0.911 -24.201 0.911 -24.201 0.41 65.588
22163.083 0.41 65.563 0.91 -24.226 0.91 -24.226 0.41 65.563
22188.042 0.411 65.538 0.91 -24.251 0.91 -24.251 0.411 65.538
22213 0.411 65.513 0.91 -24.276 0.91 -24.276 0.411 65.513
22237.958 0.412 65.488 0.91 -24.301 0.91 -24.301 0.412 65.488
22262.917 0.412 65.463 0.91 -24.326 0.91 -24.326 0.412 65.463
22287.875 0.412 65.439 0.91 -24.352 0.91 -24.352 0.412 65.439
22312.833 0.413 65.414 0.909 -24.377 0.909 -24.377 0.413 65.414
22337.792 0.413 65.389 0.909 -24.402 0.909 -24.402 0.413 65.389
22362.75 0.414 65.364 0.909 -24.427 0.909 -24.427 0.414 65.364
22387.708 0.414 65.339 0.909 -24.452 0.909 -24.452 0.414 65.339
22412.667 0.414 65.314 0.909 -24.477 0.909 -24.477 0.414 65.314
22437.625 0.415 65.29 0.908 -24.502 0.908 -24.502 0.415 65.29
22462.583 0.415 65.265 0.908 -24.527 0.908 -24.527 0.415 65.265
22487.542 0.416 65.24 0.908 -24.552 0.908 -24.552 0.416 65.24
22512.5 0.416 65.215 0.908 -24.577 0.908 -24.577 0.416 65.215
22537.458 0.416 65.19 0.908 -24.602 0.908 -24.602 0.416 65.19
22562.417 0.417 65.166 0.908 -24.627 0.908 -24.627 0.417 65.166
22587.375 0.417 65.141 0.907 -24.652 0.907 -24.652 0.417 65.141
22612.333 0.418 65.116 0.907 -24.677 0.907 -24.677 0.418 65.116
22637.292 0.418 65.091 0.907 -24.702 0.907 -24.702 0.418 65.091
22662.25 0.418 65.067 0.907 -24.727 0.907 -24.727 0.418 65.067
22687.208 0.419 65.042 0.907 -24.752 0.907 -24.752 0.419 65.042
22712.167 0.419 65.017 0.906 -24.777 0.906 -24.777 0.419 65.017
22737.125 0.419 64.993 0.906 -24.802 0.906 -24.802 0.419 64.993
22762.083 0.42 64.968 0.906 -24.827 0.906 -24.827 0.42 64.968
22787.042 0.42 64.943 0.906 -24.852 0.906 -24.852 0.42 64.943
22812 0.421 64.919 0.906 -24.876 0.906 -24.876 0.421 64.919
22836.958 0.421 64.894 0.906 -24.901 0.906 -24.901 0.421 64.894
22861.917 0.421 64.869 0.905 -24.926 0.905 -24.926 0.421 64.869
22886.875 0.422 64.845 0.905 -24.951 0.905 -24.951 0.422 64.845
22911.833 0.422 64.82 0.905 -24.976 0.905 -24.976 0.422 64.82
22936.792 0.423 64.796 0.905 -25.001 0.905 -25.001 0.423 64.796
22961.75 0.423 64.771 0.905 -25.026 0.905 -25.026 0.423 64.771
22986.708 0.423 64.746 0.904 -25.05 0.904 -25.05 0.423 64.746
23011.667 0.424 64.722 0.904 -25.075 0.904 -25.075 0.424 64.722
23036.625 0.424 64.697 0.904 -25.1 0.904 -25.1 0.424 64.697
23061.583 0.425 64.673 0.904 -25.125 0.904 -25.125 0.425 64.673
23086.542 0.425 64.648 0.904 -25.15 0.904 -25.15 0.425 64.648
23111.5 0.425 64.624 0.904 -25.174 0.904 -25.174 0.425 64.624
23136.458 0.426 64.599 0.903 -25.199 0.903 -25.199 0.426 64.599
23161.417 0.426 64.575 0.903 -25.224 0.903 -25.224 0.426 64.575
23186.375 0.427 64.55 0.903 -25.248 0.903 -25.248 0.427 64.55
23211.333 0.427 64.526 0.903 -25.273 0.903 -25.273 0.427 64.526
23236.292 0.427 64.501 0.903 -25.298 0.903 -25.298 0.427 64.501
23261.25 0.428 64.477 0.902 -25.323 0.902 -25.323 0.428 64.477
23286.208 0.428 64.452 0.902 -25.347 0.902 -25.347 0.428 64.452
23311.167 0.428 64.428 0.902 -25.372 0.902 -25.372 0.428 64.428
23336.125 0.429 64.403 0.902 -25.397 0.902 -25.397 0.429 64.403
23361.083 0.429 64.379 0.902 -25.421 0.902 -25.421 0.429 64.379
23386.042 0.43 64.355 0.901 -25.446 0.901 -25.446 0.43 64.355
23411 0.43 64.33 0.901 -25.47 0.901 -25.47 0.43 64.33
23435.958 0.43 64.306 0.901 -25.495 0.901 -25.495 0.43 64.306
23460.917 0.431 64.281 0.901 -25.52 0.901 -25.52 0.431 64.281
23485.875 0.431 64.257 0.901 -25.544 0.901 -25.544 0.431 64.257
23510.833 0.432 64.233 0.901 -25.569 0.901 -25.569 0.432 64.233
23535.792 0.432 64.208 0.9 -25.593 0.9 -25.593 0.432 64.208
23560.75 0.432 64.184 0.9 -25.618 0.9 -25.618 0.432 64.184
23585.708 0.433 64.16 0.9 -25.643 0.9 -25.643 0.433 64.16
23610.667 0.433 64.135 0.9 -25.667 0.9 -25.667 0.433 64.135
23635.625 0.434 64.111 0.9 -25.692 0.9 -25.692 0.434 64.111
23660.583 0.434 64.087 0.899 -25.716 0.899 -25.716 0.434 64.087
23685.542 0.434 64.062 0.899 -25.741 0.899 -25.741 0.434 64.062
23710.5 0.435 64.038 0.899 -25.765 0.899 -25.765 0.435 64.038
23735.458 0.435 64.014 0.899 -25.79 0.899 -25.79 0.435 64.014
23760.417 0.435 63.99 0.899 -25.814 0.899 -25.814 0.435 63.99
23785.375 0.436 63.965 0.899 -25.838 0.899 -25.838 0.436 63.965
23810.333 0.436 63.941 0.898 -25.863 0.898 -25.863 0.436 63.941
23835.292 0.437 63.917 0.898 -25.887 0.898 -25.887 0.437 63.917
23860.25 0.437 63.893 0.898 -25.912 0.898 -25.912 0.437 63.893
23885.208 0.437 63.869 0.898 -25.936 0.898 -25.936 0.437 63.869
23910.167 0.438 63.844 0.898 -25.961 0.898 -25.961 0.438 63.844
23935.125 0.438 63.82 0.897 -25.985 0.897 -25.985 0.438 63.82
23960.083 0.439 63.796 0.897 -26.009 0.897 -26.009 0.439 63.796
23985.042 0.439 63.772 0.897 -26.034 0.897 -26.034 0.439 63.772
24010 0.439 63.748 0.897 -26.058 0.897 -26.058 0.439 63.748
24034.958 0.44 63.724 0.897 -26.082 0.897 -26.082 0.44 63.724
24059.917 0.44 63.699 0.896 -26.107 0.896 -26.107 0.44 63.699
24084.875 0.44 63.675 0.896 -26.131 0.896 -26.131 0.44 63.675
24109.833 0.441 63.651 0.896 -26.155 0.896 -26.155 0.441 63.651
24134.792 0.441 63.627 0.896 -26.18 0.896 -26.18 0.441 63.627
24159.75 0.442 63.603 0.896 -26.204 0.896 -26.204 0.442 63.603
24184.708 0.442 63.579 0.896 -26.228 0.896 -26.228 0.442 63.579
24209.667 0.442 63.555 0.895 -26.253 0.895 -26.253 0.442 63.555
24234.625 0.443 63.531 0.895 -26.277 0.895 -26.277 0.443 63.531
24259.583 0.443 63.507 0.895 -26.301 0.895 -26.301 0.443 63.507
24284.542 0.443 63.483 0.895 -26.325 0.895 -26.325 0.443 63.483
24309.5 0.444 63.459 0.895 -26.35 0.895 -26.35 0.444 63.459
24334.458 0.444 63.435 0.894 -26.374 0.894 -26.374 0.444 63.435
24359.417 0.445 63.411 0.894 -26.398 0.894 -26.398 0.445 63.411
24384.375 0.445 63.387 0.894 -26.422 0.894 -26.422 0.445 63.387
24409.333 0.445 63.363 0.894 -26.446 0.894 -26.446 0.445 63.363
24434.292 0.446 63.339 0.894 -26.47 0.894 -26.47 0.446 63.339
24459.25 0.446 63.315 0.893 -26.495 0.893 -26.495 0.446 63.315
24484.208 0.446 63.291 0.893 -26.519 0.893 -26.519 0.446 63.291
24509.167 0.447 63.267 0.893 -26.543 0.893 -26.543 0.447 63.267
24534.125 0.447 63.243 0.893 -26.567 0.893 -26.567 0.447 63.243
24559.083 0.448 63.219 0.893 -26.591 0.893 -26.591 0.448 63.219
24584.042 0.448 63.195 0.893 -26.615 0.893 -26.615 0.448 63.195
24609 0.448 63.171 0.892 -26.639 0.892 -26.639 0.448 63.171
24633.958 0.449 63.147 0.892 -26.663 0.892 -26.663 0.449 63.147
24658.917 0.449 63.124 0.892 -26.688 0.892 -26.688 0.449 63.124
24683.875 0.45 63.1 0.892 -26.712 0.892 -26.712 0.45 63.1
24708.833 0.45 63.076 0.892 -26.736 0.892 -26.736 0.45 63.076
24733.792 0.45 63.052 0.891 -26.76 0.891 -26.76 0.45 63.052
24758.75 0.451 63.028 0.891 -26.784 0.891 -26.784 0.451 63.028
24783.708 0.451 63.004 0.891 -26.808 0.891 -26.808 0.451 63.004
24808.667 0.451 62.981 0.891 -26.832 0.891 -26.832 0.451 62.981
24833.625 0.452 62.957 0.891 -26.856 0.891 -26.856 0.452 62.957
24858.583 0.452 62.933 0.89 -26.88 0.89 -26.88 0.452 62.933
24883.542 0.452 62.909 0.89 -26.904 0.89 -26.904 0.452 62.909
24908.5 0.453 62.885 0.89 -26.928 0.89 -26.928 0.453 62.885
24933.458 0.453 62.862 0.89 -26.952 0.89 -26.952 0.453 62.862
24958.417 0.454 62.838 0.89 -26.976 0.89 -26.976 0.454 62.838
24983.375 0.454 62.814 0.89 -26.999 0.89 -26.999 0.454 62.814
25008.333 0.454 62.79 0.889 -27.023 0.889 -27.023 0.454 62.79
25033.292 0.455 62.767 0.889 -27.047 0.889 -27.047 0.455 62.767
25058.25 0.455 62.743 0.889 -27.071 0.889 -27.071 0.455 62.743
25083.208 0.455 62.719 0.889 -27.095 0.889 -27.095 0.455 62.719
25108.167 0.456 62.696 0.889 -27.119 0.889 -27.119 0.456 62.696
25133.125 0.456 62.672 0.888 -27.143 0.888 -27.143 0.456 62.672
25158.083 0.457 62.648 0.888 -27.167 0.888 -27.167 0.457 62.648
25183.042 0.457 62.625 0.888 -27.19 0.888 -27.19 0.457 62.625
25208 0.457 62.601 0.888 -27.214 0.888 -27.214 0.457 62.601
25232.958 0.458 62.577 0.888 -27.238 0.888 -27.238 0.458 62.577
25257.917 0.458 62.554 0.887 -27.262 0.887 -27.262 0.458 62.554
25282.875 0.458 62.53 0.887 -27.286 0.887 -27.286 0.458 62.53
25307.833 0.459 62.507 0.887 -27.31 0.887 -27.31 0.459 62.507
25332.792 0.459 62.483 0.887 -27.333 0.887 -27.333 0.459 62.483
25357.75 0.46 62.459 0.887 -27.357 0.887 -27.357 0.46 62.459
25382.708 0.46 62.436 0.886 -27.381 0.886 -27.381 0.46 62.436
25407.667 0.46 62.412 0.886 -27.405 0.886 -27.405 0.46 62.412
25432.625 0.461 62.389 0.886 -27.428 0.886 -27.428 0.461 62.389
25457.583 0.461 62.365 0.886 -27.452 0.886 -27.452 0.461 62.365
25482.542 0.461 62.342 0.886 -27.476 0.886 -27.476 0.461 62.342
25507.5 0.462 62.318 0.886 -27.499 0.886 -27.499 0.462 62.318
25532.458 0.462 62.295 0.885 -27.523 0.885 -27.523 0.462 62.295
25557.417 0.462 62.271 0.885 -27.547 0.885 -27.547 0.462 62.271
25582.375 0.463 62.248 0.885 -27.57 0.885 -27.57 0.463 62.248
25607.333 0.463 62.224 0.885 -27.594 0.885 -27.594 0.463 62.224
25632.292 0.464 62.201 0.885 -27.618 0.885 -27.618 0.464 62.201
25657.25 0.464 62.177 0.884 -27.641 0.884 -27.641 0.464 62.177
25682.208 0.464 62.154 0.884 -27.665 0.884 -27.665 0.464 62.154
25707.167 0.465 62.13 0.884 -27.689 0.884 -27.689 0.465 62.13
25732.125 0.465 62.107 0.884 -27.712 0.884 -27.712 0.465 62.107
25757.083 0.465 62.084 0.884 -27.736 0.884 -27.736 0.465 62.084
25782.042 0.466 62.06 0.883 -27.759 0.883 -27.759 0.466 62.06
25807 0.466 62.037 0.883 -27.783 0.883 -27.783 0.466 62.037
25831.958 0.466 62.013 0.883 -27.807 0.883 -27.807 0.466 62.013
25856.917 0.467 61.99 0.883 -27.83 0.883 -27.83 0.467 61.99
25881.875 0.467 61.967 0.883 -27.854 0.883 -27.854 0.467 61.967
25906.833 0.468 61.943 0.882 -27.877 0.882 -27.877 0.468 61.943
25931.792 0.468 61.92 0.882 -27.901 0.882 -27.901 0.468 61.92
25956.75 0.468 61.897 0.882 -27.924 0.882 -27.924 0.468 61.897
25981.708 0.469 61.873 0.882 -27.948 0.882 -27.948 0.469 61.873
26006.667 0.469 61.85 0.882 -27.971 0.882 -27.971 0.469 61.85
26031.625 0.469 61.827 0.882 -27.995 0.882 -27.995 0.469 61.827
26056.583 0.47 61.803 0.881 -28.018 0.881 -28.018 0.47 61.803
26081.542 0.47 61.78 0.881 -28.042 0.881 -28.042 0.47 61.78
26106.5 0.47 61.757 0.881 -28.065 0.881 -28.065 0.47 61.757
26131.458 0.471 61.734 0.881 -28.088 0.881 -28.088 0.471 61.734
26156.417 0.471 61.71 0.881 -28.112 0.881 -28.112 0.471 61.71
26181.375 0.472 61.687 0.88 -28.135 0.88 -28.135 0.472 61.687
26206.333 0.472 61.664 0.88 -28.159 0.88 -28.159 0.472 61.664
26231.292 0.472 61.641 0.88 -28.182 0.88 -28.182 0.472 61.641
26256.25 0.473 61.618 0.88 -28.205 0.88 -28.205 0.473 61.618
26281.208 0.473 61.594 0.88 -28.229 0.88 -28.229 0.473 61.594
26306.167 0.473 61.571 0.879 -28.252 0.879 -28.252 0.473 61.571
26331.125 0.474 61.548 0.879 -28.275 0.879 -28.275 0.474 61.548
26356.083 0.474 61.525 0.879 -28.299 0.879 -28.299 0.474 61.525
26381.042 0.474 61.502 0.879 -28.322 0.879 -28.322 0.474 61.502
26406 0.475 61.479 0.879 -28.345 0.879 -28.345 0.475 61.479
26430.958 0.475 61.455 0.878 -28.369 0.878 -28.369 0.475 61.455
26455.917 0.476 61.432 0.878 -28.392 0.878 -28.392 0.476 61.432
26480.875 0.476 61.409 0.878 -28.415 0.878 -28.415 0.476 61.409
26505.833 0.476 61.386 0.878 -28.438 0.878 -28.438 0.476 61.386
26530.792 0.477 61.363 0.878 -28.462 0.878 -28.462 0.477 61.363
26555.75 0.477 61.34 0.877 -28.485 0.877 -28.485 0.477 61.34
26580.708 0.477 61.317 0.877 -28.508 0.877 -28.508 0.477 61.317
26605.667 0.478 61.294 0.877 -28.531 0.877 -28.531 0.478 61.294
26630.625 0.478 61.271 0.877 -28.555 0.877 -28.555 0.478 61.271
26655.583 0.478 61.248 0.877 -28.578 0.877 -28.578 0.478 61.248
26680.542 0.479 61.225 0.877 -28.601 0.877 -28.601 0.479 61.225
26705.5 0.479 61.202 0.876 -28.624 0.876 -28.624 0.479 61.202
26730.458 0.479 61.179 0.876 -28.647 0.876 -28.647 0.479 61.179
26755.417 0.48 61.156 0.876 -28.671 0.876 -28.671 0.48 61.156
26780.375 0.48 61.133 0.876 -28.694 0.876 -28.694 0.48 61.133
26805.333 0.48 61.11 0.876 -28.717 0.876 -28.717 0.48 61.11
26830.292 0.481 61.087 0.875 -28.74 0.875 -28.74 0.481 61.087
26855.25 0.481 61.064 0.875 -28.763 0.875 -28.763 0.481 61.064
26880.208 0.482 61.041 0.875 -28.786 0.875 -28.786 0.482 61.041
26905.167 0.482 61.018 0.875 -28.809 0.875 -28.809 0.482 61.018
26930.125 0.482 60.995 0.875 -28.832 0.875 -28.832 0.482 60.995
26955.083 0.483 60.972 0.874 -28.855 0.874 -28.855 0.483 60.972
26980.042 0.483 60.949 0.874 -28.878 0.874 -28.878 0.483 60.949
27005 0.483 60.926 0.874 -28.901 0.874 -28.901 0.483 60.926
27029.958 0.484 60.904 0.874 -28.925 0.874 -28.925 0.484 60.904
27054.917 0.484 60.881 0.874 -28.948 0.874 -28.948 0.484 60.881
27079.875 0.484 60.858 0.873 -28.971 0.873 -28.971 0.484 60.858
27104.833 0.485 60.835 0.873 -28.994 0.873 -28.994 0.485 60.835
27129.792 0.485 60.812 0.873 -29.017 0.873 -29.017 0.485 60.812
27154.75 0.485 60.789 0.873 -29.04 0.873 -29.04 0.485 60.789
27179.708 0.486 60.767 0.873 -29.063 0.873 -29.063 0.486 60.767
27204.667 0.486 60.744 0.872 -29.085 0.872 -29.085 0.486 60.744
27229.625 0.486 60.721 0.872 -29.108 0.872 -29.108 0.486 60.721
27254.583 0.487 60.698 0.872 -29.131 0.872 -29.131 0.487 60.698
27279.542 0.487 60.675 0.872 -29.154 0.872 -29.154 0.487 60.675
27304.5 0.488 60.653 0.872 -29.177 0.872 -29.177 0.488 60.653
27329.458 0.488 60.63 0.871 -29.2 0.871 -29.2 0.488 60.63
27354.417 0.488 60.607 0.871 -29.223 0.871 -29.223 0.488 60.607
27379.375 0.489 60.584 0.871 -29.246 0.871 -29.246 0.489 60.584
27404.333 0.489 60.562 0.871 -29.269 0.871 -29.269 0.489 60.562
27429.292 0.489 60.539 0.871 -29.292 0.871 -29.292 0.489 60.539
27454.25 0.49 60.516 0.87 -29.314 0.87 -29.314 0.49 60.516
27479.208 0.49 60.494 0.87 -29.337 0.87 -29.337 0.49 60.494
27504.167 0.49 60.471 0.87 -29.36 0.87 -29.36 0.49 60.471
27529.125 0.491 60.448 0.87 -29.383 0.87 -29.383 0.491 60.448
27554.083 0.491 60.426 0.87 -29.406 0.87 -29.406 0.491 60.426
27579.042 0.491 60.403 0.87 -29.429 0.87 -29.429 0.491 60.403
27604 0.492 60.38 0.869 -29.451 0.869 -29.451 0.492 60.38
27628.958 0.492 60.358 0.869 -29.474 0.869 -29.474 0.492 60.358
27653.917 0.492 60.335 0.869 -29.497 0.869 -29.497 0.492 60.335
27678.875 0.493 60.313 0.869 -29.52 0.869 -29.52 0.493 60.313
27703.833 0.493 60.29 0.869 -29.542 0.869 -29.542 0.493 60.29
27728.792 0.493 60.267 0.868 -29.565 0.868 -29.565 0.493 60.267
27753.75 0.494 60.245 0.868 -29.588 0.868 -29.588 0.494 60.245
27778.708 0.494 60.222 0.868 -29.611 0.868 -29.611 0.494 60.222
27803.667 0.494 60.2 0.868 -29.633 0.868 -29.633 0.494 60.2
27828.625 0.495 60.177 0.868 -29.656 0.868 -29.656 0.495 60.177
27853.583 0.495 60.155 0.867 -29.679 0.867 -29.679 0.495 60.155
27878.542 0.495 60.132 0.867 -29.701 0.867 -29.701 0.495 60.132
27903.5 0.496 60.11 0.867 -29.724 0.867 -29.724 0.496 60.11
27928.458 0.496 60.087 0.867 -29.747 0.867 -29.747 0.496 60.087
27953.417 0.497 60.065 0.867 -29.769 0.867 -29.769 0.497 60.065
27978.375 0.497 60.042 0.866 -29.792 0.866 -29.792 0.497 60.042
28003.333 0.497 60.02 0.866 -29.815 0.866 -29.815 0.497 60.02
28028.292 0.498 59.997 0.866 -29.837 0.866 -29.837 0.498 59.997
28053.25 0.498 59.975 0.866 -29.86 0.866 -29.86 0.498 59.975
28078.208 0.498 59.952 0.866 -29.882 0.866 -29.882 0.498 59.952
28103.167 0.499 59.93 0.865 -29.905 0.865 -29.905 0.499 59.93
28128.125 0.499 59.908 0.865 -29.927 0.865 -29.927 0.499 59.908
28153.083 0.499 59.885 0.865 -29.95 0.865 -29.95 0.499 59.885
28178.042 0.5 59.863 0.865 -29.973 0.865 -29.973 0.5 59.863
28203 0.5 59.84 0.865 -29.995 0.865 -29.995 0.5 59.84
28227.958 0.5 59.818 0.864 -30.018 0.864 -30.018 0.5 59.818
28252.917 0.501 59.796 0.864 -30.04 0.864 -30.04 0.501 59.796
28277.875 0.501 59.773 0.864 -30.063 0.864 -30.063 0.501 59.773
28302.833 0.501 59.751 0.864 -30.085 0.864 -30.085 0.501 59.751
28327.792 0.502 59.729 0.864 -30.108 0.864 -30.108 0.502 59.729
28352.75 0.502 59.706 0.863 -30.13 0.863 -30.13 0.502 59.706
28377.708 0.502 59.684 0.863 -30.152 0.863 -30.152 0.502 59.684
28402.667 0.503 59.662 0.863 -30.175 0.863 -30.175 0.503 59.662
28427.625 0.503 59.639 0.863 -30.197 0.863 -30.197 0.503 59.639
28452.583 0.503 59.617 0.863 -30.22 0.863 -30.22 0.503 59.617
28477.542 0.504 59.595 0.862 -30.242 0.862 -30.242 0.504 59.595
28502.5 0.504 59.573 0.862 -30.265 0.862 -30.265 0.504 59.573
28527.458 0.504 59.55 0.862 -30.287 0.862 -30.287 0.504 59.55
28552.417 0.505 59.528 0.862 -30.309 0.862 -30.309 0.505 59.528
28577.375 0.505 59.506 0.862 -30.332 0.862 -30.332 0.505 59.506
28602.333 0.505 59.484 0.861 -30.354 0.861 -30.354 0.505 59.484
28627.292 0.506 59.462 0.861 -30.376 0.861 -30.376 0.506 59.462
28652.25 0.506 59.439 0.861 -30.399 0.861 -30.399 0.506 59.439
28677.208 0.506 59.417 0.861 -30.421 0.861 -30.421 0.506 59.417
28702.167 0.507 59.395 0.861 -30.443 0.861 -30.443 0.507 59.395
28727.125 0.507 59.373 0.861 -30.466 0.861 -30.466 0.507 59.373
28752.083 0.507 59.351 0.86 -30.488 0.86 -30.488 0.507 59.351
28777.042 0.508 59.329 0.86 -30.51 0.86 -30.51 0.508 59.329
28802 0.508 59.306 0.86 -30.533 0.86 -30.533 0.508 59.306
28826.958 0.508 59.284 0.86 -30.555 0.86 -30.555 0.508 59.284
28851.917 0.509 59.262 0.86 -30.577 0.86 -30.577 0.509 59.262
28876.875 0.509 59.24 0.859 -30.599 0.859 -30.599 0.509 59.24
28901.833 0.509 59.218 0.859 -30.622 0.859 -30.622 0.509 59.218
28926.792 0.51 59.196 0.859 -30.644 0.859 -30.644 0.51 59.196
28951.75 0.51 59.174 0.859 -30.666 0.859 -30.666 0.51 59.174
28976.708 0.51 59.152 0.859 -30.688 0.859 -30.688 0.51 59.152
29001.667 0.511 59.13 0.858 -30.71 0.858 -30.71 0.511 59.13
29026.625 0.511 59.108 0.858 -30.733 0.858 -30.733 0.511 59.108
29051.583 0.511 59.086 0.858 -30.755 0.858 -30.755 0.511 59.086
29076.542 0.512 59.064 0.858 -30.777 0.858 -30.777 0.512 59.064
29101.5 0.512 59.042 0.858 -30.799 0.858 -30.799 0.512 59.042
29126.458 0.512 59.02 0.857 -30.821 0.857 -30.821 0.512 59.02
29151.417 0.513 58.998 0.857 -30.843 0.857 -30.843 0.513 58.998
29176.375 0.513 58.976 0.857 -30.865 0.857 -30.865 0.513 58.976
29201.333 0.513 58.954 0.857 -30.887 0.857 -30.887 0.513 58.954
29226.292 0.514 58.932 0.857 -30.91 0.857 -30.91 0.514 58.932
29251.25 0.514 58.91 0.856 -30.932 0.856 -30.932 0.514 58.91
29276.208 0.514 58.888 0.856 -30.954 0.856 -30.954 0.514 58.888
29301.167 0.515 58.866 0.856 -30.976 0.856 -30.976 0.515 58.866
29326.125 0.515 58.844 0.856 -30.998 0.856 -30.998 0.515 58.844
29351.083 0.515 58.822 0.856 -31.02 0.856 -31.02 0.515 58.822
29376.042 0.516 58.8 0.855 -31.042 0.855 -31.042 0.516 58.8
29401 0.516 58.778 0.855 -31.064 0.855 -31.064 0.516 58.778
29425.958 0.516 58.757 0.855 -31.086 0.855 -31.086 0.516 58.757
29450.917 0.517 58.735 0.855 -31.108 0.855 -31.108 0.517 58.735
29475.875 0.517 58.713 0.855 -31.13 0.855 -31.13 0.517 58.713
29500.833 0.517 58.691 0.854 -31.152 0.854 -31.152 0.517 58.691
29525.792 0.518 58.669 0.854 -31.174 0.854 -31.174 0.518 58.669
29550.75 0.518 58.647 0.854 -31.196 0.854 -31.196 0.518 58.647
29575.708 0.518 58.626 0.854 -31.218 0.854 -31.218 0.518 58.626
29600.667 0.519 58.604 0.854 -31.24 0.854 -31.24 0.519 58.604
29625.625 0.519 58.582 0.853 -31.262 0.853 -31.262 0.519 58.582
29650.583 0.519 58.56 0.853 -31.284 0.853 -31.284 0.519 58.56
29675.542 0.52 58.538 0.853 -31.305 0.853 -31.305 0.52 58.538
29700.5 0.52 58.517 0.853 -31.327 0.853 -31.327 0.52 58.517
29725.458 0.52 58.495 0.853 -31.349 0.853 -31.349 0.52 58.495
29750.417 0.521 58.473 0.852 -31.371 0.852 -31.371 0.521 58.473
29775.375 0.521 58.451 0.852 -31.393 0.852 -31.393 0.521 58.451
29800.333 0.521 58.43 0.852 -31.415 0.852 -31.415 0.521 58.43
29825.292 0.522 58.408 0.852 -31.437 0.852 -31.437 0.522 58.408
29850.25 0.522 58.386 0.852 -31.458 0.852 -31.458 0.522 58.386
29875.208 0.522 58.365 0.851 -31.48 0.851 -31.48 0.522 58.365
29900.167 0.523 58.343 0.851 -31.502 0.851 -31.502 0.523 58.343
29925.125 0.523 58.321 0.851 -31.524 0.851 -31.524 0.523 58.321
29950.083 0.523 58.3 0.851 -31.546 0.851 -31.546 0.523 58.3
29975.042 0.524 58.278 0.851 -31.567 0.851 -31.567 0.524 58.278
30000 0.524 58.256 0.85 -31.589 0.85 -31.589 0.524 58.256
