!	AVX Thin Film Operation 	Date: April 2014		
!	Description: Accu-P® Series, Thin Film  SMD RF Capacitor
!	Part Number: 0201YK100FBSTR					
!								
# MHZ S MA R 50

50 0.954 -17.443 0.3 72.53 0.3 72.53 0.954 -17.443
74.958 0.904 -25.228 0.426 64.732 0.426 64.732 0.904 -25.228
99.917 0.846 -32.138 0.532 57.809 0.532 57.809 0.846 -32.138
124.875 0.786 -38.147 0.618 51.786 0.618 51.786 0.786 -38.147
149.833 0.727 -43.315 0.686 46.605 0.686 46.605 0.727 -43.315
174.792 0.671 -47.739 0.74 42.167 0.74 42.167 0.671 -47.739
199.75 0.621 -51.528 0.783 38.365 0.783 38.365 0.621 -51.528
224.708 0.575 -54.783 0.817 35.097 0.817 35.097 0.575 -54.783
249.667 0.534 -57.592 0.844 32.274 0.844 32.274 0.534 -57.592
274.625 0.497 -60.032 0.866 29.821 0.866 29.821 0.497 -60.032
299.583 0.464 -62.163 0.884 27.676 0.884 27.676 0.464 -62.163
324.542 0.435 -64.036 0.899 25.789 0.899 25.789 0.435 -64.036
349.5 0.409 -65.692 0.911 24.119 0.911 24.119 0.409 -65.692
374.458 0.385 -67.165 0.922 22.632 0.922 22.632 0.385 -67.165
399.417 0.363 -68.483 0.93 21.3 0.93 21.3 0.363 -68.483
424.375 0.344 -69.667 0.938 20.102 0.938 20.102 0.344 -69.667
449.333 0.326 -70.736 0.944 19.019 0.944 19.019 0.326 -70.736
474.292 0.31 -71.706 0.949 18.034 0.949 18.034 0.31 -71.706
499.25 0.295 -72.589 0.954 17.136 0.954 17.136 0.295 -72.589
524.208 0.281 -73.397 0.958 16.313 0.958 16.313 0.281 -73.397
549.167 0.268 -74.139 0.962 15.557 0.962 15.557 0.268 -74.139
574.125 0.256 -74.822 0.965 14.859 0.965 14.859 0.256 -74.822
599.083 0.246 -75.452 0.968 14.213 0.968 14.213 0.246 -75.452
624.042 0.235 -76.037 0.97 13.614 0.97 13.614 0.235 -76.037
649 0.226 -76.58 0.973 13.055 0.973 13.055 0.226 -76.58
673.958 0.217 -77.085 0.975 12.534 0.975 12.534 0.217 -77.085
698.917 0.209 -77.557 0.977 12.046 0.977 12.046 0.209 -77.557
723.875 0.201 -77.999 0.978 11.588 0.978 11.588 0.201 -77.999
748.833 0.194 -78.413 0.98 11.158 0.98 11.158 0.194 -78.413
773.792 0.187 -78.802 0.981 10.752 0.981 10.752 0.187 -78.802
798.75 0.18 -79.168 0.982 10.369 0.982 10.369 0.18 -79.168
823.708 0.174 -79.513 0.983 10.007 0.983 10.007 0.174 -79.513
848.667 0.168 -79.839 0.984 9.664 0.984 9.664 0.168 -79.839
873.625 0.162 -80.147 0.985 9.338 0.985 9.338 0.162 -80.147
898.583 0.157 -80.439 0.986 9.028 0.986 9.028 0.157 -80.439
923.542 0.152 -80.716 0.987 8.732 0.987 8.732 0.152 -80.716
948.5 0.147 -80.979 0.988 8.451 0.988 8.451 0.147 -80.979
973.458 0.142 -81.229 0.988 8.182 0.988 8.182 0.142 -81.229
998.417 0.138 -81.467 0.989 7.924 0.989 7.924 0.138 -81.467
1023.375 0.134 -81.694 0.99 7.678 0.99 7.678 0.134 -81.694
1048.333 0.13 -81.91 0.99 7.442 0.99 7.442 0.13 -81.91
1073.292 0.126 -82.116 0.991 7.215 0.991 7.215 0.126 -82.116
1098.25 0.122 -82.313 0.991 6.997 0.991 6.997 0.122 -82.313
1123.208 0.118 -82.501 0.992 6.787 0.992 6.787 0.118 -82.501
1148.167 0.115 -82.681 0.992 6.585 0.992 6.585 0.115 -82.681
1173.125 0.111 -82.854 0.992 6.39 0.992 6.39 0.111 -82.854
1198.083 0.108 -83.019 0.993 6.202 0.993 6.202 0.108 -83.019
1223.042 0.105 -83.176 0.993 6.021 0.993 6.021 0.105 -83.176
1248 0.102 -83.328 0.993 5.845 0.993 5.845 0.102 -83.328
1272.958 0.099 -83.473 0.994 5.675 0.994 5.675 0.099 -83.473
1297.917 0.096 -83.612 0.994 5.511 0.994 5.511 0.096 -83.612
1322.875 0.093 -83.745 0.994 5.351 0.994 5.351 0.093 -83.745
1347.833 0.091 -83.873 0.994 5.196 0.994 5.196 0.091 -83.873
1372.792 0.088 -83.995 0.995 5.046 0.995 5.046 0.088 -83.995
1397.75 0.085 -84.112 0.995 4.9 0.995 4.9 0.085 -84.112
1422.708 0.083 -84.225 0.995 4.758 0.995 4.758 0.083 -84.225
1447.667 0.081 -84.332 0.995 4.62 0.995 4.62 0.081 -84.332
1472.625 0.078 -84.435 0.995 4.486 0.995 4.486 0.078 -84.435
1497.583 0.076 -84.533 0.996 4.355 0.996 4.355 0.076 -84.533
1522.542 0.074 -84.627 0.996 4.227 0.996 4.227 0.074 -84.627
1547.5 0.072 -84.717 0.996 4.103 0.996 4.103 0.072 -84.717
1572.458 0.069 -84.802 0.996 3.982 0.996 3.982 0.069 -84.802
1597.417 0.067 -84.883 0.996 3.863 0.996 3.863 0.067 -84.883
1622.375 0.065 -84.96 0.996 3.747 0.996 3.747 0.065 -84.96
1647.333 0.063 -85.033 0.997 3.634 0.997 3.634 0.063 -85.033
1672.292 0.061 -85.101 0.997 3.524 0.997 3.524 0.061 -85.101
1697.25 0.06 -85.166 0.997 3.415 0.997 3.415 0.06 -85.166
1722.208 0.058 -85.227 0.997 3.309 0.997 3.309 0.058 -85.227
1747.167 0.056 -85.283 0.997 3.205 0.997 3.205 0.056 -85.283
1772.125 0.054 -85.335 0.997 3.104 0.997 3.104 0.054 -85.335
1797.083 0.052 -85.383 0.997 3.004 0.997 3.004 0.052 -85.383
1822.042 0.051 -85.426 0.997 2.906 0.997 2.906 0.051 -85.426
1847 0.049 -85.465 0.997 2.81 0.997 2.81 0.049 -85.465
1871.958 0.047 -85.499 0.997 2.716 0.997 2.716 0.047 -85.499
1896.917 0.046 -85.529 0.997 2.624 0.997 2.624 0.046 -85.529
1921.875 0.044 -85.553 0.998 2.533 0.998 2.533 0.044 -85.553
1946.833 0.043 -85.573 0.998 2.444 0.998 2.444 0.043 -85.573
1971.792 0.041 -85.587 0.998 2.356 0.998 2.356 0.041 -85.587
1996.75 0.04 -85.595 0.998 2.27 0.998 2.27 0.04 -85.595
2021.708 0.038 -85.597 0.998 2.185 0.998 2.185 0.038 -85.597
2046.667 0.037 -85.592 0.998 2.102 0.998 2.102 0.037 -85.592
2071.625 0.035 -85.581 0.998 2.02 0.998 2.02 0.035 -85.581
2096.583 0.034 -85.561 0.998 1.939 0.998 1.939 0.034 -85.561
2121.542 0.032 -85.534 0.998 1.859 0.998 1.859 0.032 -85.534
2146.5 0.031 -85.498 0.998 1.781 0.998 1.781 0.031 -85.498
2171.458 0.03 -85.452 0.998 1.704 0.998 1.704 0.03 -85.452
2196.417 0.028 -85.395 0.998 1.627 0.998 1.627 0.028 -85.395
2221.375 0.027 -85.326 0.998 1.552 0.998 1.552 0.027 -85.326
2246.333 0.026 -85.244 0.998 1.478 0.998 1.478 0.026 -85.244
2271.292 0.025 -85.147 0.998 1.405 0.998 1.405 0.025 -85.147
2296.25 0.023 -85.033 0.998 1.333 0.998 1.333 0.023 -85.033
2321.208 0.022 -84.899 0.998 1.262 0.998 1.262 0.022 -84.899
2346.167 0.021 -84.744 0.998 1.191 0.998 1.191 0.021 -84.744
2371.125 0.02 -84.563 0.998 1.122 0.998 1.122 0.02 -84.563
2396.083 0.018 -84.351 0.998 1.053 0.998 1.053 0.018 -84.351
2421.042 0.017 -84.105 0.998 0.986 0.998 0.986 0.017 -84.105
2446 0.016 -83.816 0.998 0.919 0.998 0.919 0.016 -83.816
2470.958 0.015 -83.476 0.998 0.853 0.998 0.853 0.015 -83.476
2495.917 0.014 -83.073 0.998 0.787 0.998 0.787 0.014 -83.073
2520.875 0.013 -82.592 0.998 0.722 0.998 0.722 0.013 -82.592
2545.833 0.012 -82.013 0.998 0.658 0.998 0.658 0.012 -82.013
2570.792 0.01 -81.306 0.998 0.595 0.998 0.595 0.01 -81.306
2595.75 9.408e-3 -80.43 0.998 0.532 0.998 0.532 9.408e-3 -80.43
2620.708 8.341e-3 -79.324 0.998 0.47 0.998 0.47 8.341e-3 -79.324
2645.667 7.29e-3 -77.894 0.998 0.409 0.998 0.409 7.29e-3 -77.894
2670.625 6.255e-3 -75.984 0.999 0.348 0.999 0.348 6.255e-3 -75.984
2695.583 5.24e-3 -73.33 0.999 0.288 0.999 0.288 5.24e-3 -73.33
2720.542 4.252e-3 -69.433 0.999 0.228 0.999 0.228 4.252e-3 -69.433
2745.5 3.306e-3 -63.273 0.999 0.169 0.999 0.169 3.306e-3 -63.273
2770.458 2.436e-3 -52.532 0.999 0.111 0.999 0.111 2.436e-3 -52.532
2795.417 1.743e-3 -31.977 0.999 0.053 0.999 0.053 1.743e-3 -31.977
2820.375 1.48e-3 3.009 0.999 -4.458e-3 0.999 -4.458e-3 1.48e-3 3.009
2845.333 1.825e-3 35.878 0.999 -0.061 0.999 -0.061 1.825e-3 35.878
2870.292 2.532e-3 54.177 0.999 -0.118 0.999 -0.118 2.532e-3 54.177
2895.25 3.374e-3 63.847 0.999 -0.174 0.999 -0.174 3.374e-3 63.847
2920.208 4.266e-3 69.499 0.999 -0.229 0.999 -0.229 4.266e-3 69.499
2945.167 5.177e-3 73.129 0.999 -0.284 0.999 -0.284 5.177e-3 73.129
2970.125 6.096e-3 75.632 0.999 -0.339 0.999 -0.339 6.096e-3 75.632
2995.083 7.017e-3 77.449 0.998 -0.393 0.998 -0.393 7.017e-3 77.449
3020.042 7.936e-3 78.821 0.998 -0.447 0.998 -0.447 7.936e-3 78.821
3045 8.852e-3 79.889 0.998 -0.5 0.998 -0.5 8.852e-3 79.889
3069.958 9.764e-3 80.741 0.998 -0.553 0.998 -0.553 9.764e-3 80.741
3094.917 0.011 81.434 0.998 -0.606 0.998 -0.606 0.011 81.434
3119.875 0.012 82.006 0.998 -0.658 0.998 -0.658 0.012 82.006
3144.833 0.012 82.484 0.998 -0.709 0.998 -0.709 0.012 82.484
3169.792 0.013 82.889 0.998 -0.761 0.998 -0.761 0.013 82.889
3194.75 0.014 83.234 0.998 -0.812 0.998 -0.812 0.014 83.234
3219.708 0.015 83.531 0.998 -0.863 0.998 -0.863 0.015 83.531
3244.667 0.016 83.788 0.998 -0.913 0.998 -0.913 0.016 83.788
3269.625 0.017 84.012 0.998 -0.963 0.998 -0.963 0.017 84.012
3294.583 0.018 84.208 0.998 -1.013 0.998 -1.013 0.018 84.208
3319.542 0.019 84.38 0.998 -1.062 0.998 -1.062 0.019 84.38
3344.5 0.019 84.531 0.998 -1.111 0.998 -1.111 0.019 84.531
3369.458 0.02 84.665 0.998 -1.16 0.998 -1.16 0.02 84.665
3394.417 0.021 84.783 0.998 -1.208 0.998 -1.208 0.021 84.783
3419.375 0.022 84.888 0.998 -1.256 0.998 -1.256 0.022 84.888
3444.333 0.023 84.982 0.998 -1.304 0.998 -1.304 0.023 84.982
3469.292 0.024 85.065 0.998 -1.352 0.998 -1.352 0.024 85.065
3494.25 0.024 85.138 0.998 -1.399 0.998 -1.399 0.024 85.138
3519.208 0.025 85.204 0.998 -1.446 0.998 -1.446 0.025 85.204
3544.167 0.026 85.262 0.998 -1.493 0.998 -1.493 0.026 85.262
3569.125 0.027 85.313 0.998 -1.54 0.998 -1.54 0.027 85.313
3594.083 0.028 85.358 0.998 -1.586 0.998 -1.586 0.028 85.358
3619.042 0.029 85.399 0.998 -1.632 0.998 -1.632 0.029 85.399
3644 0.029 85.434 0.998 -1.678 0.998 -1.678 0.029 85.434
3668.958 0.03 85.464 0.998 -1.723 0.998 -1.723 0.03 85.464
3693.917 0.031 85.491 0.998 -1.769 0.998 -1.769 0.031 85.491
3718.875 0.032 85.514 0.998 -1.814 0.998 -1.814 0.032 85.514
3743.833 0.032 85.534 0.998 -1.859 0.998 -1.859 0.032 85.534
3768.792 0.033 85.55 0.998 -1.903 0.998 -1.903 0.033 85.55
3793.75 0.034 85.564 0.998 -1.948 0.998 -1.948 0.034 85.564
3818.708 0.035 85.575 0.998 -1.992 0.998 -1.992 0.035 85.575
3843.667 0.036 85.583 0.998 -2.036 0.998 -2.036 0.036 85.583
3868.625 0.036 85.59 0.998 -2.08 0.998 -2.08 0.036 85.59
3893.583 0.037 85.594 0.998 -2.124 0.998 -2.124 0.037 85.594
3918.542 0.038 85.596 0.998 -2.167 0.998 -2.167 0.038 85.596
3943.5 0.039 85.597 0.998 -2.21 0.998 -2.21 0.039 85.597
3968.458 0.039 85.596 0.998 -2.253 0.998 -2.253 0.039 85.596
3993.417 0.04 85.593 0.998 -2.296 0.998 -2.296 0.04 85.593
4018.375 0.041 85.589 0.998 -2.339 0.998 -2.339 0.041 85.589
4043.333 0.042 85.583 0.998 -2.381 0.998 -2.381 0.042 85.583
4068.292 0.042 85.576 0.998 -2.424 0.998 -2.424 0.042 85.576
4093.25 0.043 85.569 0.998 -2.466 0.998 -2.466 0.043 85.569
4118.208 0.044 85.559 0.998 -2.508 0.998 -2.508 0.044 85.559
4143.167 0.045 85.549 0.998 -2.55 0.998 -2.55 0.045 85.549
4168.125 0.045 85.538 0.998 -2.591 0.998 -2.591 0.045 85.538
4193.083 0.046 85.526 0.997 -2.633 0.997 -2.633 0.046 85.526
4218.042 0.047 85.513 0.997 -2.674 0.997 -2.674 0.047 85.513
4243 0.047 85.5 0.997 -2.716 0.997 -2.716 0.047 85.5
4267.958 0.048 85.485 0.997 -2.757 0.997 -2.757 0.048 85.485
4292.917 0.049 85.47 0.997 -2.798 0.997 -2.798 0.049 85.47
4317.875 0.05 85.454 0.997 -2.838 0.997 -2.838 0.05 85.454
4342.833 0.05 85.438 0.997 -2.879 0.997 -2.879 0.05 85.438
4367.792 0.051 85.421 0.997 -2.919 0.997 -2.919 0.051 85.421
4392.75 0.052 85.403 0.997 -2.96 0.997 -2.96 0.052 85.403
4417.708 0.052 85.385 0.997 -3 0.997 -3 0.052 85.385
4442.667 0.053 85.366 0.997 -3.04 0.997 -3.04 0.053 85.366
4467.625 0.054 85.347 0.997 -3.08 0.997 -3.08 0.054 85.347
4492.583 0.054 85.327 0.997 -3.12 0.997 -3.12 0.054 85.327
4517.542 0.055 85.307 0.997 -3.16 0.997 -3.16 0.055 85.307
4542.5 0.056 85.286 0.997 -3.199 0.997 -3.199 0.056 85.286
4567.458 0.057 85.265 0.997 -3.239 0.997 -3.239 0.057 85.265
4592.417 0.057 85.244 0.997 -3.278 0.997 -3.278 0.057 85.244
4617.375 0.058 85.222 0.997 -3.317 0.997 -3.317 0.058 85.222
4642.333 0.059 85.2 0.997 -3.356 0.997 -3.356 0.059 85.2
4667.292 0.059 85.178 0.997 -3.395 0.997 -3.395 0.059 85.178
4692.25 0.06 85.155 0.997 -3.434 0.997 -3.434 0.06 85.155
4717.208 0.061 85.132 0.997 -3.473 0.997 -3.473 0.061 85.132
4742.167 0.061 85.109 0.997 -3.511 0.997 -3.511 0.061 85.109
4767.125 0.062 85.085 0.997 -3.55 0.997 -3.55 0.062 85.085
4792.083 0.063 85.062 0.997 -3.588 0.997 -3.588 0.063 85.062
4817.042 0.063 85.038 0.997 -3.627 0.997 -3.627 0.063 85.038
4842 0.064 85.013 0.996 -3.665 0.996 -3.665 0.064 85.013
4866.958 0.065 84.989 0.996 -3.703 0.996 -3.703 0.065 84.989
4891.917 0.065 84.964 0.996 -3.741 0.996 -3.741 0.065 84.964
4916.875 0.066 84.939 0.996 -3.779 0.996 -3.779 0.066 84.939
4941.833 0.067 84.914 0.996 -3.816 0.996 -3.816 0.067 84.914
4966.792 0.067 84.889 0.996 -3.854 0.996 -3.854 0.067 84.889
4991.75 0.068 84.864 0.996 -3.892 0.996 -3.892 0.068 84.864
5016.708 0.069 84.838 0.996 -3.929 0.996 -3.929 0.069 84.838
5041.667 0.069 84.812 0.996 -3.967 0.996 -3.967 0.069 84.812
5066.625 0.07 84.786 0.996 -4.004 0.996 -4.004 0.07 84.786
5091.583 0.07 84.76 0.996 -4.041 0.996 -4.041 0.07 84.76
5116.542 0.071 84.734 0.996 -4.078 0.996 -4.078 0.071 84.734
5141.5 0.072 84.708 0.996 -4.115 0.996 -4.115 0.072 84.708
5166.458 0.072 84.681 0.996 -4.152 0.996 -4.152 0.072 84.681
5191.417 0.073 84.655 0.996 -4.189 0.996 -4.189 0.073 84.655
5216.375 0.074 84.628 0.996 -4.226 0.996 -4.226 0.074 84.628
5241.333 0.074 84.601 0.996 -4.263 0.996 -4.263 0.074 84.601
5266.292 0.075 84.574 0.996 -4.299 0.996 -4.299 0.075 84.574
5291.25 0.076 84.547 0.996 -4.336 0.996 -4.336 0.076 84.547
5316.208 0.076 84.52 0.996 -4.373 0.996 -4.373 0.076 84.52
5341.167 0.077 84.493 0.996 -4.409 0.996 -4.409 0.077 84.493
5366.125 0.078 84.466 0.996 -4.445 0.996 -4.445 0.078 84.466
5391.083 0.078 84.438 0.995 -4.481 0.995 -4.481 0.078 84.438
5416.042 0.079 84.411 0.995 -4.518 0.995 -4.518 0.079 84.411
5441 0.079 84.383 0.995 -4.554 0.995 -4.554 0.079 84.383
5465.958 0.08 84.356 0.995 -4.59 0.995 -4.59 0.08 84.356
5490.917 0.081 84.328 0.995 -4.626 0.995 -4.626 0.081 84.328
5515.875 0.081 84.3 0.995 -4.662 0.995 -4.662 0.081 84.3
5540.833 0.082 84.272 0.995 -4.697 0.995 -4.697 0.082 84.272
5565.792 0.083 84.244 0.995 -4.733 0.995 -4.733 0.083 84.244
5590.75 0.083 84.216 0.995 -4.769 0.995 -4.769 0.083 84.216
5615.708 0.084 84.188 0.995 -4.804 0.995 -4.804 0.084 84.188
5640.667 0.084 84.16 0.995 -4.84 0.995 -4.84 0.084 84.16
5665.625 0.085 84.132 0.995 -4.875 0.995 -4.875 0.085 84.132
5690.583 0.086 84.104 0.995 -4.911 0.995 -4.911 0.086 84.104
5715.542 0.086 84.075 0.995 -4.946 0.995 -4.946 0.086 84.075
5740.5 0.087 84.047 0.995 -4.981 0.995 -4.981 0.087 84.047
5765.458 0.087 84.019 0.995 -5.017 0.995 -5.017 0.087 84.019
5790.417 0.088 83.99 0.995 -5.052 0.995 -5.052 0.088 83.99
5815.375 0.089 83.962 0.995 -5.087 0.995 -5.087 0.089 83.962
5840.333 0.089 83.933 0.995 -5.122 0.995 -5.122 0.089 83.933
5865.292 0.09 83.905 0.994 -5.157 0.994 -5.157 0.09 83.905
5890.25 0.091 83.876 0.994 -5.192 0.994 -5.192 0.091 83.876
5915.208 0.091 83.848 0.994 -5.227 0.994 -5.227 0.091 83.848
5940.167 0.092 83.819 0.994 -5.261 0.994 -5.261 0.092 83.819
5965.125 0.092 83.791 0.994 -5.296 0.994 -5.296 0.092 83.791
5990.083 0.093 83.762 0.994 -5.331 0.994 -5.331 0.093 83.762
6015.042 0.094 83.733 0.994 -5.365 0.994 -5.365 0.094 83.733
6040 0.094 83.704 0.994 -5.4 0.994 -5.4 0.094 83.704
6064.958 0.095 83.676 0.994 -5.434 0.994 -5.434 0.095 83.676
6089.917 0.095 83.647 0.994 -5.469 0.994 -5.469 0.095 83.647
6114.875 0.096 83.618 0.994 -5.503 0.994 -5.503 0.096 83.618
6139.833 0.097 83.589 0.994 -5.538 0.994 -5.538 0.097 83.589
6164.792 0.097 83.56 0.994 -5.572 0.994 -5.572 0.097 83.56
6189.75 0.098 83.531 0.994 -5.606 0.994 -5.606 0.098 83.531
6214.708 0.098 83.502 0.994 -5.64 0.994 -5.64 0.098 83.502
6239.667 0.099 83.473 0.994 -5.674 0.994 -5.674 0.099 83.473
6264.625 0.099 83.444 0.994 -5.709 0.994 -5.709 0.099 83.444
6289.583 0.1 83.415 0.994 -5.743 0.994 -5.743 0.1 83.415
6314.542 0.101 83.386 0.993 -5.777 0.993 -5.777 0.101 83.386
6339.5 0.101 83.357 0.993 -5.81 0.993 -5.81 0.101 83.357
6364.458 0.102 83.328 0.993 -5.844 0.993 -5.844 0.102 83.328
6389.417 0.102 83.299 0.993 -5.878 0.993 -5.878 0.102 83.299
6414.375 0.103 83.27 0.993 -5.912 0.993 -5.912 0.103 83.27
6439.333 0.104 83.241 0.993 -5.946 0.993 -5.946 0.104 83.241
6464.292 0.104 83.212 0.993 -5.979 0.993 -5.979 0.104 83.212
6489.25 0.105 83.183 0.993 -6.013 0.993 -6.013 0.105 83.183
6514.208 0.105 83.154 0.993 -6.047 0.993 -6.047 0.105 83.154
6539.167 0.106 83.125 0.993 -6.08 0.993 -6.08 0.106 83.125
6564.125 0.107 83.096 0.993 -6.114 0.993 -6.114 0.107 83.096
6589.083 0.107 83.067 0.993 -6.147 0.993 -6.147 0.107 83.067
6614.042 0.108 83.037 0.993 -6.181 0.993 -6.181 0.108 83.037
6639 0.108 83.008 0.993 -6.214 0.993 -6.214 0.108 83.008
6663.958 0.109 82.979 0.993 -6.247 0.993 -6.247 0.109 82.979
6688.917 0.109 82.95 0.993 -6.281 0.993 -6.281 0.109 82.95
6713.875 0.11 82.921 0.992 -6.314 0.992 -6.314 0.11 82.921
6738.833 0.111 82.892 0.992 -6.347 0.992 -6.347 0.111 82.892
6763.792 0.111 82.862 0.992 -6.38 0.992 -6.38 0.111 82.862
6788.75 0.112 82.833 0.992 -6.414 0.992 -6.414 0.112 82.833
6813.708 0.112 82.804 0.992 -6.447 0.992 -6.447 0.112 82.804
6838.667 0.113 82.775 0.992 -6.48 0.992 -6.48 0.113 82.775
6863.625 0.113 82.746 0.992 -6.513 0.992 -6.513 0.113 82.746
6888.583 0.114 82.716 0.992 -6.546 0.992 -6.546 0.114 82.716
6913.542 0.115 82.687 0.992 -6.579 0.992 -6.579 0.115 82.687
6938.5 0.115 82.658 0.992 -6.612 0.992 -6.612 0.115 82.658
6963.458 0.116 82.629 0.992 -6.644 0.992 -6.644 0.116 82.629
6988.417 0.116 82.599 0.992 -6.677 0.992 -6.677 0.116 82.599
7013.375 0.117 82.57 0.992 -6.71 0.992 -6.71 0.117 82.57
7038.333 0.117 82.541 0.992 -6.743 0.992 -6.743 0.117 82.541
7063.292 0.118 82.512 0.992 -6.776 0.992 -6.776 0.118 82.512
7088.25 0.119 82.483 0.991 -6.808 0.991 -6.808 0.119 82.483
7113.208 0.119 82.453 0.991 -6.841 0.991 -6.841 0.119 82.453
7138.167 0.12 82.424 0.991 -6.873 0.991 -6.873 0.12 82.424
7163.125 0.12 82.395 0.991 -6.906 0.991 -6.906 0.12 82.395
7188.083 0.121 82.366 0.991 -6.939 0.991 -6.939 0.121 82.366
7213.042 0.121 82.336 0.991 -6.971 0.991 -6.971 0.121 82.336
7238 0.122 82.307 0.991 -7.004 0.991 -7.004 0.122 82.307
7262.958 0.123 82.278 0.991 -7.036 0.991 -7.036 0.123 82.278
7287.917 0.123 82.249 0.991 -7.068 0.991 -7.068 0.123 82.249
7312.875 0.124 82.219 0.991 -7.101 0.991 -7.101 0.124 82.219
7337.833 0.124 82.19 0.991 -7.133 0.991 -7.133 0.124 82.19
7362.792 0.125 82.161 0.991 -7.165 0.991 -7.165 0.125 82.161
7387.75 0.125 82.132 0.991 -7.198 0.991 -7.198 0.125 82.132
7412.708 0.126 82.103 0.991 -7.23 0.991 -7.23 0.126 82.103
7437.667 0.126 82.073 0.991 -7.262 0.991 -7.262 0.126 82.073
7462.625 0.127 82.044 0.99 -7.294 0.99 -7.294 0.127 82.044
7487.583 0.128 82.015 0.99 -7.327 0.99 -7.327 0.128 82.015
7512.542 0.128 81.986 0.99 -7.359 0.99 -7.359 0.128 81.986
7537.5 0.129 81.956 0.99 -7.391 0.99 -7.391 0.129 81.956
7562.458 0.129 81.927 0.99 -7.423 0.99 -7.423 0.129 81.927
7587.417 0.13 81.898 0.99 -7.455 0.99 -7.455 0.13 81.898
7612.375 0.13 81.869 0.99 -7.487 0.99 -7.487 0.13 81.869
7637.333 0.131 81.84 0.99 -7.519 0.99 -7.519 0.131 81.84
7662.292 0.131 81.81 0.99 -7.551 0.99 -7.551 0.131 81.81
7687.25 0.132 81.781 0.99 -7.583 0.99 -7.583 0.132 81.781
7712.208 0.133 81.752 0.99 -7.614 0.99 -7.614 0.133 81.752
7737.167 0.133 81.723 0.99 -7.646 0.99 -7.646 0.133 81.723
7762.125 0.134 81.694 0.99 -7.678 0.99 -7.678 0.134 81.694
7787.083 0.134 81.665 0.989 -7.71 0.989 -7.71 0.134 81.665
7812.042 0.135 81.635 0.989 -7.742 0.989 -7.742 0.135 81.635
7837 0.135 81.606 0.989 -7.773 0.989 -7.773 0.135 81.606
7861.958 0.136 81.577 0.989 -7.805 0.989 -7.805 0.136 81.577
7886.917 0.136 81.548 0.989 -7.837 0.989 -7.837 0.136 81.548
7911.875 0.137 81.519 0.989 -7.868 0.989 -7.868 0.137 81.519
7936.833 0.137 81.49 0.989 -7.9 0.989 -7.9 0.137 81.49
7961.792 0.138 81.461 0.989 -7.932 0.989 -7.932 0.138 81.461
7986.75 0.139 81.431 0.989 -7.963 0.989 -7.963 0.139 81.431
8011.708 0.139 81.402 0.989 -7.995 0.989 -7.995 0.139 81.402
8036.667 0.14 81.373 0.989 -8.026 0.989 -8.026 0.14 81.373
8061.625 0.14 81.344 0.989 -8.058 0.989 -8.058 0.14 81.344
8086.583 0.141 81.315 0.989 -8.089 0.989 -8.089 0.141 81.315
8111.542 0.141 81.286 0.989 -8.121 0.989 -8.121 0.141 81.286
8136.5 0.142 81.257 0.988 -8.152 0.988 -8.152 0.142 81.257
8161.458 0.142 81.228 0.988 -8.183 0.988 -8.183 0.142 81.228
8186.417 0.143 81.199 0.988 -8.215 0.988 -8.215 0.143 81.199
8211.375 0.143 81.17 0.988 -8.246 0.988 -8.246 0.143 81.17
8236.333 0.144 81.14 0.988 -8.277 0.988 -8.277 0.144 81.14
8261.292 0.145 81.111 0.988 -8.309 0.988 -8.309 0.145 81.111
8286.25 0.145 81.082 0.988 -8.34 0.988 -8.34 0.145 81.082
8311.208 0.146 81.053 0.988 -8.371 0.988 -8.371 0.146 81.053
8336.167 0.146 81.024 0.988 -8.402 0.988 -8.402 0.146 81.024
8361.125 0.147 80.995 0.988 -8.434 0.988 -8.434 0.147 80.995
8386.083 0.147 80.966 0.988 -8.465 0.988 -8.465 0.147 80.966
8411.042 0.148 80.937 0.988 -8.496 0.988 -8.496 0.148 80.937
8436 0.148 80.908 0.987 -8.527 0.987 -8.527 0.148 80.908
8460.958 0.149 80.879 0.987 -8.558 0.987 -8.558 0.149 80.879
8485.917 0.149 80.85 0.987 -8.589 0.987 -8.589 0.149 80.85
8510.875 0.15 80.821 0.987 -8.62 0.987 -8.62 0.15 80.821
8535.833 0.15 80.792 0.987 -8.651 0.987 -8.651 0.15 80.792
8560.792 0.151 80.763 0.987 -8.682 0.987 -8.682 0.151 80.763
8585.75 0.151 80.734 0.987 -8.713 0.987 -8.713 0.151 80.734
8610.708 0.152 80.705 0.987 -8.744 0.987 -8.744 0.152 80.705
8635.667 0.153 80.676 0.987 -8.775 0.987 -8.775 0.153 80.676
8660.625 0.153 80.647 0.987 -8.806 0.987 -8.806 0.153 80.647
8685.583 0.154 80.618 0.987 -8.837 0.987 -8.837 0.154 80.618
8710.542 0.154 80.589 0.987 -8.868 0.987 -8.868 0.154 80.589
8735.5 0.155 80.561 0.987 -8.899 0.987 -8.899 0.155 80.561
8760.458 0.155 80.532 0.986 -8.929 0.986 -8.929 0.155 80.532
8785.417 0.156 80.503 0.986 -8.96 0.986 -8.96 0.156 80.503
8810.375 0.156 80.474 0.986 -8.991 0.986 -8.991 0.156 80.474
8835.333 0.157 80.445 0.986 -9.022 0.986 -9.022 0.157 80.445
8860.292 0.157 80.416 0.986 -9.053 0.986 -9.053 0.157 80.416
8885.25 0.158 80.387 0.986 -9.083 0.986 -9.083 0.158 80.387
8910.208 0.158 80.358 0.986 -9.114 0.986 -9.114 0.158 80.358
8935.167 0.159 80.329 0.986 -9.145 0.986 -9.145 0.159 80.329
8960.125 0.159 80.3 0.986 -9.175 0.986 -9.175 0.159 80.3
8985.083 0.16 80.272 0.986 -9.206 0.986 -9.206 0.16 80.272
9010.042 0.161 80.243 0.986 -9.236 0.986 -9.236 0.161 80.243
9035 0.161 80.214 0.985 -9.267 0.985 -9.267 0.161 80.214
9059.958 0.162 80.185 0.985 -9.298 0.985 -9.298 0.162 80.185
9084.917 0.162 80.156 0.985 -9.328 0.985 -9.328 0.162 80.156
9109.875 0.163 80.127 0.985 -9.359 0.985 -9.359 0.163 80.127
9134.833 0.163 80.099 0.985 -9.389 0.985 -9.389 0.163 80.099
9159.792 0.164 80.07 0.985 -9.42 0.985 -9.42 0.164 80.07
9184.75 0.164 80.041 0.985 -9.45 0.985 -9.45 0.164 80.041
9209.708 0.165 80.012 0.985 -9.481 0.985 -9.481 0.165 80.012
9234.667 0.165 79.984 0.985 -9.511 0.985 -9.511 0.165 79.984
9259.625 0.166 79.955 0.985 -9.541 0.985 -9.541 0.166 79.955
9284.583 0.166 79.926 0.985 -9.572 0.985 -9.572 0.166 79.926
9309.542 0.167 79.897 0.985 -9.602 0.985 -9.602 0.167 79.897
9334.5 0.167 79.868 0.984 -9.633 0.984 -9.633 0.167 79.868
9359.458 0.168 79.84 0.984 -9.663 0.984 -9.663 0.168 79.84
9384.417 0.168 79.811 0.984 -9.693 0.984 -9.693 0.168 79.811
9409.375 0.169 79.782 0.984 -9.724 0.984 -9.724 0.169 79.782
9434.333 0.169 79.754 0.984 -9.754 0.984 -9.754 0.169 79.754
9459.292 0.17 79.725 0.984 -9.784 0.984 -9.784 0.17 79.725
9484.25 0.17 79.696 0.984 -9.814 0.984 -9.814 0.17 79.696
9509.208 0.171 79.667 0.984 -9.845 0.984 -9.845 0.171 79.667
9534.167 0.172 79.639 0.984 -9.875 0.984 -9.875 0.172 79.639
9559.125 0.172 79.61 0.984 -9.905 0.984 -9.905 0.172 79.61
9584.083 0.173 79.581 0.984 -9.935 0.984 -9.935 0.173 79.581
9609.042 0.173 79.553 0.983 -9.965 0.983 -9.965 0.173 79.553
9634 0.174 79.524 0.983 -9.995 0.983 -9.995 0.174 79.524
9658.958 0.174 79.496 0.983 -10.025 0.983 -10.025 0.174 79.496
9683.917 0.175 79.467 0.983 -10.056 0.983 -10.056 0.175 79.467
9708.875 0.175 79.438 0.983 -10.086 0.983 -10.086 0.175 79.438
9733.833 0.176 79.41 0.983 -10.116 0.983 -10.116 0.176 79.41
9758.792 0.176 79.381 0.983 -10.146 0.983 -10.146 0.176 79.381
9783.75 0.177 79.352 0.983 -10.176 0.983 -10.176 0.177 79.352
9808.708 0.177 79.324 0.983 -10.206 0.983 -10.206 0.177 79.324
9833.667 0.178 79.295 0.983 -10.236 0.983 -10.236 0.178 79.295
9858.625 0.178 79.267 0.983 -10.266 0.983 -10.266 0.178 79.267
9883.583 0.179 79.238 0.982 -10.296 0.982 -10.296 0.179 79.238
9908.542 0.179 79.21 0.982 -10.326 0.982 -10.326 0.179 79.21
9933.5 0.18 79.181 0.982 -10.356 0.982 -10.356 0.18 79.181
9958.458 0.18 79.152 0.982 -10.385 0.982 -10.385 0.18 79.152
9983.417 0.181 79.124 0.982 -10.415 0.982 -10.415 0.181 79.124
10008.375 0.181 79.095 0.982 -10.445 0.982 -10.445 0.181 79.095
10033.333 0.182 79.067 0.982 -10.475 0.982 -10.475 0.182 79.067
10058.292 0.182 79.038 0.982 -10.505 0.982 -10.505 0.182 79.038
10083.25 0.183 79.01 0.982 -10.535 0.982 -10.535 0.183 79.01
10108.208 0.183 78.981 0.982 -10.565 0.982 -10.565 0.183 78.981
10133.167 0.184 78.953 0.982 -10.594 0.982 -10.594 0.184 78.953
10158.125 0.184 78.924 0.981 -10.624 0.981 -10.624 0.184 78.924
10183.083 0.185 78.896 0.981 -10.654 0.981 -10.654 0.185 78.896
10208.042 0.185 78.868 0.981 -10.684 0.981 -10.684 0.185 78.868
10233 0.186 78.839 0.981 -10.713 0.981 -10.713 0.186 78.839
10257.958 0.186 78.811 0.981 -10.743 0.981 -10.743 0.186 78.811
10282.917 0.187 78.782 0.981 -10.773 0.981 -10.773 0.187 78.782
10307.875 0.187 78.754 0.981 -10.802 0.981 -10.802 0.187 78.754
10332.833 0.188 78.725 0.981 -10.832 0.981 -10.832 0.188 78.725
10357.792 0.188 78.697 0.981 -10.862 0.981 -10.862 0.188 78.697
10382.75 0.189 78.669 0.981 -10.891 0.981 -10.891 0.189 78.669
10407.708 0.189 78.64 0.98 -10.921 0.98 -10.921 0.189 78.64
10432.667 0.19 78.612 0.98 -10.951 0.98 -10.951 0.19 78.612
10457.625 0.19 78.583 0.98 -10.98 0.98 -10.98 0.19 78.583
10482.583 0.191 78.555 0.98 -11.01 0.98 -11.01 0.191 78.555
10507.542 0.191 78.527 0.98 -11.039 0.98 -11.039 0.191 78.527
10532.5 0.192 78.498 0.98 -11.069 0.98 -11.069 0.192 78.498
10557.458 0.192 78.47 0.98 -11.098 0.98 -11.098 0.192 78.47
10582.417 0.193 78.442 0.98 -11.128 0.98 -11.128 0.193 78.442
10607.375 0.194 78.413 0.98 -11.157 0.98 -11.157 0.194 78.413
10632.333 0.194 78.385 0.98 -11.187 0.98 -11.187 0.194 78.385
10657.292 0.195 78.357 0.979 -11.216 0.979 -11.216 0.195 78.357
10682.25 0.195 78.328 0.979 -11.246 0.979 -11.246 0.195 78.328
10707.208 0.196 78.3 0.979 -11.275 0.979 -11.275 0.196 78.3
10732.167 0.196 78.272 0.979 -11.305 0.979 -11.305 0.196 78.272
10757.125 0.197 78.244 0.979 -11.334 0.979 -11.334 0.197 78.244
10782.083 0.197 78.215 0.979 -11.363 0.979 -11.363 0.197 78.215
10807.042 0.198 78.187 0.979 -11.393 0.979 -11.393 0.198 78.187
10832 0.198 78.159 0.979 -11.422 0.979 -11.422 0.198 78.159
10856.958 0.199 78.131 0.979 -11.451 0.979 -11.451 0.199 78.131
10881.917 0.199 78.102 0.979 -11.481 0.979 -11.481 0.199 78.102
10906.875 0.2 78.074 0.978 -11.51 0.978 -11.51 0.2 78.074
10931.833 0.2 78.046 0.978 -11.539 0.978 -11.539 0.2 78.046
10956.792 0.201 78.018 0.978 -11.569 0.978 -11.569 0.201 78.018
10981.75 0.201 77.99 0.978 -11.598 0.978 -11.598 0.201 77.99
11006.708 0.202 77.961 0.978 -11.627 0.978 -11.627 0.202 77.961
11031.667 0.202 77.933 0.978 -11.656 0.978 -11.656 0.202 77.933
11056.625 0.203 77.905 0.978 -11.686 0.978 -11.686 0.203 77.905
11081.583 0.203 77.877 0.978 -11.715 0.978 -11.715 0.203 77.877
11106.542 0.204 77.849 0.978 -11.744 0.978 -11.744 0.204 77.849
11131.5 0.204 77.821 0.978 -11.773 0.978 -11.773 0.204 77.821
11156.458 0.205 77.792 0.977 -11.802 0.977 -11.802 0.205 77.792
11181.417 0.205 77.764 0.977 -11.831 0.977 -11.831 0.205 77.764
11206.375 0.206 77.736 0.977 -11.861 0.977 -11.861 0.206 77.736
11231.333 0.206 77.708 0.977 -11.89 0.977 -11.89 0.206 77.708
11256.292 0.207 77.68 0.977 -11.919 0.977 -11.919 0.207 77.68
11281.25 0.207 77.652 0.977 -11.948 0.977 -11.948 0.207 77.652
11306.208 0.208 77.624 0.977 -11.977 0.977 -11.977 0.208 77.624
11331.167 0.208 77.596 0.977 -12.006 0.977 -12.006 0.208 77.596
11356.125 0.209 77.568 0.977 -12.035 0.977 -12.035 0.209 77.568
11381.083 0.209 77.54 0.976 -12.064 0.976 -12.064 0.209 77.54
11406.042 0.21 77.512 0.976 -12.093 0.976 -12.093 0.21 77.512
11431 0.21 77.483 0.976 -12.122 0.976 -12.122 0.21 77.483
11455.958 0.21 77.455 0.976 -12.151 0.976 -12.151 0.21 77.455
11480.917 0.211 77.427 0.976 -12.18 0.976 -12.18 0.211 77.427
11505.875 0.211 77.399 0.976 -12.209 0.976 -12.209 0.211 77.399
11530.833 0.212 77.371 0.976 -12.238 0.976 -12.238 0.212 77.371
11555.792 0.212 77.343 0.976 -12.267 0.976 -12.267 0.212 77.343
11580.75 0.213 77.315 0.976 -12.296 0.976 -12.296 0.213 77.315
11605.708 0.213 77.287 0.976 -12.325 0.976 -12.325 0.213 77.287
11630.667 0.214 77.259 0.975 -12.354 0.975 -12.354 0.214 77.259
11655.625 0.214 77.231 0.975 -12.383 0.975 -12.383 0.214 77.231
11680.583 0.215 77.204 0.975 -12.412 0.975 -12.412 0.215 77.204
11705.542 0.215 77.176 0.975 -12.441 0.975 -12.441 0.215 77.176
11730.5 0.216 77.148 0.975 -12.469 0.975 -12.469 0.216 77.148
11755.458 0.216 77.12 0.975 -12.498 0.975 -12.498 0.216 77.12
11780.417 0.217 77.092 0.975 -12.527 0.975 -12.527 0.217 77.092
11805.375 0.217 77.064 0.975 -12.556 0.975 -12.556 0.217 77.064
11830.333 0.218 77.036 0.975 -12.585 0.975 -12.585 0.218 77.036
11855.292 0.218 77.008 0.974 -12.613 0.974 -12.613 0.218 77.008
11880.25 0.219 76.98 0.974 -12.642 0.974 -12.642 0.219 76.98
11905.208 0.219 76.952 0.974 -12.671 0.974 -12.671 0.219 76.952
11930.167 0.22 76.924 0.974 -12.7 0.974 -12.7 0.22 76.924
11955.125 0.22 76.897 0.974 -12.729 0.974 -12.729 0.22 76.897
11980.083 0.221 76.869 0.974 -12.757 0.974 -12.757 0.221 76.869
12005.042 0.221 76.841 0.974 -12.786 0.974 -12.786 0.221 76.841
12030 0.222 76.813 0.974 -12.815 0.974 -12.815 0.222 76.813
12054.958 0.222 76.785 0.974 -12.843 0.974 -12.843 0.222 76.785
12079.917 0.223 76.757 0.973 -12.872 0.973 -12.872 0.223 76.757
12104.875 0.223 76.73 0.973 -12.901 0.973 -12.901 0.223 76.73
12129.833 0.224 76.702 0.973 -12.929 0.973 -12.929 0.224 76.702
12154.792 0.224 76.674 0.973 -12.958 0.973 -12.958 0.224 76.674
12179.75 0.225 76.646 0.973 -12.987 0.973 -12.987 0.225 76.646
12204.708 0.225 76.618 0.973 -13.015 0.973 -13.015 0.225 76.618
12229.667 0.226 76.591 0.973 -13.044 0.973 -13.044 0.226 76.591
12254.625 0.226 76.563 0.973 -13.072 0.973 -13.072 0.226 76.563
12279.583 0.227 76.535 0.973 -13.101 0.973 -13.101 0.227 76.535
12304.542 0.227 76.507 0.972 -13.13 0.972 -13.13 0.227 76.507
12329.5 0.228 76.48 0.972 -13.158 0.972 -13.158 0.228 76.48
12354.458 0.228 76.452 0.972 -13.187 0.972 -13.187 0.228 76.452
12379.417 0.229 76.424 0.972 -13.215 0.972 -13.215 0.229 76.424
12404.375 0.229 76.397 0.972 -13.244 0.972 -13.244 0.229 76.397
12429.333 0.23 76.369 0.972 -13.272 0.972 -13.272 0.23 76.369
12454.292 0.23 76.341 0.972 -13.301 0.972 -13.301 0.23 76.341
12479.25 0.231 76.313 0.972 -13.329 0.972 -13.329 0.231 76.313
12504.208 0.231 76.286 0.972 -13.358 0.972 -13.358 0.231 76.286
12529.167 0.232 76.258 0.971 -13.386 0.971 -13.386 0.232 76.258
12554.125 0.232 76.23 0.971 -13.414 0.971 -13.414 0.232 76.23
12579.083 0.232 76.203 0.971 -13.443 0.971 -13.443 0.232 76.203
12604.042 0.233 76.175 0.971 -13.471 0.971 -13.471 0.233 76.175
12629 0.233 76.148 0.971 -13.5 0.971 -13.5 0.233 76.148
12653.958 0.234 76.12 0.971 -13.528 0.971 -13.528 0.234 76.12
12678.917 0.234 76.092 0.971 -13.557 0.971 -13.557 0.234 76.092
12703.875 0.235 76.065 0.971 -13.585 0.971 -13.585 0.235 76.065
12728.833 0.235 76.037 0.97 -13.613 0.97 -13.613 0.235 76.037
12753.792 0.236 76.009 0.97 -13.642 0.97 -13.642 0.236 76.009
12778.75 0.236 75.982 0.97 -13.67 0.97 -13.67 0.236 75.982
12803.708 0.237 75.954 0.97 -13.698 0.97 -13.698 0.237 75.954
12828.667 0.237 75.927 0.97 -13.727 0.97 -13.727 0.237 75.927
12853.625 0.238 75.899 0.97 -13.755 0.97 -13.755 0.238 75.899
12878.583 0.238 75.872 0.97 -13.783 0.97 -13.783 0.238 75.872
12903.542 0.239 75.844 0.97 -13.811 0.97 -13.811 0.239 75.844
12928.5 0.239 75.817 0.97 -13.84 0.97 -13.84 0.239 75.817
12953.458 0.24 75.789 0.969 -13.868 0.969 -13.868 0.24 75.789
12978.417 0.24 75.762 0.969 -13.896 0.969 -13.896 0.24 75.762
13003.375 0.241 75.734 0.969 -13.924 0.969 -13.924 0.241 75.734
13028.333 0.241 75.707 0.969 -13.953 0.969 -13.953 0.241 75.707
13053.292 0.242 75.679 0.969 -13.981 0.969 -13.981 0.242 75.679
13078.25 0.242 75.652 0.969 -14.009 0.969 -14.009 0.242 75.652
13103.208 0.243 75.624 0.969 -14.037 0.969 -14.037 0.243 75.624
13128.167 0.243 75.597 0.969 -14.065 0.969 -14.065 0.243 75.597
13153.125 0.244 75.569 0.968 -14.093 0.968 -14.093 0.244 75.569
13178.083 0.244 75.542 0.968 -14.122 0.968 -14.122 0.244 75.542
13203.042 0.244 75.514 0.968 -14.15 0.968 -14.15 0.244 75.514
13228 0.245 75.487 0.968 -14.178 0.968 -14.178 0.245 75.487
13252.958 0.245 75.46 0.968 -14.206 0.968 -14.206 0.245 75.46
13277.917 0.246 75.432 0.968 -14.234 0.968 -14.234 0.246 75.432
13302.875 0.246 75.405 0.968 -14.262 0.968 -14.262 0.246 75.405
13327.833 0.247 75.377 0.968 -14.29 0.968 -14.29 0.247 75.377
13352.792 0.247 75.35 0.968 -14.318 0.968 -14.318 0.247 75.35
13377.75 0.248 75.323 0.967 -14.346 0.967 -14.346 0.248 75.323
13402.708 0.248 75.295 0.967 -14.374 0.967 -14.374 0.248 75.295
13427.667 0.249 75.268 0.967 -14.402 0.967 -14.402 0.249 75.268
13452.625 0.249 75.24 0.967 -14.43 0.967 -14.43 0.249 75.24
13477.583 0.25 75.213 0.967 -14.458 0.967 -14.458 0.25 75.213
13502.542 0.25 75.186 0.967 -14.486 0.967 -14.486 0.25 75.186
13527.5 0.251 75.159 0.967 -14.514 0.967 -14.514 0.251 75.159
13552.458 0.251 75.131 0.967 -14.542 0.967 -14.542 0.251 75.131
13577.417 0.252 75.104 0.966 -14.57 0.966 -14.57 0.252 75.104
13602.375 0.252 75.077 0.966 -14.598 0.966 -14.598 0.252 75.077
13627.333 0.253 75.049 0.966 -14.626 0.966 -14.626 0.253 75.049
13652.292 0.253 75.022 0.966 -14.654 0.966 -14.654 0.253 75.022
13677.25 0.253 74.995 0.966 -14.682 0.966 -14.682 0.253 74.995
13702.208 0.254 74.967 0.966 -14.71 0.966 -14.71 0.254 74.967
13727.167 0.254 74.94 0.966 -14.738 0.966 -14.738 0.254 74.94
13752.125 0.255 74.913 0.966 -14.766 0.966 -14.766 0.255 74.913
13777.083 0.255 74.886 0.965 -14.794 0.965 -14.794 0.255 74.886
13802.042 0.256 74.859 0.965 -14.821 0.965 -14.821 0.256 74.859
13827 0.256 74.831 0.965 -14.849 0.965 -14.849 0.256 74.831
13851.958 0.257 74.804 0.965 -14.877 0.965 -14.877 0.257 74.804
13876.917 0.257 74.777 0.965 -14.905 0.965 -14.905 0.257 74.777
13901.875 0.258 74.75 0.965 -14.933 0.965 -14.933 0.258 74.75
13926.833 0.258 74.723 0.965 -14.961 0.965 -14.961 0.258 74.723
13951.792 0.259 74.695 0.965 -14.988 0.965 -14.988 0.259 74.695
13976.75 0.259 74.668 0.964 -15.016 0.964 -15.016 0.259 74.668
14001.708 0.26 74.641 0.964 -15.044 0.964 -15.044 0.26 74.641
14026.667 0.26 74.614 0.964 -15.072 0.964 -15.072 0.26 74.614
14051.625 0.26 74.587 0.964 -15.099 0.964 -15.099 0.26 74.587
14076.583 0.261 74.56 0.964 -15.127 0.964 -15.127 0.261 74.56
14101.542 0.261 74.532 0.964 -15.155 0.964 -15.155 0.261 74.532
14126.5 0.262 74.505 0.964 -15.183 0.964 -15.183 0.262 74.505
14151.458 0.262 74.478 0.964 -15.21 0.964 -15.21 0.262 74.478
14176.417 0.263 74.451 0.963 -15.238 0.963 -15.238 0.263 74.451
14201.375 0.263 74.424 0.963 -15.266 0.963 -15.266 0.263 74.424
14226.333 0.264 74.397 0.963 -15.293 0.963 -15.293 0.264 74.397
14251.292 0.264 74.37 0.963 -15.321 0.963 -15.321 0.264 74.37
14276.25 0.265 74.343 0.963 -15.349 0.963 -15.349 0.265 74.343
14301.208 0.265 74.316 0.963 -15.376 0.963 -15.376 0.265 74.316
14326.167 0.266 74.289 0.963 -15.404 0.963 -15.404 0.266 74.289
14351.125 0.266 74.262 0.963 -15.431 0.963 -15.431 0.266 74.262
14376.083 0.267 74.235 0.962 -15.459 0.962 -15.459 0.267 74.235
14401.042 0.267 74.208 0.962 -15.487 0.962 -15.487 0.267 74.208
14426 0.267 74.181 0.962 -15.514 0.962 -15.514 0.267 74.181
14450.958 0.268 74.154 0.962 -15.542 0.962 -15.542 0.268 74.154
14475.917 0.268 74.127 0.962 -15.569 0.962 -15.569 0.268 74.127
14500.875 0.269 74.1 0.962 -15.597 0.962 -15.597 0.269 74.1
14525.833 0.269 74.073 0.962 -15.624 0.962 -15.624 0.269 74.073
14550.792 0.27 74.046 0.961 -15.652 0.961 -15.652 0.27 74.046
14575.75 0.27 74.019 0.961 -15.68 0.961 -15.68 0.27 74.019
14600.708 0.271 73.992 0.961 -15.707 0.961 -15.707 0.271 73.992
14625.667 0.271 73.965 0.961 -15.735 0.961 -15.735 0.271 73.965
14650.625 0.272 73.938 0.961 -15.762 0.961 -15.762 0.272 73.938
14675.583 0.272 73.911 0.961 -15.789 0.961 -15.789 0.272 73.911
14700.542 0.273 73.884 0.961 -15.817 0.961 -15.817 0.273 73.884
14725.5 0.273 73.857 0.961 -15.844 0.961 -15.844 0.273 73.857
14750.458 0.273 73.83 0.96 -15.872 0.96 -15.872 0.273 73.83
14775.417 0.274 73.803 0.96 -15.899 0.96 -15.899 0.274 73.803
14800.375 0.274 73.777 0.96 -15.927 0.96 -15.927 0.274 73.777
14825.333 0.275 73.75 0.96 -15.954 0.96 -15.954 0.275 73.75
14850.292 0.275 73.723 0.96 -15.981 0.96 -15.981 0.275 73.723
14875.25 0.276 73.696 0.96 -16.009 0.96 -16.009 0.276 73.696
14900.208 0.276 73.669 0.96 -16.036 0.96 -16.036 0.276 73.669
14925.167 0.277 73.642 0.96 -16.064 0.96 -16.064 0.277 73.642
14950.125 0.277 73.615 0.959 -16.091 0.959 -16.091 0.277 73.615
14975.083 0.278 73.589 0.959 -16.118 0.959 -16.118 0.278 73.589
15000.042 0.278 73.562 0.959 -16.146 0.959 -16.146 0.278 73.562
15025 0.279 73.535 0.959 -16.173 0.959 -16.173 0.279 73.535
15049.958 0.279 73.508 0.959 -16.2 0.959 -16.2 0.279 73.508
15074.917 0.279 73.481 0.959 -16.228 0.959 -16.228 0.279 73.481
15099.875 0.28 73.455 0.959 -16.255 0.959 -16.255 0.28 73.455
15124.833 0.28 73.428 0.958 -16.282 0.958 -16.282 0.28 73.428
15149.792 0.281 73.401 0.958 -16.309 0.958 -16.309 0.281 73.401
15174.75 0.281 73.374 0.958 -16.337 0.958 -16.337 0.281 73.374
15199.708 0.282 73.348 0.958 -16.364 0.958 -16.364 0.282 73.348
15224.667 0.282 73.321 0.958 -16.391 0.958 -16.391 0.282 73.321
15249.625 0.283 73.294 0.958 -16.418 0.958 -16.418 0.283 73.294
15274.583 0.283 73.267 0.958 -16.446 0.958 -16.446 0.283 73.267
15299.542 0.284 73.241 0.958 -16.473 0.958 -16.473 0.284 73.241
15324.5 0.284 73.214 0.957 -16.5 0.957 -16.5 0.284 73.214
15349.458 0.284 73.187 0.957 -16.527 0.957 -16.527 0.284 73.187
15374.417 0.285 73.161 0.957 -16.554 0.957 -16.554 0.285 73.161
15399.375 0.285 73.134 0.957 -16.582 0.957 -16.582 0.285 73.134
15424.333 0.286 73.107 0.957 -16.609 0.957 -16.609 0.286 73.107
15449.292 0.286 73.081 0.957 -16.636 0.957 -16.636 0.286 73.081
15474.25 0.287 73.054 0.957 -16.663 0.957 -16.663 0.287 73.054
15499.208 0.287 73.027 0.956 -16.69 0.956 -16.69 0.287 73.027
15524.167 0.288 73.001 0.956 -16.717 0.956 -16.717 0.288 73.001
15549.125 0.288 72.974 0.956 -16.744 0.956 -16.744 0.288 72.974
15574.083 0.289 72.948 0.956 -16.771 0.956 -16.771 0.289 72.948
15599.042 0.289 72.921 0.956 -16.798 0.956 -16.798 0.289 72.921
15624 0.289 72.894 0.956 -16.826 0.956 -16.826 0.289 72.894
15648.958 0.29 72.868 0.956 -16.853 0.956 -16.853 0.29 72.868
15673.917 0.29 72.841 0.956 -16.88 0.956 -16.88 0.29 72.841
15698.875 0.291 72.815 0.955 -16.907 0.955 -16.907 0.291 72.815
15723.833 0.291 72.788 0.955 -16.934 0.955 -16.934 0.291 72.788
15748.792 0.292 72.762 0.955 -16.961 0.955 -16.961 0.292 72.762
15773.75 0.292 72.735 0.955 -16.988 0.955 -16.988 0.292 72.735
15798.708 0.293 72.709 0.955 -17.015 0.955 -17.015 0.293 72.709
15823.667 0.293 72.682 0.955 -17.042 0.955 -17.042 0.293 72.682
15848.625 0.294 72.655 0.955 -17.069 0.955 -17.069 0.294 72.655
15873.583 0.294 72.629 0.954 -17.096 0.954 -17.096 0.294 72.629
15898.542 0.294 72.602 0.954 -17.123 0.954 -17.123 0.294 72.602
15923.5 0.295 72.576 0.954 -17.15 0.954 -17.15 0.295 72.576
15948.458 0.295 72.55 0.954 -17.177 0.954 -17.177 0.295 72.55
15973.417 0.296 72.523 0.954 -17.203 0.954 -17.203 0.296 72.523
15998.375 0.296 72.497 0.954 -17.23 0.954 -17.23 0.296 72.497
16023.333 0.297 72.47 0.954 -17.257 0.954 -17.257 0.297 72.47
16048.292 0.297 72.444 0.953 -17.284 0.953 -17.284 0.297 72.444
16073.25 0.298 72.417 0.953 -17.311 0.953 -17.311 0.298 72.417
16098.208 0.298 72.391 0.953 -17.338 0.953 -17.338 0.298 72.391
16123.167 0.298 72.364 0.953 -17.365 0.953 -17.365 0.298 72.364
16148.125 0.299 72.338 0.953 -17.392 0.953 -17.392 0.299 72.338
16173.083 0.299 72.312 0.953 -17.418 0.953 -17.418 0.299 72.312
16198.042 0.3 72.285 0.953 -17.445 0.953 -17.445 0.3 72.285
16223 0.3 72.259 0.952 -17.472 0.952 -17.472 0.3 72.259
16247.958 0.301 72.232 0.952 -17.499 0.952 -17.499 0.301 72.232
16272.917 0.301 72.206 0.952 -17.526 0.952 -17.526 0.301 72.206
16297.875 0.302 72.18 0.952 -17.553 0.952 -17.553 0.302 72.18
16322.833 0.302 72.153 0.952 -17.579 0.952 -17.579 0.302 72.153
16347.792 0.302 72.127 0.952 -17.606 0.952 -17.606 0.302 72.127
16372.75 0.303 72.101 0.952 -17.633 0.952 -17.633 0.303 72.101
16397.708 0.303 72.074 0.951 -17.66 0.951 -17.66 0.303 72.074
16422.667 0.304 72.048 0.951 -17.686 0.951 -17.686 0.304 72.048
16447.625 0.304 72.022 0.951 -17.713 0.951 -17.713 0.304 72.022
16472.583 0.305 71.996 0.951 -17.74 0.951 -17.74 0.305 71.996
16497.542 0.305 71.969 0.951 -17.766 0.951 -17.766 0.305 71.969
16522.5 0.306 71.943 0.951 -17.793 0.951 -17.793 0.306 71.943
16547.458 0.306 71.917 0.951 -17.82 0.951 -17.82 0.306 71.917
16572.417 0.306 71.89 0.95 -17.847 0.95 -17.847 0.306 71.89
16597.375 0.307 71.864 0.95 -17.873 0.95 -17.873 0.307 71.864
16622.333 0.307 71.838 0.95 -17.9 0.95 -17.9 0.307 71.838
16647.292 0.308 71.812 0.95 -17.926 0.95 -17.926 0.308 71.812
16672.25 0.308 71.785 0.95 -17.953 0.95 -17.953 0.308 71.785
16697.208 0.309 71.759 0.95 -17.98 0.95 -17.98 0.309 71.759
16722.167 0.309 71.733 0.95 -18.006 0.95 -18.006 0.309 71.733
16747.125 0.31 71.707 0.949 -18.033 0.949 -18.033 0.31 71.707
16772.083 0.31 71.681 0.949 -18.06 0.949 -18.06 0.31 71.681
16797.042 0.31 71.655 0.949 -18.086 0.949 -18.086 0.31 71.655
16822 0.311 71.628 0.949 -18.113 0.949 -18.113 0.311 71.628
16846.958 0.311 71.602 0.949 -18.139 0.949 -18.139 0.311 71.602
16871.917 0.312 71.576 0.949 -18.166 0.949 -18.166 0.312 71.576
16896.875 0.312 71.55 0.949 -18.192 0.949 -18.192 0.312 71.55
16921.833 0.313 71.524 0.948 -18.219 0.948 -18.219 0.313 71.524
16946.792 0.313 71.498 0.948 -18.245 0.948 -18.245 0.313 71.498
16971.75 0.314 71.472 0.948 -18.272 0.948 -18.272 0.314 71.472
16996.708 0.314 71.445 0.948 -18.298 0.948 -18.298 0.314 71.445
17021.667 0.314 71.419 0.948 -18.325 0.948 -18.325 0.314 71.419
17046.625 0.315 71.393 0.948 -18.351 0.948 -18.351 0.315 71.393
17071.583 0.315 71.367 0.948 -18.378 0.948 -18.378 0.315 71.367
17096.542 0.316 71.341 0.947 -18.404 0.947 -18.404 0.316 71.341
17121.5 0.316 71.315 0.947 -18.431 0.947 -18.431 0.316 71.315
17146.458 0.317 71.289 0.947 -18.457 0.947 -18.457 0.317 71.289
17171.417 0.317 71.263 0.947 -18.484 0.947 -18.484 0.317 71.263
17196.375 0.317 71.237 0.947 -18.51 0.947 -18.51 0.317 71.237
17221.333 0.318 71.211 0.947 -18.537 0.947 -18.537 0.318 71.211
17246.292 0.318 71.185 0.947 -18.563 0.947 -18.563 0.318 71.185
17271.25 0.319 71.159 0.946 -18.589 0.946 -18.589 0.319 71.159
17296.208 0.319 71.133 0.946 -18.616 0.946 -18.616 0.319 71.133
17321.167 0.32 71.107 0.946 -18.642 0.946 -18.642 0.32 71.107
17346.125 0.32 71.081 0.946 -18.668 0.946 -18.668 0.32 71.081
17371.083 0.321 71.055 0.946 -18.695 0.946 -18.695 0.321 71.055
17396.042 0.321 71.029 0.946 -18.721 0.946 -18.721 0.321 71.029
17421 0.321 71.003 0.946 -18.747 0.946 -18.747 0.321 71.003
17445.958 0.322 70.977 0.945 -18.774 0.945 -18.774 0.322 70.977
17470.917 0.322 70.951 0.945 -18.8 0.945 -18.8 0.322 70.951
17495.875 0.323 70.925 0.945 -18.826 0.945 -18.826 0.323 70.925
17520.833 0.323 70.899 0.945 -18.853 0.945 -18.853 0.323 70.899
17545.792 0.324 70.873 0.945 -18.879 0.945 -18.879 0.324 70.873
17570.75 0.324 70.847 0.945 -18.905 0.945 -18.905 0.324 70.847
17595.708 0.324 70.822 0.945 -18.931 0.945 -18.931 0.324 70.822
17620.667 0.325 70.796 0.944 -18.958 0.944 -18.958 0.325 70.796
17645.625 0.325 70.77 0.944 -18.984 0.944 -18.984 0.325 70.77
17670.583 0.326 70.744 0.944 -19.01 0.944 -19.01 0.326 70.744
17695.542 0.326 70.718 0.944 -19.036 0.944 -19.036 0.326 70.718
17720.5 0.327 70.692 0.944 -19.063 0.944 -19.063 0.327 70.692
17745.458 0.327 70.666 0.944 -19.089 0.944 -19.089 0.327 70.666
17770.417 0.327 70.641 0.943 -19.115 0.943 -19.115 0.327 70.641
17795.375 0.328 70.615 0.943 -19.141 0.943 -19.141 0.328 70.615
17820.333 0.328 70.589 0.943 -19.167 0.943 -19.167 0.328 70.589
17845.292 0.329 70.563 0.943 -19.194 0.943 -19.194 0.329 70.563
17870.25 0.329 70.537 0.943 -19.22 0.943 -19.22 0.329 70.537
17895.208 0.33 70.512 0.943 -19.246 0.943 -19.246 0.33 70.512
17920.167 0.33 70.486 0.943 -19.272 0.943 -19.272 0.33 70.486
17945.125 0.33 70.46 0.942 -19.298 0.942 -19.298 0.33 70.46
17970.083 0.331 70.434 0.942 -19.324 0.942 -19.324 0.331 70.434
17995.042 0.331 70.409 0.942 -19.35 0.942 -19.35 0.331 70.409
18020 0.332 70.383 0.942 -19.376 0.942 -19.376 0.332 70.383
18044.958 0.332 70.357 0.942 -19.402 0.942 -19.402 0.332 70.357
18069.917 0.333 70.331 0.942 -19.428 0.942 -19.428 0.333 70.331
18094.875 0.333 70.306 0.942 -19.455 0.942 -19.455 0.333 70.306
18119.833 0.333 70.28 0.941 -19.481 0.941 -19.481 0.333 70.28
18144.792 0.334 70.254 0.941 -19.507 0.941 -19.507 0.334 70.254
18169.75 0.334 70.229 0.941 -19.533 0.941 -19.533 0.334 70.229
18194.708 0.335 70.203 0.941 -19.559 0.941 -19.559 0.335 70.203
18219.667 0.335 70.177 0.941 -19.585 0.941 -19.585 0.335 70.177
18244.625 0.336 70.152 0.941 -19.611 0.941 -19.611 0.336 70.152
18269.583 0.336 70.126 0.94 -19.637 0.94 -19.637 0.336 70.126
18294.542 0.336 70.1 0.94 -19.663 0.94 -19.663 0.336 70.1
18319.5 0.337 70.075 0.94 -19.689 0.94 -19.689 0.337 70.075
18344.458 0.337 70.049 0.94 -19.715 0.94 -19.715 0.337 70.049
18369.417 0.338 70.023 0.94 -19.741 0.94 -19.741 0.338 70.023
18394.375 0.338 69.998 0.94 -19.766 0.94 -19.766 0.338 69.998
18419.333 0.339 69.972 0.94 -19.792 0.94 -19.792 0.339 69.972
18444.292 0.339 69.947 0.939 -19.818 0.939 -19.818 0.339 69.947
18469.25 0.339 69.921 0.939 -19.844 0.939 -19.844 0.339 69.921
18494.208 0.34 69.896 0.939 -19.87 0.939 -19.87 0.34 69.896
18519.167 0.34 69.87 0.939 -19.896 0.939 -19.896 0.34 69.87
18544.125 0.341 69.844 0.939 -19.922 0.939 -19.922 0.341 69.844
18569.083 0.341 69.819 0.939 -19.948 0.939 -19.948 0.341 69.819
18594.042 0.342 69.793 0.938 -19.974 0.938 -19.974 0.342 69.793
18619 0.342 69.768 0.938 -19.999 0.938 -19.999 0.342 69.768
18643.958 0.342 69.742 0.938 -20.025 0.938 -20.025 0.342 69.742
18668.917 0.343 69.717 0.938 -20.051 0.938 -20.051 0.343 69.717
18693.875 0.343 69.691 0.938 -20.077 0.938 -20.077 0.343 69.691
18718.833 0.344 69.666 0.938 -20.103 0.938 -20.103 0.344 69.666
18743.792 0.344 69.64 0.938 -20.129 0.938 -20.129 0.344 69.64
18768.75 0.345 69.615 0.937 -20.154 0.937 -20.154 0.345 69.615
18793.708 0.345 69.589 0.937 -20.18 0.937 -20.18 0.345 69.589
18818.667 0.345 69.564 0.937 -20.206 0.937 -20.206 0.345 69.564
18843.625 0.346 69.539 0.937 -20.232 0.937 -20.232 0.346 69.539
18868.583 0.346 69.513 0.937 -20.257 0.937 -20.257 0.346 69.513
18893.542 0.347 69.488 0.937 -20.283 0.937 -20.283 0.347 69.488
18918.5 0.347 69.462 0.936 -20.309 0.936 -20.309 0.347 69.462
18943.458 0.348 69.437 0.936 -20.335 0.936 -20.335 0.348 69.437
18968.417 0.348 69.412 0.936 -20.36 0.936 -20.36 0.348 69.412
18993.375 0.348 69.386 0.936 -20.386 0.936 -20.386 0.348 69.386
19018.333 0.349 69.361 0.936 -20.412 0.936 -20.412 0.349 69.361
19043.292 0.349 69.335 0.936 -20.437 0.936 -20.437 0.349 69.335
19068.25 0.35 69.31 0.936 -20.463 0.936 -20.463 0.35 69.31
19093.208 0.35 69.285 0.935 -20.489 0.935 -20.489 0.35 69.285
19118.167 0.35 69.259 0.935 -20.514 0.935 -20.514 0.35 69.259
19143.125 0.351 69.234 0.935 -20.54 0.935 -20.54 0.351 69.234
19168.083 0.351 69.209 0.935 -20.566 0.935 -20.566 0.351 69.209
19193.042 0.352 69.183 0.935 -20.591 0.935 -20.591 0.352 69.183
19218 0.352 69.158 0.935 -20.617 0.935 -20.617 0.352 69.158
19242.958 0.353 69.133 0.934 -20.642 0.934 -20.642 0.353 69.133
19267.917 0.353 69.108 0.934 -20.668 0.934 -20.668 0.353 69.108
19292.875 0.353 69.082 0.934 -20.693 0.934 -20.693 0.353 69.082
19317.833 0.354 69.057 0.934 -20.719 0.934 -20.719 0.354 69.057
19342.792 0.354 69.032 0.934 -20.745 0.934 -20.745 0.354 69.032
19367.75 0.355 69.007 0.934 -20.77 0.934 -20.77 0.355 69.007
19392.708 0.355 68.981 0.933 -20.796 0.933 -20.796 0.355 68.981
19417.667 0.355 68.956 0.933 -20.821 0.933 -20.821 0.355 68.956
19442.625 0.356 68.931 0.933 -20.847 0.933 -20.847 0.356 68.931
19467.583 0.356 68.906 0.933 -20.872 0.933 -20.872 0.356 68.906
19492.542 0.357 68.88 0.933 -20.898 0.933 -20.898 0.357 68.88
19517.5 0.357 68.855 0.933 -20.923 0.933 -20.923 0.357 68.855
19542.458 0.358 68.83 0.933 -20.949 0.933 -20.949 0.358 68.83
19567.417 0.358 68.805 0.932 -20.974 0.932 -20.974 0.358 68.805
19592.375 0.358 68.78 0.932 -21 0.932 -21 0.358 68.78
19617.333 0.359 68.755 0.932 -21.025 0.932 -21.025 0.359 68.755
19642.292 0.359 68.729 0.932 -21.051 0.932 -21.051 0.359 68.729
19667.25 0.36 68.704 0.932 -21.076 0.932 -21.076 0.36 68.704
19692.208 0.36 68.679 0.932 -21.101 0.932 -21.101 0.36 68.679
19717.167 0.36 68.654 0.931 -21.127 0.931 -21.127 0.36 68.654
19742.125 0.361 68.629 0.931 -21.152 0.931 -21.152 0.361 68.629
19767.083 0.361 68.604 0.931 -21.178 0.931 -21.178 0.361 68.604
19792.042 0.362 68.579 0.931 -21.203 0.931 -21.203 0.362 68.579
19817 0.362 68.554 0.931 -21.228 0.931 -21.228 0.362 68.554
19841.958 0.362 68.529 0.931 -21.254 0.931 -21.254 0.362 68.529
19866.917 0.363 68.504 0.93 -21.279 0.93 -21.279 0.363 68.504
19891.875 0.363 68.479 0.93 -21.304 0.93 -21.304 0.363 68.479
19916.833 0.364 68.453 0.93 -21.33 0.93 -21.33 0.364 68.453
19941.792 0.364 68.428 0.93 -21.355 0.93 -21.355 0.364 68.428
19966.75 0.365 68.403 0.93 -21.38 0.93 -21.38 0.365 68.403
19991.708 0.365 68.378 0.93 -21.406 0.93 -21.406 0.365 68.378
20016.667 0.365 68.353 0.929 -21.431 0.929 -21.431 0.365 68.353
20041.625 0.366 68.328 0.929 -21.456 0.929 -21.456 0.366 68.328
20066.583 0.366 68.303 0.929 -21.481 0.929 -21.481 0.366 68.303
20091.542 0.367 68.278 0.929 -21.507 0.929 -21.507 0.367 68.278
20116.5 0.367 68.253 0.929 -21.532 0.929 -21.532 0.367 68.253
20141.458 0.367 68.228 0.929 -21.557 0.929 -21.557 0.367 68.228
20166.417 0.368 68.204 0.929 -21.582 0.929 -21.582 0.368 68.204
20191.375 0.368 68.179 0.928 -21.608 0.928 -21.608 0.368 68.179
20216.333 0.369 68.154 0.928 -21.633 0.928 -21.633 0.369 68.154
20241.292 0.369 68.129 0.928 -21.658 0.928 -21.658 0.369 68.129
20266.25 0.369 68.104 0.928 -21.683 0.928 -21.683 0.369 68.104
20291.208 0.37 68.079 0.928 -21.708 0.928 -21.708 0.37 68.079
20316.167 0.37 68.054 0.928 -21.733 0.928 -21.733 0.37 68.054
20341.125 0.371 68.029 0.927 -21.759 0.927 -21.759 0.371 68.029
20366.083 0.371 68.004 0.927 -21.784 0.927 -21.784 0.371 68.004
20391.042 0.372 67.979 0.927 -21.809 0.927 -21.809 0.372 67.979
20416 0.372 67.955 0.927 -21.834 0.927 -21.834 0.372 67.955
20440.958 0.372 67.93 0.927 -21.859 0.927 -21.859 0.372 67.93
20465.917 0.373 67.905 0.927 -21.884 0.927 -21.884 0.373 67.905
20490.875 0.373 67.88 0.926 -21.909 0.926 -21.909 0.373 67.88
20515.833 0.374 67.855 0.926 -21.934 0.926 -21.934 0.374 67.855
20540.792 0.374 67.83 0.926 -21.96 0.926 -21.96 0.374 67.83
20565.75 0.374 67.806 0.926 -21.985 0.926 -21.985 0.374 67.806
20590.708 0.375 67.781 0.926 -22.01 0.926 -22.01 0.375 67.781
20615.667 0.375 67.756 0.926 -22.035 0.926 -22.035 0.375 67.756
20640.625 0.376 67.731 0.925 -22.06 0.925 -22.06 0.376 67.731
20665.583 0.376 67.706 0.925 -22.085 0.925 -22.085 0.376 67.706
20690.542 0.376 67.682 0.925 -22.11 0.925 -22.11 0.376 67.682
20715.5 0.377 67.657 0.925 -22.135 0.925 -22.135 0.377 67.657
20740.458 0.377 67.632 0.925 -22.16 0.925 -22.16 0.377 67.632
20765.417 0.378 67.608 0.925 -22.185 0.925 -22.185 0.378 67.608
20790.375 0.378 67.583 0.924 -22.21 0.924 -22.21 0.378 67.583
20815.333 0.378 67.558 0.924 -22.235 0.924 -22.235 0.378 67.558
20840.292 0.379 67.533 0.924 -22.26 0.924 -22.26 0.379 67.533
20865.25 0.379 67.509 0.924 -22.285 0.924 -22.285 0.379 67.509
20890.208 0.38 67.484 0.924 -22.31 0.924 -22.31 0.38 67.484
20915.167 0.38 67.459 0.924 -22.334 0.924 -22.334 0.38 67.459
20940.125 0.38 67.435 0.923 -22.359 0.923 -22.359 0.38 67.435
20965.083 0.381 67.41 0.923 -22.384 0.923 -22.384 0.381 67.41
20990.042 0.381 67.385 0.923 -22.409 0.923 -22.409 0.381 67.385
21015 0.382 67.361 0.923 -22.434 0.923 -22.434 0.382 67.361
21039.958 0.382 67.336 0.923 -22.459 0.923 -22.459 0.382 67.336
21064.917 0.382 67.312 0.923 -22.484 0.923 -22.484 0.382 67.312
21089.875 0.383 67.287 0.922 -22.509 0.922 -22.509 0.383 67.287
21114.833 0.383 67.262 0.922 -22.534 0.922 -22.534 0.383 67.262
21139.792 0.384 67.238 0.922 -22.558 0.922 -22.558 0.384 67.238
21164.75 0.384 67.213 0.922 -22.583 0.922 -22.583 0.384 67.213
21189.708 0.384 67.189 0.922 -22.608 0.922 -22.608 0.384 67.189
21214.667 0.385 67.164 0.922 -22.633 0.922 -22.633 0.385 67.164
21239.625 0.385 67.139 0.921 -22.658 0.921 -22.658 0.385 67.139
21264.583 0.386 67.115 0.921 -22.682 0.921 -22.682 0.386 67.115
21289.542 0.386 67.09 0.921 -22.707 0.921 -22.707 0.386 67.09
21314.5 0.386 67.066 0.921 -22.732 0.921 -22.732 0.386 67.066
21339.458 0.387 67.041 0.921 -22.757 0.921 -22.757 0.387 67.041
21364.417 0.387 67.017 0.921 -22.781 0.921 -22.781 0.387 67.017
21389.375 0.388 66.992 0.92 -22.806 0.92 -22.806 0.388 66.992
21414.333 0.388 66.968 0.92 -22.831 0.92 -22.831 0.388 66.968
21439.292 0.388 66.943 0.92 -22.856 0.92 -22.856 0.388 66.943
21464.25 0.389 66.919 0.92 -22.88 0.92 -22.88 0.389 66.919
21489.208 0.389 66.894 0.92 -22.905 0.92 -22.905 0.389 66.894
21514.167 0.39 66.87 0.92 -22.93 0.92 -22.93 0.39 66.87
21539.125 0.39 66.846 0.919 -22.954 0.919 -22.954 0.39 66.846
21564.083 0.39 66.821 0.919 -22.979 0.919 -22.979 0.39 66.821
21589.042 0.391 66.797 0.919 -23.004 0.919 -23.004 0.391 66.797
21614 0.391 66.772 0.919 -23.028 0.919 -23.028 0.391 66.772
21638.958 0.392 66.748 0.919 -23.053 0.919 -23.053 0.392 66.748
21663.917 0.392 66.724 0.919 -23.078 0.919 -23.078 0.392 66.724
21688.875 0.392 66.699 0.918 -23.102 0.918 -23.102 0.392 66.699
21713.833 0.393 66.675 0.918 -23.127 0.918 -23.127 0.393 66.675
21738.792 0.393 66.65 0.918 -23.151 0.918 -23.151 0.393 66.65
21763.75 0.394 66.626 0.918 -23.176 0.918 -23.176 0.394 66.626
21788.708 0.394 66.602 0.918 -23.201 0.918 -23.201 0.394 66.602
21813.667 0.394 66.577 0.918 -23.225 0.918 -23.225 0.394 66.577
21838.625 0.395 66.553 0.917 -23.25 0.917 -23.25 0.395 66.553
21863.583 0.395 66.529 0.917 -23.274 0.917 -23.274 0.395 66.529
21888.542 0.396 66.504 0.917 -23.299 0.917 -23.299 0.396 66.504
21913.5 0.396 66.48 0.917 -23.323 0.917 -23.323 0.396 66.48
21938.458 0.396 66.456 0.917 -23.348 0.917 -23.348 0.396 66.456
21963.417 0.397 66.432 0.917 -23.372 0.917 -23.372 0.397 66.432
21988.375 0.397 66.407 0.916 -23.397 0.916 -23.397 0.397 66.407
22013.333 0.397 66.383 0.916 -23.421 0.916 -23.421 0.397 66.383
22038.292 0.398 66.359 0.916 -23.446 0.916 -23.446 0.398 66.359
22063.25 0.398 66.335 0.916 -23.47 0.916 -23.47 0.398 66.335
22088.208 0.399 66.31 0.916 -23.495 0.916 -23.495 0.399 66.31
22113.167 0.399 66.286 0.916 -23.519 0.916 -23.519 0.399 66.286
22138.125 0.399 66.262 0.915 -23.544 0.915 -23.544 0.399 66.262
22163.083 0.4 66.238 0.915 -23.568 0.915 -23.568 0.4 66.238
22188.042 0.4 66.214 0.915 -23.593 0.915 -23.593 0.4 66.214
22213 0.401 66.189 0.915 -23.617 0.915 -23.617 0.401 66.189
22237.958 0.401 66.165 0.915 -23.641 0.915 -23.641 0.401 66.165
22262.917 0.401 66.141 0.915 -23.666 0.915 -23.666 0.401 66.141
22287.875 0.402 66.117 0.914 -23.69 0.914 -23.69 0.402 66.117
22312.833 0.402 66.093 0.914 -23.715 0.914 -23.715 0.402 66.093
22337.792 0.403 66.069 0.914 -23.739 0.914 -23.739 0.403 66.069
22362.75 0.403 66.044 0.914 -23.763 0.914 -23.763 0.403 66.044
22387.708 0.403 66.02 0.914 -23.788 0.914 -23.788 0.403 66.02
22412.667 0.404 65.996 0.914 -23.812 0.914 -23.812 0.404 65.996
22437.625 0.404 65.972 0.913 -23.836 0.913 -23.836 0.404 65.972
22462.583 0.405 65.948 0.913 -23.861 0.913 -23.861 0.405 65.948
22487.542 0.405 65.924 0.913 -23.885 0.913 -23.885 0.405 65.924
22512.5 0.405 65.9 0.913 -23.909 0.913 -23.909 0.405 65.9
22537.458 0.406 65.876 0.913 -23.933 0.913 -23.933 0.406 65.876
22562.417 0.406 65.852 0.912 -23.958 0.912 -23.958 0.406 65.852
22587.375 0.406 65.828 0.912 -23.982 0.912 -23.982 0.406 65.828
22612.333 0.407 65.804 0.912 -24.006 0.912 -24.006 0.407 65.804
22637.292 0.407 65.78 0.912 -24.03 0.912 -24.03 0.407 65.78
22662.25 0.408 65.756 0.912 -24.055 0.912 -24.055 0.408 65.756
22687.208 0.408 65.732 0.912 -24.079 0.912 -24.079 0.408 65.732
22712.167 0.408 65.708 0.911 -24.103 0.911 -24.103 0.408 65.708
22737.125 0.409 65.684 0.911 -24.127 0.911 -24.127 0.409 65.684
22762.083 0.409 65.66 0.911 -24.151 0.911 -24.151 0.409 65.66
22787.042 0.41 65.636 0.911 -24.176 0.911 -24.176 0.41 65.636
22812 0.41 65.612 0.911 -24.2 0.911 -24.2 0.41 65.612
22836.958 0.41 65.588 0.911 -24.224 0.911 -24.224 0.41 65.588
22861.917 0.411 65.564 0.91 -24.248 0.91 -24.248 0.411 65.564
22886.875 0.411 65.54 0.91 -24.272 0.91 -24.272 0.411 65.54
22911.833 0.411 65.516 0.91 -24.296 0.91 -24.296 0.411 65.516
22936.792 0.412 65.492 0.91 -24.32 0.91 -24.32 0.412 65.492
22961.75 0.412 65.468 0.91 -24.345 0.91 -24.345 0.412 65.468
22986.708 0.413 65.444 0.91 -24.369 0.91 -24.369 0.413 65.444
23011.667 0.413 65.42 0.909 -24.393 0.909 -24.393 0.413 65.42
23036.625 0.413 65.397 0.909 -24.417 0.909 -24.417 0.413 65.397
23061.583 0.414 65.373 0.909 -24.441 0.909 -24.441 0.414 65.373
23086.542 0.414 65.349 0.909 -24.465 0.909 -24.465 0.414 65.349
23111.5 0.415 65.325 0.909 -24.489 0.909 -24.489 0.415 65.325
23136.458 0.415 65.301 0.909 -24.513 0.909 -24.513 0.415 65.301
23161.417 0.415 65.277 0.908 -24.537 0.908 -24.537 0.415 65.277
23186.375 0.416 65.254 0.908 -24.561 0.908 -24.561 0.416 65.254
23211.333 0.416 65.23 0.908 -24.585 0.908 -24.585 0.416 65.23
23236.292 0.416 65.206 0.908 -24.609 0.908 -24.609 0.416 65.206
23261.25 0.417 65.182 0.908 -24.633 0.908 -24.633 0.417 65.182
23286.208 0.417 65.158 0.907 -24.657 0.907 -24.657 0.417 65.158
23311.167 0.418 65.135 0.907 -24.681 0.907 -24.681 0.418 65.135
23336.125 0.418 65.111 0.907 -24.705 0.907 -24.705 0.418 65.111
23361.083 0.418 65.087 0.907 -24.729 0.907 -24.729 0.418 65.087
23386.042 0.419 65.063 0.907 -24.753 0.907 -24.753 0.419 65.063
23411 0.419 65.04 0.907 -24.777 0.907 -24.777 0.419 65.04
23435.958 0.419 65.016 0.906 -24.801 0.906 -24.801 0.419 65.016
23460.917 0.42 64.992 0.906 -24.825 0.906 -24.825 0.42 64.992
23485.875 0.42 64.968 0.906 -24.849 0.906 -24.849 0.42 64.968
23510.833 0.421 64.945 0.906 -24.873 0.906 -24.873 0.421 64.945
23535.792 0.421 64.921 0.906 -24.896 0.906 -24.896 0.421 64.921
23560.75 0.421 64.897 0.906 -24.92 0.906 -24.92 0.421 64.897
23585.708 0.422 64.874 0.905 -24.944 0.905 -24.944 0.422 64.874
23610.667 0.422 64.85 0.905 -24.968 0.905 -24.968 0.422 64.85
23635.625 0.422 64.826 0.905 -24.992 0.905 -24.992 0.422 64.826
23660.583 0.423 64.803 0.905 -25.016 0.905 -25.016 0.423 64.803
23685.542 0.423 64.779 0.905 -25.039 0.905 -25.039 0.423 64.779
23710.5 0.424 64.756 0.905 -25.063 0.905 -25.063 0.424 64.756
23735.458 0.424 64.732 0.904 -25.087 0.904 -25.087 0.424 64.732
23760.417 0.424 64.708 0.904 -25.111 0.904 -25.111 0.424 64.708
23785.375 0.425 64.685 0.904 -25.135 0.904 -25.135 0.425 64.685
23810.333 0.425 64.661 0.904 -25.158 0.904 -25.158 0.425 64.661
23835.292 0.426 64.638 0.904 -25.182 0.904 -25.182 0.426 64.638
23860.25 0.426 64.614 0.903 -25.206 0.903 -25.206 0.426 64.614
23885.208 0.426 64.591 0.903 -25.23 0.903 -25.23 0.426 64.591
23910.167 0.427 64.567 0.903 -25.253 0.903 -25.253 0.427 64.567
23935.125 0.427 64.543 0.903 -25.277 0.903 -25.277 0.427 64.543
23960.083 0.427 64.52 0.903 -25.301 0.903 -25.301 0.427 64.52
23985.042 0.428 64.496 0.903 -25.325 0.903 -25.325 0.428 64.496
24010 0.428 64.473 0.902 -25.348 0.902 -25.348 0.428 64.473
24034.958 0.428 64.449 0.902 -25.372 0.902 -25.372 0.428 64.449
24059.917 0.429 64.426 0.902 -25.396 0.902 -25.396 0.429 64.426
24084.875 0.429 64.403 0.902 -25.419 0.902 -25.419 0.429 64.403
24109.833 0.43 64.379 0.902 -25.443 0.902 -25.443 0.43 64.379
24134.792 0.43 64.356 0.902 -25.467 0.902 -25.467 0.43 64.356
24159.75 0.43 64.332 0.901 -25.49 0.901 -25.49 0.43 64.332
24184.708 0.431 64.309 0.901 -25.514 0.901 -25.514 0.431 64.309
24209.667 0.431 64.285 0.901 -25.537 0.901 -25.537 0.431 64.285
24234.625 0.431 64.262 0.901 -25.561 0.901 -25.561 0.431 64.262
24259.583 0.432 64.238 0.901 -25.585 0.901 -25.585 0.432 64.238
24284.542 0.432 64.215 0.9 -25.608 0.9 -25.608 0.432 64.215
24309.5 0.433 64.192 0.9 -25.632 0.9 -25.632 0.433 64.192
24334.458 0.433 64.168 0.9 -25.655 0.9 -25.655 0.433 64.168
24359.417 0.433 64.145 0.9 -25.679 0.9 -25.679 0.433 64.145
24384.375 0.434 64.122 0.9 -25.702 0.9 -25.702 0.434 64.122
24409.333 0.434 64.098 0.9 -25.726 0.9 -25.726 0.434 64.098
24434.292 0.434 64.075 0.899 -25.749 0.899 -25.749 0.434 64.075
24459.25 0.435 64.052 0.899 -25.773 0.899 -25.773 0.435 64.052
24484.208 0.435 64.028 0.899 -25.797 0.899 -25.797 0.435 64.028
24509.167 0.436 64.005 0.899 -25.82 0.899 -25.82 0.436 64.005
24534.125 0.436 63.982 0.899 -25.843 0.899 -25.843 0.436 63.982
24559.083 0.436 63.958 0.898 -25.867 0.898 -25.867 0.436 63.958
24584.042 0.437 63.935 0.898 -25.89 0.898 -25.89 0.437 63.935
24609 0.437 63.912 0.898 -25.914 0.898 -25.914 0.437 63.912
24633.958 0.437 63.889 0.898 -25.937 0.898 -25.937 0.437 63.889
24658.917 0.438 63.865 0.898 -25.961 0.898 -25.961 0.438 63.865
24683.875 0.438 63.842 0.898 -25.984 0.898 -25.984 0.438 63.842
24708.833 0.438 63.819 0.897 -26.008 0.897 -26.008 0.438 63.819
24733.792 0.439 63.796 0.897 -26.031 0.897 -26.031 0.439 63.796
24758.75 0.439 63.772 0.897 -26.054 0.897 -26.054 0.439 63.772
24783.708 0.44 63.749 0.897 -26.078 0.897 -26.078 0.44 63.749
24808.667 0.44 63.726 0.897 -26.101 0.897 -26.101 0.44 63.726
24833.625 0.44 63.703 0.897 -26.125 0.897 -26.125 0.44 63.703
24858.583 0.441 63.68 0.896 -26.148 0.896 -26.148 0.441 63.68
24883.542 0.441 63.656 0.896 -26.171 0.896 -26.171 0.441 63.656
24908.5 0.441 63.633 0.896 -26.195 0.896 -26.195 0.441 63.633
24933.458 0.442 63.61 0.896 -26.218 0.896 -26.218 0.442 63.61
24958.417 0.442 63.587 0.896 -26.241 0.896 -26.241 0.442 63.587
24983.375 0.443 63.564 0.895 -26.264 0.895 -26.264 0.443 63.564
25008.333 0.443 63.541 0.895 -26.288 0.895 -26.288 0.443 63.541
25033.292 0.443 63.518 0.895 -26.311 0.895 -26.311 0.443 63.518
25058.25 0.444 63.495 0.895 -26.334 0.895 -26.334 0.444 63.495
25083.208 0.444 63.471 0.895 -26.358 0.895 -26.358 0.444 63.471
25108.167 0.444 63.448 0.895 -26.381 0.895 -26.381 0.444 63.448
25133.125 0.445 63.425 0.894 -26.404 0.894 -26.404 0.445 63.425
25158.083 0.445 63.402 0.894 -26.427 0.894 -26.427 0.445 63.402
25183.042 0.445 63.379 0.894 -26.451 0.894 -26.451 0.445 63.379
25208 0.446 63.356 0.894 -26.474 0.894 -26.474 0.446 63.356
25232.958 0.446 63.333 0.894 -26.497 0.894 -26.497 0.446 63.333
25257.917 0.447 63.31 0.893 -26.52 0.893 -26.52 0.447 63.31
25282.875 0.447 63.287 0.893 -26.543 0.893 -26.543 0.447 63.287
25307.833 0.447 63.264 0.893 -26.567 0.893 -26.567 0.447 63.264
25332.792 0.448 63.241 0.893 -26.59 0.893 -26.59 0.448 63.241
25357.75 0.448 63.218 0.893 -26.613 0.893 -26.613 0.448 63.218
25382.708 0.448 63.195 0.893 -26.636 0.893 -26.636 0.448 63.195
25407.667 0.449 63.172 0.892 -26.659 0.892 -26.659 0.449 63.172
25432.625 0.449 63.149 0.892 -26.682 0.892 -26.682 0.449 63.149
25457.583 0.449 63.126 0.892 -26.705 0.892 -26.705 0.449 63.126
25482.542 0.45 63.103 0.892 -26.728 0.892 -26.728 0.45 63.103
25507.5 0.45 63.08 0.892 -26.752 0.892 -26.752 0.45 63.08
25532.458 0.45 63.057 0.891 -26.775 0.891 -26.775 0.45 63.057
25557.417 0.451 63.035 0.891 -26.798 0.891 -26.798 0.451 63.035
25582.375 0.451 63.012 0.891 -26.821 0.891 -26.821 0.451 63.012
25607.333 0.452 62.989 0.891 -26.844 0.891 -26.844 0.452 62.989
25632.292 0.452 62.966 0.891 -26.867 0.891 -26.867 0.452 62.966
25657.25 0.452 62.943 0.891 -26.89 0.891 -26.89 0.452 62.943
25682.208 0.453 62.92 0.89 -26.913 0.89 -26.913 0.453 62.92
25707.167 0.453 62.897 0.89 -26.936 0.89 -26.936 0.453 62.897
25732.125 0.453 62.874 0.89 -26.959 0.89 -26.959 0.453 62.874
25757.083 0.454 62.852 0.89 -26.982 0.89 -26.982 0.454 62.852
25782.042 0.454 62.829 0.89 -27.005 0.89 -27.005 0.454 62.829
25807 0.454 62.806 0.889 -27.028 0.889 -27.028 0.454 62.806
25831.958 0.455 62.783 0.889 -27.051 0.889 -27.051 0.455 62.783
25856.917 0.455 62.76 0.889 -27.074 0.889 -27.074 0.455 62.76
25881.875 0.455 62.738 0.889 -27.097 0.889 -27.097 0.455 62.738
25906.833 0.456 62.715 0.889 -27.12 0.889 -27.12 0.456 62.715
25931.792 0.456 62.692 0.889 -27.143 0.889 -27.143 0.456 62.692
25956.75 0.457 62.669 0.888 -27.166 0.888 -27.166 0.457 62.669
25981.708 0.457 62.647 0.888 -27.189 0.888 -27.189 0.457 62.647
26006.667 0.457 62.624 0.888 -27.211 0.888 -27.211 0.457 62.624
26031.625 0.458 62.601 0.888 -27.234 0.888 -27.234 0.458 62.601
26056.583 0.458 62.578 0.888 -27.257 0.888 -27.257 0.458 62.578
26081.542 0.458 62.556 0.887 -27.28 0.887 -27.28 0.458 62.556
26106.5 0.459 62.533 0.887 -27.303 0.887 -27.303 0.459 62.533
26131.458 0.459 62.51 0.887 -27.326 0.887 -27.326 0.459 62.51
26156.417 0.459 62.488 0.887 -27.349 0.887 -27.349 0.459 62.488
26181.375 0.46 62.465 0.887 -27.371 0.887 -27.371 0.46 62.465
26206.333 0.46 62.442 0.887 -27.394 0.887 -27.394 0.46 62.442
26231.292 0.46 62.42 0.886 -27.417 0.886 -27.417 0.46 62.42
26256.25 0.461 62.397 0.886 -27.44 0.886 -27.44 0.461 62.397
26281.208 0.461 62.374 0.886 -27.463 0.886 -27.463 0.461 62.374
26306.167 0.462 62.352 0.886 -27.485 0.886 -27.485 0.462 62.352
26331.125 0.462 62.329 0.886 -27.508 0.886 -27.508 0.462 62.329
26356.083 0.462 62.307 0.885 -27.531 0.885 -27.531 0.462 62.307
26381.042 0.463 62.284 0.885 -27.554 0.885 -27.554 0.463 62.284
26406 0.463 62.261 0.885 -27.576 0.885 -27.576 0.463 62.261
26430.958 0.463 62.239 0.885 -27.599 0.885 -27.599 0.463 62.239
26455.917 0.464 62.216 0.885 -27.622 0.885 -27.622 0.464 62.216
26480.875 0.464 62.194 0.885 -27.645 0.885 -27.645 0.464 62.194
26505.833 0.464 62.171 0.884 -27.667 0.884 -27.667 0.464 62.171
26530.792 0.465 62.149 0.884 -27.69 0.884 -27.69 0.465 62.149
26555.75 0.465 62.126 0.884 -27.713 0.884 -27.713 0.465 62.126
26580.708 0.465 62.104 0.884 -27.735 0.884 -27.735 0.465 62.104
26605.667 0.466 62.081 0.884 -27.758 0.884 -27.758 0.466 62.081
26630.625 0.466 62.059 0.883 -27.781 0.883 -27.781 0.466 62.059
26655.583 0.466 62.036 0.883 -27.803 0.883 -27.803 0.466 62.036
26680.542 0.467 62.014 0.883 -27.826 0.883 -27.826 0.467 62.014
26705.5 0.467 61.991 0.883 -27.849 0.883 -27.849 0.467 61.991
26730.458 0.467 61.969 0.883 -27.871 0.883 -27.871 0.467 61.969
26755.417 0.468 61.946 0.883 -27.894 0.883 -27.894 0.468 61.946
26780.375 0.468 61.924 0.882 -27.916 0.882 -27.916 0.468 61.924
26805.333 0.469 61.901 0.882 -27.939 0.882 -27.939 0.469 61.901
26830.292 0.469 61.879 0.882 -27.961 0.882 -27.961 0.469 61.879
26855.25 0.469 61.857 0.882 -27.984 0.882 -27.984 0.469 61.857
26880.208 0.47 61.834 0.882 -28.007 0.882 -28.007 0.47 61.834
26905.167 0.47 61.812 0.881 -28.029 0.881 -28.029 0.47 61.812
26930.125 0.47 61.789 0.881 -28.052 0.881 -28.052 0.47 61.789
26955.083 0.471 61.767 0.881 -28.074 0.881 -28.074 0.471 61.767
26980.042 0.471 61.745 0.881 -28.097 0.881 -28.097 0.471 61.745
27005 0.471 61.722 0.881 -28.119 0.881 -28.119 0.471 61.722
27029.958 0.472 61.7 0.88 -28.142 0.88 -28.142 0.472 61.7
27054.917 0.472 61.678 0.88 -28.164 0.88 -28.164 0.472 61.678
27079.875 0.472 61.655 0.88 -28.187 0.88 -28.187 0.472 61.655
27104.833 0.473 61.633 0.88 -28.209 0.88 -28.209 0.473 61.633
27129.792 0.473 61.611 0.88 -28.232 0.88 -28.232 0.473 61.611
27154.75 0.473 61.588 0.88 -28.254 0.88 -28.254 0.473 61.588
27179.708 0.474 61.566 0.879 -28.276 0.879 -28.276 0.474 61.566
27204.667 0.474 61.544 0.879 -28.299 0.879 -28.299 0.474 61.544
27229.625 0.474 61.522 0.879 -28.321 0.879 -28.321 0.474 61.522
27254.583 0.475 61.499 0.879 -28.344 0.879 -28.344 0.475 61.499
27279.542 0.475 61.477 0.879 -28.366 0.879 -28.366 0.475 61.477
27304.5 0.475 61.455 0.878 -28.388 0.878 -28.388 0.475 61.455
27329.458 0.476 61.433 0.878 -28.411 0.878 -28.411 0.476 61.433
27354.417 0.476 61.41 0.878 -28.433 0.878 -28.433 0.476 61.41
27379.375 0.476 61.388 0.878 -28.456 0.878 -28.456 0.476 61.388
27404.333 0.477 61.366 0.878 -28.478 0.878 -28.478 0.477 61.366
27429.292 0.477 61.344 0.878 -28.5 0.878 -28.5 0.477 61.344
27454.25 0.478 61.322 0.877 -28.523 0.877 -28.523 0.478 61.322
27479.208 0.478 61.299 0.877 -28.545 0.877 -28.545 0.478 61.299
27504.167 0.478 61.277 0.877 -28.567 0.877 -28.567 0.478 61.277
27529.125 0.479 61.255 0.877 -28.589 0.877 -28.589 0.479 61.255
27554.083 0.479 61.233 0.877 -28.612 0.877 -28.612 0.479 61.233
27579.042 0.479 61.211 0.876 -28.634 0.876 -28.634 0.479 61.211
27604 0.48 61.189 0.876 -28.656 0.876 -28.656 0.48 61.189
27628.958 0.48 61.167 0.876 -28.679 0.876 -28.679 0.48 61.167
27653.917 0.48 61.145 0.876 -28.701 0.876 -28.701 0.48 61.145
27678.875 0.481 61.122 0.876 -28.723 0.876 -28.723 0.481 61.122
27703.833 0.481 61.1 0.875 -28.745 0.875 -28.745 0.481 61.1
27728.792 0.481 61.078 0.875 -28.767 0.875 -28.767 0.481 61.078
27753.75 0.482 61.056 0.875 -28.79 0.875 -28.79 0.482 61.056
27778.708 0.482 61.034 0.875 -28.812 0.875 -28.812 0.482 61.034
27803.667 0.482 61.012 0.875 -28.834 0.875 -28.834 0.482 61.012
27828.625 0.483 60.99 0.875 -28.856 0.875 -28.856 0.483 60.99
27853.583 0.483 60.968 0.874 -28.878 0.874 -28.878 0.483 60.968
27878.542 0.483 60.946 0.874 -28.901 0.874 -28.901 0.483 60.946
27903.5 0.484 60.924 0.874 -28.923 0.874 -28.923 0.484 60.924
27928.458 0.484 60.902 0.874 -28.945 0.874 -28.945 0.484 60.902
27953.417 0.484 60.88 0.874 -28.967 0.874 -28.967 0.484 60.88
27978.375 0.485 60.858 0.873 -28.989 0.873 -28.989 0.485 60.858
28003.333 0.485 60.836 0.873 -29.011 0.873 -29.011 0.485 60.836
28028.292 0.485 60.814 0.873 -29.033 0.873 -29.033 0.485 60.814
28053.25 0.486 60.792 0.873 -29.055 0.873 -29.055 0.486 60.792
28078.208 0.486 60.77 0.873 -29.077 0.873 -29.077 0.486 60.77
28103.167 0.486 60.748 0.872 -29.099 0.872 -29.099 0.486 60.748
28128.125 0.487 60.726 0.872 -29.122 0.872 -29.122 0.487 60.726
28153.083 0.487 60.705 0.872 -29.144 0.872 -29.144 0.487 60.705
28178.042 0.487 60.683 0.872 -29.166 0.872 -29.166 0.487 60.683
28203 0.488 60.661 0.872 -29.188 0.872 -29.188 0.488 60.661
28227.958 0.488 60.639 0.872 -29.21 0.872 -29.21 0.488 60.639
28252.917 0.488 60.617 0.871 -29.232 0.871 -29.232 0.488 60.617
28277.875 0.489 60.595 0.871 -29.254 0.871 -29.254 0.489 60.595
28302.833 0.489 60.573 0.871 -29.276 0.871 -29.276 0.489 60.573
28327.792 0.489 60.551 0.871 -29.298 0.871 -29.298 0.489 60.551
28352.75 0.49 60.53 0.871 -29.32 0.871 -29.32 0.49 60.53
28377.708 0.49 60.508 0.87 -29.342 0.87 -29.342 0.49 60.508
28402.667 0.49 60.486 0.87 -29.364 0.87 -29.364 0.49 60.486
28427.625 0.491 60.464 0.87 -29.385 0.87 -29.385 0.491 60.464
28452.583 0.491 60.442 0.87 -29.407 0.87 -29.407 0.491 60.442
28477.542 0.491 60.421 0.87 -29.429 0.87 -29.429 0.491 60.421
28502.5 0.492 60.399 0.869 -29.451 0.869 -29.451 0.492 60.399
28527.458 0.492 60.377 0.869 -29.473 0.869 -29.473 0.492 60.377
28552.417 0.492 60.355 0.869 -29.495 0.869 -29.495 0.492 60.355
28577.375 0.493 60.334 0.869 -29.517 0.869 -29.517 0.493 60.334
28602.333 0.493 60.312 0.869 -29.539 0.869 -29.539 0.493 60.312
28627.292 0.493 60.29 0.869 -29.561 0.869 -29.561 0.493 60.29
28652.25 0.494 60.268 0.868 -29.582 0.868 -29.582 0.494 60.268
28677.208 0.494 60.247 0.868 -29.604 0.868 -29.604 0.494 60.247
28702.167 0.494 60.225 0.868 -29.626 0.868 -29.626 0.494 60.225
28727.125 0.495 60.203 0.868 -29.648 0.868 -29.648 0.495 60.203
28752.083 0.495 60.182 0.868 -29.67 0.868 -29.67 0.495 60.182
28777.042 0.495 60.16 0.867 -29.692 0.867 -29.692 0.495 60.16
28802 0.496 60.138 0.867 -29.713 0.867 -29.713 0.496 60.138
28826.958 0.496 60.117 0.867 -29.735 0.867 -29.735 0.496 60.117
28851.917 0.496 60.095 0.867 -29.757 0.867 -29.757 0.496 60.095
28876.875 0.497 60.073 0.867 -29.779 0.867 -29.779 0.497 60.073
28901.833 0.497 60.052 0.866 -29.8 0.866 -29.8 0.497 60.052
28926.792 0.497 60.03 0.866 -29.822 0.866 -29.822 0.497 60.03
28951.75 0.498 60.008 0.866 -29.844 0.866 -29.844 0.498 60.008
28976.708 0.498 59.987 0.866 -29.866 0.866 -29.866 0.498 59.987
29001.667 0.498 59.965 0.866 -29.887 0.866 -29.887 0.498 59.965
29026.625 0.499 59.944 0.866 -29.909 0.866 -29.909 0.499 59.944
29051.583 0.499 59.922 0.865 -29.931 0.865 -29.931 0.499 59.922
29076.542 0.499 59.901 0.865 -29.952 0.865 -29.952 0.499 59.901
29101.5 0.5 59.879 0.865 -29.974 0.865 -29.974 0.5 59.879
29126.458 0.5 59.858 0.865 -29.996 0.865 -29.996 0.5 59.858
29151.417 0.5 59.836 0.865 -30.017 0.865 -30.017 0.5 59.836
29176.375 0.501 59.814 0.864 -30.039 0.864 -30.039 0.501 59.814
29201.333 0.501 59.793 0.864 -30.061 0.864 -30.061 0.501 59.793
29226.292 0.501 59.771 0.864 -30.082 0.864 -30.082 0.501 59.771
29251.25 0.502 59.75 0.864 -30.104 0.864 -30.104 0.502 59.75
29276.208 0.502 59.728 0.864 -30.126 0.864 -30.126 0.502 59.728
29301.167 0.502 59.707 0.863 -30.147 0.863 -30.147 0.502 59.707
29326.125 0.503 59.686 0.863 -30.169 0.863 -30.169 0.503 59.686
29351.083 0.503 59.664 0.863 -30.19 0.863 -30.19 0.503 59.664
29376.042 0.503 59.643 0.863 -30.212 0.863 -30.212 0.503 59.643
29401 0.504 59.621 0.863 -30.233 0.863 -30.233 0.504 59.621
29425.958 0.504 59.6 0.863 -30.255 0.863 -30.255 0.504 59.6
29450.917 0.504 59.578 0.862 -30.277 0.862 -30.277 0.504 59.578
29475.875 0.504 59.557 0.862 -30.298 0.862 -30.298 0.504 59.557
29500.833 0.505 59.536 0.862 -30.32 0.862 -30.32 0.505 59.536
29525.792 0.505 59.514 0.862 -30.341 0.862 -30.341 0.505 59.514
29550.75 0.505 59.493 0.862 -30.363 0.862 -30.363 0.505 59.493
29575.708 0.506 59.471 0.861 -30.384 0.861 -30.384 0.506 59.471
29600.667 0.506 59.45 0.861 -30.406 0.861 -30.406 0.506 59.45
29625.625 0.506 59.429 0.861 -30.427 0.861 -30.427 0.506 59.429
29650.583 0.507 59.407 0.861 -30.448 0.861 -30.448 0.507 59.407
29675.542 0.507 59.386 0.861 -30.47 0.861 -30.47 0.507 59.386
29700.5 0.507 59.365 0.86 -30.491 0.86 -30.491 0.507 59.365
29725.458 0.508 59.344 0.86 -30.513 0.86 -30.513 0.508 59.344
29750.417 0.508 59.322 0.86 -30.534 0.86 -30.534 0.508 59.322
29775.375 0.508 59.301 0.86 -30.556 0.86 -30.556 0.508 59.301
29800.333 0.509 59.28 0.86 -30.577 0.86 -30.577 0.509 59.28
29825.292 0.509 59.258 0.859 -30.598 0.859 -30.598 0.509 59.258
29850.25 0.509 59.237 0.859 -30.62 0.859 -30.62 0.509 59.237
29875.208 0.51 59.216 0.859 -30.641 0.859 -30.641 0.51 59.216
29900.167 0.51 59.195 0.859 -30.663 0.859 -30.663 0.51 59.195
29925.125 0.51 59.173 0.859 -30.684 0.859 -30.684 0.51 59.173
29950.083 0.511 59.152 0.859 -30.705 0.859 -30.705 0.511 59.152
29975.042 0.511 59.131 0.858 -30.727 0.858 -30.727 0.511 59.131
30000 0.511 59.11 0.858 -30.748 0.858 -30.748 0.511 59.11
