!	AVX Thin Film Operation 	Date: April 2014		
!	Description: Accu-P® Series, Thin Film  SMD RF Capacitor
!	Part Number: 02015J1R4PBSTR					
!								
# MHZ S MA R 50

50 0.999 -2.518 0.044 87.472 0.044 87.472 0.999 -2.518
74.958 0.998 -3.773 0.066 86.213 0.066 86.213 0.998 -3.773
99.917 0.996 -5.024 0.088 84.957 0.088 84.957 0.996 -5.024
124.875 0.994 -6.27 0.109 83.705 0.109 83.705 0.994 -6.27
149.833 0.991 -7.511 0.131 82.46 0.131 82.46 0.991 -7.511
174.792 0.988 -8.745 0.152 81.221 0.152 81.221 0.988 -8.745
199.75 0.985 -9.972 0.173 79.989 0.173 79.989 0.985 -9.972
224.708 0.981 -11.19 0.194 78.766 0.194 78.766 0.981 -11.19
249.667 0.976 -12.399 0.215 77.553 0.215 77.553 0.976 -12.399
274.625 0.972 -13.597 0.235 76.349 0.235 76.349 0.972 -13.597
299.583 0.967 -14.784 0.255 75.158 0.255 75.158 0.967 -14.784
324.542 0.961 -15.959 0.275 73.978 0.275 73.978 0.961 -15.959
349.5 0.955 -17.121 0.294 72.81 0.294 72.81 0.955 -17.121
374.458 0.949 -18.27 0.314 71.657 0.314 71.657 0.949 -18.27
399.417 0.943 -19.405 0.332 70.517 0.332 70.517 0.943 -19.405
424.375 0.936 -20.526 0.351 69.391 0.351 69.391 0.936 -20.526
449.333 0.929 -21.631 0.369 68.281 0.369 68.281 0.929 -21.631
474.292 0.922 -22.721 0.386 67.186 0.386 67.186 0.922 -22.721
499.25 0.914 -23.795 0.403 66.107 0.403 66.107 0.914 -23.795
524.208 0.907 -24.853 0.42 65.044 0.42 65.044 0.907 -24.853
549.167 0.899 -25.894 0.437 63.998 0.437 63.998 0.899 -25.894
574.125 0.891 -26.919 0.453 62.968 0.453 62.968 0.891 -26.919
599.083 0.883 -27.927 0.468 61.956 0.468 61.956 0.883 -27.927
624.042 0.874 -28.918 0.484 60.96 0.484 60.96 0.874 -28.918
649 0.866 -29.891 0.498 59.981 0.498 59.981 0.866 -29.891
673.958 0.857 -30.848 0.513 59.02 0.513 59.02 0.857 -30.848
698.917 0.849 -31.787 0.527 58.075 0.527 58.075 0.849 -31.787
723.875 0.84 -32.709 0.54 57.148 0.54 57.148 0.84 -32.709
748.833 0.831 -33.615 0.554 56.238 0.554 56.238 0.831 -33.615
773.792 0.823 -34.503 0.566 55.345 0.566 55.345 0.823 -34.503
798.75 0.814 -35.374 0.579 54.469 0.579 54.469 0.814 -35.374
823.708 0.805 -36.228 0.591 53.609 0.591 53.609 0.805 -36.228
848.667 0.796 -37.066 0.603 52.767 0.603 52.767 0.796 -37.066
873.625 0.787 -37.887 0.614 51.94 0.614 51.94 0.787 -37.887
898.583 0.779 -38.692 0.625 51.13 0.625 51.13 0.779 -38.692
923.542 0.77 -39.481 0.636 50.336 0.636 50.336 0.77 -39.481
948.5 0.761 -40.255 0.646 49.557 0.646 49.557 0.761 -40.255
973.458 0.752 -41.012 0.656 48.795 0.656 48.795 0.752 -41.012
998.417 0.744 -41.755 0.666 48.047 0.666 48.047 0.744 -41.755
1023.375 0.735 -42.482 0.675 47.315 0.675 47.315 0.735 -42.482
1048.333 0.727 -43.195 0.684 46.597 0.684 46.597 0.727 -43.195
1073.292 0.718 -43.893 0.693 45.894 0.693 45.894 0.718 -43.893
1098.25 0.71 -44.577 0.702 45.204 0.702 45.204 0.71 -44.577
1123.208 0.701 -45.247 0.71 44.529 0.71 44.529 0.701 -45.247
1148.167 0.693 -45.903 0.718 43.868 0.718 43.868 0.693 -45.903
1173.125 0.685 -46.546 0.726 43.22 0.726 43.22 0.685 -46.546
1198.083 0.677 -47.175 0.733 42.585 0.733 42.585 0.677 -47.175
1223.042 0.669 -47.792 0.741 41.963 0.741 41.963 0.669 -47.792
1248 0.661 -48.397 0.748 41.353 0.748 41.353 0.661 -48.397
1272.958 0.653 -48.989 0.755 40.756 0.755 40.756 0.653 -48.989
1297.917 0.645 -49.569 0.761 40.17 0.761 40.17 0.645 -49.569
1322.875 0.637 -50.137 0.768 39.597 0.768 39.597 0.637 -50.137
1347.833 0.63 -50.694 0.774 39.034 0.774 39.034 0.63 -50.694
1372.792 0.622 -51.24 0.78 38.483 0.78 38.483 0.622 -51.24
1397.75 0.615 -51.775 0.786 37.943 0.786 37.943 0.615 -51.775
1422.708 0.608 -52.299 0.791 37.413 0.791 37.413 0.608 -52.299
1447.667 0.6 -52.813 0.797 36.894 0.797 36.894 0.6 -52.813
1472.625 0.593 -53.316 0.802 36.385 0.802 36.385 0.593 -53.316
1497.583 0.586 -53.81 0.807 35.885 0.807 35.885 0.586 -53.81
1522.542 0.579 -54.294 0.812 35.396 0.812 35.396 0.579 -54.294
1547.5 0.572 -54.769 0.817 34.915 0.817 34.915 0.572 -54.769
1572.458 0.566 -55.234 0.822 34.444 0.822 34.444 0.566 -55.234
1597.417 0.559 -55.691 0.826 33.982 0.826 33.982 0.559 -55.691
1622.375 0.552 -56.139 0.83 33.529 0.83 33.529 0.552 -56.139
1647.333 0.546 -56.578 0.835 33.083 0.835 33.083 0.546 -56.578
1672.292 0.539 -57.009 0.839 32.647 0.839 32.647 0.539 -57.009
1697.25 0.533 -57.432 0.843 32.218 0.843 32.218 0.533 -57.432
1722.208 0.527 -57.847 0.847 31.797 0.847 31.797 0.527 -57.847
1747.167 0.521 -58.255 0.85 31.384 0.85 31.384 0.521 -58.255
1772.125 0.515 -58.655 0.854 30.978 0.854 30.978 0.515 -58.655
1797.083 0.509 -59.047 0.858 30.58 0.858 30.58 0.509 -59.047
1822.042 0.503 -59.433 0.861 30.189 0.861 30.189 0.503 -59.433
1847 0.497 -59.811 0.864 29.804 0.864 29.804 0.497 -59.811
1871.958 0.491 -60.183 0.868 29.427 0.868 29.427 0.491 -60.183
1896.917 0.486 -60.548 0.871 29.056 0.871 29.056 0.486 -60.548
1921.875 0.48 -60.906 0.874 28.691 0.874 28.691 0.48 -60.906
1946.833 0.475 -61.258 0.877 28.333 0.877 28.333 0.475 -61.258
1971.792 0.469 -61.604 0.88 27.981 0.88 27.981 0.469 -61.604
1996.75 0.464 -61.945 0.883 27.635 0.883 27.635 0.464 -61.945
2021.708 0.459 -62.279 0.885 27.294 0.885 27.294 0.459 -62.279
2046.667 0.453 -62.607 0.888 26.959 0.888 26.959 0.453 -62.607
2071.625 0.448 -62.93 0.89 26.63 0.89 26.63 0.448 -62.93
2096.583 0.443 -63.248 0.893 26.306 0.893 26.306 0.443 -63.248
2121.542 0.438 -63.56 0.895 25.988 0.895 25.988 0.438 -63.56
2146.5 0.433 -63.867 0.898 25.674 0.898 25.674 0.433 -63.867
2171.458 0.428 -64.169 0.9 25.366 0.9 25.366 0.428 -64.169
2196.417 0.424 -64.466 0.902 25.063 0.902 25.063 0.424 -64.466
2221.375 0.419 -64.758 0.905 24.764 0.905 24.764 0.419 -64.758
2246.333 0.414 -65.046 0.907 24.47 0.907 24.47 0.414 -65.046
2271.292 0.41 -65.329 0.909 24.18 0.909 24.18 0.41 -65.329
2296.25 0.405 -65.607 0.911 23.895 0.911 23.895 0.405 -65.607
2321.208 0.401 -65.881 0.913 23.615 0.913 23.615 0.401 -65.881
2346.167 0.396 -66.151 0.915 23.338 0.915 23.338 0.396 -66.151
2371.125 0.392 -66.417 0.917 23.066 0.917 23.066 0.392 -66.417
2396.083 0.387 -66.678 0.918 22.798 0.918 22.798 0.387 -66.678
2421.042 0.383 -66.935 0.92 22.534 0.92 22.534 0.383 -66.935
2446 0.379 -67.189 0.922 22.273 0.922 22.273 0.379 -67.189
2470.958 0.375 -67.439 0.924 22.016 0.924 22.016 0.375 -67.439
2495.917 0.371 -67.685 0.925 21.763 0.925 21.763 0.371 -67.685
2520.875 0.367 -67.927 0.927 21.514 0.927 21.514 0.367 -67.927
2545.833 0.363 -68.166 0.928 21.268 0.928 21.268 0.363 -68.166
2570.792 0.359 -68.401 0.93 21.026 0.93 21.026 0.359 -68.401
2595.75 0.355 -68.633 0.931 20.787 0.931 20.787 0.355 -68.633
2620.708 0.351 -68.861 0.933 20.551 0.933 20.551 0.351 -68.861
2645.667 0.347 -69.086 0.934 20.319 0.934 20.319 0.347 -69.086
2670.625 0.344 -69.308 0.936 20.089 0.936 20.089 0.344 -69.308
2695.583 0.34 -69.527 0.937 19.863 0.937 19.863 0.34 -69.527
2720.542 0.336 -69.743 0.938 19.64 0.938 19.64 0.336 -69.743
2745.5 0.333 -69.956 0.939 19.419 0.939 19.419 0.333 -69.956
2770.458 0.329 -70.165 0.941 19.202 0.941 19.202 0.329 -70.165
2795.417 0.325 -70.372 0.942 18.987 0.942 18.987 0.325 -70.372
2820.375 0.322 -70.576 0.943 18.776 0.943 18.776 0.322 -70.576
2845.333 0.318 -70.778 0.944 18.566 0.944 18.566 0.318 -70.778
2870.292 0.315 -70.976 0.945 18.36 0.945 18.36 0.315 -70.976
2895.25 0.312 -71.172 0.947 18.156 0.947 18.156 0.312 -71.172
2920.208 0.308 -71.365 0.948 17.955 0.948 17.955 0.308 -71.365
2945.167 0.305 -71.556 0.949 17.756 0.949 17.756 0.305 -71.556
2970.125 0.302 -71.744 0.95 17.559 0.95 17.559 0.302 -71.744
2995.083 0.298 -71.93 0.951 17.365 0.951 17.365 0.298 -71.93
3020.042 0.295 -72.113 0.952 17.174 0.952 17.174 0.295 -72.113
3045 0.292 -72.294 0.953 16.984 0.953 16.984 0.292 -72.294
3069.958 0.289 -72.473 0.954 16.797 0.954 16.797 0.289 -72.473
3094.917 0.286 -72.649 0.955 16.612 0.955 16.612 0.286 -72.649
3119.875 0.283 -72.824 0.955 16.429 0.955 16.429 0.283 -72.824
3144.833 0.28 -72.996 0.956 16.248 0.956 16.248 0.28 -72.996
3169.792 0.277 -73.165 0.957 16.07 0.957 16.07 0.277 -73.165
3194.75 0.274 -73.333 0.958 15.893 0.958 15.893 0.274 -73.333
3219.708 0.271 -73.499 0.959 15.718 0.959 15.718 0.271 -73.499
3244.667 0.268 -73.662 0.96 15.546 0.96 15.546 0.268 -73.662
3269.625 0.265 -73.824 0.961 15.375 0.961 15.375 0.265 -73.824
3294.583 0.262 -73.983 0.961 15.206 0.961 15.206 0.262 -73.983
3319.542 0.26 -74.141 0.962 15.039 0.962 15.039 0.26 -74.141
3344.5 0.257 -74.297 0.963 14.874 0.963 14.874 0.257 -74.297
3369.458 0.254 -74.451 0.964 14.71 0.964 14.71 0.254 -74.451
3394.417 0.251 -74.603 0.964 14.548 0.964 14.548 0.251 -74.603
3419.375 0.249 -74.753 0.965 14.388 0.965 14.388 0.249 -74.753
3444.333 0.246 -74.901 0.966 14.23 0.966 14.23 0.246 -74.901
3469.292 0.243 -75.048 0.966 14.073 0.966 14.073 0.243 -75.048
3494.25 0.241 -75.193 0.967 13.918 0.967 13.918 0.241 -75.193
3519.208 0.238 -75.336 0.968 13.764 0.968 13.764 0.238 -75.336
3544.167 0.235 -75.478 0.968 13.612 0.968 13.612 0.235 -75.478
3569.125 0.233 -75.618 0.969 13.462 0.969 13.462 0.233 -75.618
3594.083 0.23 -75.756 0.969 13.313 0.969 13.313 0.23 -75.756
3619.042 0.228 -75.893 0.97 13.165 0.97 13.165 0.228 -75.893
3644 0.225 -76.028 0.971 13.019 0.971 13.019 0.225 -76.028
3668.958 0.223 -76.162 0.971 12.874 0.971 12.874 0.223 -76.162
3693.917 0.22 -76.294 0.972 12.731 0.972 12.731 0.22 -76.294
3718.875 0.218 -76.424 0.972 12.589 0.972 12.589 0.218 -76.424
3743.833 0.216 -76.553 0.973 12.449 0.973 12.449 0.216 -76.553
3768.792 0.213 -76.681 0.973 12.309 0.973 12.309 0.213 -76.681
3793.75 0.211 -76.807 0.974 12.171 0.974 12.171 0.211 -76.807
3818.708 0.209 -76.932 0.974 12.035 0.974 12.035 0.209 -76.932
3843.667 0.206 -77.055 0.975 11.899 0.975 11.899 0.206 -77.055
3868.625 0.204 -77.177 0.975 11.765 0.975 11.765 0.204 -77.177
3893.583 0.202 -77.298 0.976 11.632 0.976 11.632 0.202 -77.298
3918.542 0.199 -77.417 0.976 11.5 0.976 11.5 0.199 -77.417
3943.5 0.197 -77.535 0.977 11.369 0.977 11.369 0.197 -77.535
3968.458 0.195 -77.652 0.977 11.24 0.977 11.24 0.195 -77.652
3993.417 0.193 -77.767 0.977 11.111 0.977 11.111 0.193 -77.767
4018.375 0.191 -77.881 0.978 10.984 0.978 10.984 0.191 -77.881
4043.333 0.188 -77.994 0.978 10.858 0.978 10.858 0.188 -77.994
4068.292 0.186 -78.105 0.979 10.733 0.979 10.733 0.186 -78.105
4093.25 0.184 -78.215 0.979 10.609 0.979 10.609 0.184 -78.215
4118.208 0.182 -78.324 0.98 10.486 0.98 10.486 0.182 -78.324
4143.167 0.18 -78.432 0.98 10.364 0.98 10.364 0.18 -78.432
4168.125 0.178 -78.538 0.98 10.243 0.98 10.243 0.178 -78.538
4193.083 0.176 -78.643 0.981 10.123 0.981 10.123 0.176 -78.643
4218.042 0.174 -78.747 0.981 10.004 0.981 10.004 0.174 -78.747
4243 0.172 -78.85 0.981 9.886 0.981 9.886 0.172 -78.85
4267.958 0.17 -78.952 0.982 9.769 0.982 9.769 0.17 -78.952
4292.917 0.168 -79.052 0.982 9.652 0.982 9.652 0.168 -79.052
4317.875 0.166 -79.152 0.982 9.537 0.982 9.537 0.166 -79.152
4342.833 0.164 -79.25 0.983 9.423 0.983 9.423 0.164 -79.25
4367.792 0.162 -79.347 0.983 9.309 0.983 9.309 0.162 -79.347
4392.75 0.16 -79.443 0.983 9.196 0.983 9.196 0.16 -79.443
4417.708 0.158 -79.538 0.984 9.085 0.984 9.085 0.158 -79.538
4442.667 0.156 -79.631 0.984 8.974 0.984 8.974 0.156 -79.631
4467.625 0.154 -79.724 0.984 8.864 0.984 8.864 0.154 -79.724
4492.583 0.152 -79.815 0.985 8.754 0.985 8.754 0.152 -79.815
4517.542 0.15 -79.905 0.985 8.646 0.985 8.646 0.15 -79.905
4542.5 0.149 -79.994 0.985 8.538 0.985 8.538 0.149 -79.994
4567.458 0.147 -80.083 0.985 8.431 0.985 8.431 0.147 -80.083
4592.417 0.145 -80.169 0.986 8.325 0.986 8.325 0.145 -80.169
4617.375 0.143 -80.255 0.986 8.22 0.986 8.22 0.143 -80.255
4642.333 0.141 -80.34 0.986 8.115 0.986 8.115 0.141 -80.34
4667.292 0.139 -80.424 0.986 8.011 0.986 8.011 0.139 -80.424
4692.25 0.138 -80.506 0.987 7.908 0.987 7.908 0.138 -80.506
4717.208 0.136 -80.587 0.987 7.806 0.987 7.806 0.136 -80.587
4742.167 0.134 -80.668 0.987 7.704 0.987 7.704 0.134 -80.668
4767.125 0.132 -80.747 0.987 7.603 0.987 7.603 0.132 -80.747
4792.083 0.131 -80.825 0.988 7.503 0.988 7.503 0.131 -80.825
4817.042 0.129 -80.902 0.988 7.403 0.988 7.403 0.129 -80.902
4842 0.127 -80.977 0.988 7.304 0.988 7.304 0.127 -80.977
4866.958 0.125 -81.052 0.988 7.206 0.988 7.206 0.125 -81.052
4891.917 0.124 -81.126 0.988 7.108 0.988 7.108 0.124 -81.126
4916.875 0.122 -81.198 0.989 7.011 0.989 7.011 0.122 -81.198
4941.833 0.12 -81.269 0.989 6.915 0.989 6.915 0.12 -81.269
4966.792 0.119 -81.339 0.989 6.819 0.989 6.819 0.119 -81.339
4991.75 0.117 -81.408 0.989 6.724 0.989 6.724 0.117 -81.408
5016.708 0.116 -81.476 0.989 6.629 0.989 6.629 0.116 -81.476
5041.667 0.114 -81.542 0.99 6.535 0.99 6.535 0.114 -81.542
5066.625 0.112 -81.608 0.99 6.442 0.99 6.442 0.112 -81.608
5091.583 0.111 -81.672 0.99 6.349 0.99 6.349 0.111 -81.672
5116.542 0.109 -81.735 0.99 6.256 0.99 6.256 0.109 -81.735
5141.5 0.107 -81.796 0.99 6.165 0.99 6.165 0.107 -81.796
5166.458 0.106 -81.857 0.991 6.074 0.991 6.074 0.106 -81.857
5191.417 0.104 -81.916 0.991 5.983 0.991 5.983 0.104 -81.916
5216.375 0.103 -81.973 0.991 5.893 0.991 5.893 0.103 -81.973
5241.333 0.101 -82.03 0.991 5.804 0.991 5.804 0.101 -82.03
5266.292 0.1 -82.085 0.991 5.715 0.991 5.715 0.1 -82.085
5291.25 0.098 -82.138 0.991 5.626 0.991 5.626 0.098 -82.138
5316.208 0.097 -82.191 0.992 5.538 0.992 5.538 0.097 -82.191
5341.167 0.095 -82.242 0.992 5.451 0.992 5.451 0.095 -82.242
5366.125 0.094 -82.291 0.992 5.364 0.992 5.364 0.094 -82.291
5391.083 0.092 -82.339 0.992 5.277 0.992 5.277 0.092 -82.339
5416.042 0.091 -82.385 0.992 5.191 0.992 5.191 0.091 -82.385
5441 0.089 -82.43 0.992 5.106 0.992 5.106 0.089 -82.43
5465.958 0.088 -82.473 0.992 5.021 0.992 5.021 0.088 -82.473
5490.917 0.086 -82.514 0.992 4.936 0.992 4.936 0.086 -82.514
5515.875 0.085 -82.554 0.993 4.852 0.993 4.852 0.085 -82.554
5540.833 0.083 -82.592 0.993 4.769 0.993 4.769 0.083 -82.592
5565.792 0.082 -82.628 0.993 4.685 0.993 4.685 0.082 -82.628
5590.75 0.08 -82.663 0.993 4.603 0.993 4.603 0.08 -82.663
5615.708 0.079 -82.695 0.993 4.52 0.993 4.52 0.079 -82.695
5640.667 0.077 -82.725 0.993 4.439 0.993 4.439 0.077 -82.725
5665.625 0.076 -82.754 0.993 4.357 0.993 4.357 0.076 -82.754
5690.583 0.075 -82.78 0.993 4.276 0.993 4.276 0.075 -82.78
5715.542 0.073 -82.804 0.993 4.196 0.993 4.196 0.073 -82.804
5740.5 0.072 -82.825 0.994 4.116 0.994 4.116 0.072 -82.825
5765.458 0.07 -82.844 0.994 4.036 0.994 4.036 0.07 -82.844
5790.417 0.069 -82.861 0.994 3.956 0.994 3.956 0.069 -82.861
5815.375 0.068 -82.875 0.994 3.878 0.994 3.878 0.068 -82.875
5840.333 0.066 -82.887 0.994 3.799 0.994 3.799 0.066 -82.887
5865.292 0.065 -82.895 0.994 3.721 0.994 3.721 0.065 -82.895
5890.25 0.064 -82.901 0.994 3.643 0.994 3.643 0.064 -82.901
5915.208 0.062 -82.903 0.994 3.566 0.994 3.566 0.062 -82.903
5940.167 0.061 -82.902 0.994 3.489 0.994 3.489 0.061 -82.902
5965.125 0.06 -82.898 0.994 3.412 0.994 3.412 0.06 -82.898
5990.083 0.058 -82.89 0.994 3.336 0.994 3.336 0.058 -82.89
6015.042 0.057 -82.878 0.995 3.26 0.995 3.26 0.057 -82.878
6040 0.056 -82.862 0.995 3.184 0.995 3.184 0.056 -82.862
6064.958 0.054 -82.841 0.995 3.109 0.995 3.109 0.054 -82.841
6089.917 0.053 -82.816 0.995 3.034 0.995 3.034 0.053 -82.816
6114.875 0.052 -82.787 0.995 2.96 0.995 2.96 0.052 -82.787
6139.833 0.05 -82.752 0.995 2.886 0.995 2.886 0.05 -82.752
6164.792 0.049 -82.711 0.995 2.812 0.995 2.812 0.049 -82.711
6189.75 0.048 -82.665 0.995 2.738 0.995 2.738 0.048 -82.665
6214.708 0.047 -82.612 0.995 2.665 0.995 2.665 0.047 -82.612
6239.667 0.045 -82.553 0.995 2.592 0.995 2.592 0.045 -82.553
6264.625 0.044 -82.486 0.995 2.52 0.995 2.52 0.044 -82.486
6289.583 0.043 -82.412 0.995 2.448 0.995 2.448 0.043 -82.412
6314.542 0.042 -82.329 0.995 2.376 0.995 2.376 0.042 -82.329
6339.5 0.04 -82.237 0.995 2.304 0.995 2.304 0.04 -82.237
6364.458 0.039 -82.135 0.995 2.233 0.995 2.233 0.039 -82.135
6389.417 0.038 -82.022 0.995 2.162 0.995 2.162 0.038 -82.022
6414.375 0.037 -81.897 0.995 2.091 0.995 2.091 0.037 -81.897
6439.333 0.035 -81.76 0.996 2.021 0.996 2.021 0.035 -81.76
6464.292 0.034 -81.608 0.996 1.951 0.996 1.951 0.034 -81.608
6489.25 0.033 -81.441 0.996 1.881 0.996 1.881 0.033 -81.441
6514.208 0.032 -81.257 0.996 1.812 0.996 1.812 0.032 -81.257
6539.167 0.031 -81.054 0.996 1.743 0.996 1.743 0.031 -81.054
6564.125 0.029 -80.829 0.996 1.674 0.996 1.674 0.029 -80.829
6589.083 0.028 -80.581 0.996 1.605 0.996 1.605 0.028 -80.581
6614.042 0.027 -80.306 0.996 1.537 0.996 1.537 0.027 -80.306
6639 0.026 -80.002 0.996 1.469 0.996 1.469 0.026 -80.002
6663.958 0.025 -79.663 0.996 1.401 0.996 1.401 0.025 -79.663
6688.917 0.024 -79.286 0.996 1.333 0.996 1.333 0.024 -79.286
6713.875 0.022 -78.864 0.996 1.266 0.996 1.266 0.022 -78.864
6738.833 0.021 -78.392 0.996 1.199 0.996 1.199 0.021 -78.392
6763.792 0.02 -77.859 0.996 1.133 0.996 1.133 0.02 -77.859
6788.75 0.019 -77.258 0.996 1.066 0.996 1.066 0.019 -77.258
6813.708 0.018 -76.574 0.996 1 0.996 1 0.018 -76.574
6838.667 0.017 -75.792 0.996 0.934 0.996 0.934 0.017 -75.792
6863.625 0.016 -74.893 0.996 0.868 0.996 0.868 0.016 -74.893
6888.583 0.015 -73.85 0.996 0.803 0.996 0.803 0.015 -73.85
6913.542 0.013 -72.63 0.996 0.738 0.996 0.738 0.013 -72.63
6938.5 0.012 -71.189 0.996 0.673 0.996 0.673 0.012 -71.189
6963.458 0.011 -69.468 0.996 0.608 0.996 0.608 0.011 -69.468
6988.417 0.01 -67.384 0.996 0.543 0.996 0.543 0.01 -67.384
7013.375 9.203e-3 -64.823 0.996 0.479 0.996 0.479 9.203e-3 -64.823
7038.333 8.201e-3 -61.624 0.996 0.415 0.996 0.415 8.201e-3 -61.624
7063.292 7.237e-3 -57.551 0.996 0.351 0.996 0.351 7.237e-3 -57.551
7088.25 6.325e-3 -52.267 0.996 0.288 0.996 0.288 6.325e-3 -52.267
7113.208 5.488e-3 -45.296 0.996 0.224 0.996 0.224 5.488e-3 -45.296
7138.167 4.765e-3 -36.038 0.996 0.161 0.996 0.161 4.765e-3 -36.038
7163.125 4.211e-3 -23.96 0.996 0.098 0.996 0.098 4.211e-3 -23.96
7188.083 3.896e-3 -9.167 0.996 0.036 0.996 0.036 3.896e-3 -9.167
7213.042 3.874e-3 6.898 0.996 -0.027 0.996 -0.027 3.874e-3 6.898
7238 4.147e-3 21.906 0.996 -0.089 0.996 -0.089 4.147e-3 21.906
7262.958 4.662e-3 34.276 0.996 -0.151 0.996 -0.151 4.662e-3 34.276
7287.917 5.347e-3 43.795 0.996 -0.213 0.996 -0.213 5.347e-3 43.795
7312.875 6.142e-3 50.966 0.996 -0.274 0.996 -0.274 6.142e-3 50.966
7337.833 7.01e-3 56.396 0.996 -0.336 0.996 -0.336 7.01e-3 56.396
7362.792 7.925e-3 60.575 0.996 -0.397 0.996 -0.397 7.925e-3 60.575
7387.75 8.87e-3 63.852 0.996 -0.458 0.996 -0.458 8.87e-3 63.852
7412.708 9.837e-3 66.471 0.996 -0.519 0.996 -0.519 9.837e-3 66.471
7437.667 0.011 68.6 0.996 -0.579 0.996 -0.579 0.011 68.6
7462.625 0.012 70.358 0.996 -0.64 0.996 -0.64 0.012 70.358
7487.583 0.013 71.828 0.996 -0.7 0.996 -0.7 0.013 71.828
7512.542 0.014 73.073 0.996 -0.76 0.996 -0.76 0.014 73.073
7537.5 0.015 74.137 0.996 -0.82 0.996 -0.82 0.015 74.137
7562.458 0.016 75.056 0.996 -0.879 0.996 -0.879 0.016 75.056
7587.417 0.017 75.854 0.996 -0.939 0.996 -0.939 0.017 75.854
7612.375 0.018 76.554 0.996 -0.998 0.996 -0.998 0.018 76.554
7637.333 0.019 77.171 0.996 -1.057 0.996 -1.057 0.019 77.171
7662.292 0.02 77.717 0.996 -1.116 0.996 -1.116 0.02 77.717
7687.25 0.021 78.203 0.996 -1.175 0.996 -1.175 0.021 78.203
7712.208 0.022 78.638 0.996 -1.233 0.996 -1.233 0.022 78.638
7737.167 0.023 79.029 0.996 -1.291 0.996 -1.291 0.023 79.029
7762.125 0.024 79.38 0.996 -1.35 0.996 -1.35 0.024 79.38
7787.083 0.025 79.698 0.996 -1.408 0.996 -1.408 0.025 79.698
7812.042 0.026 79.986 0.996 -1.465 0.996 -1.465 0.026 79.986
7837 0.027 80.247 0.996 -1.523 0.996 -1.523 0.027 80.247
7861.958 0.028 80.485 0.996 -1.581 0.996 -1.581 0.028 80.485
7886.917 0.029 80.702 0.996 -1.638 0.996 -1.638 0.029 80.702
7911.875 0.03 80.901 0.996 -1.695 0.996 -1.695 0.03 80.901
7936.833 0.031 81.082 0.996 -1.752 0.996 -1.752 0.031 81.082
7961.792 0.032 81.248 0.996 -1.809 0.996 -1.809 0.032 81.248
7986.75 0.033 81.4 0.996 -1.865 0.996 -1.865 0.033 81.4
8011.708 0.034 81.54 0.996 -1.922 0.996 -1.922 0.034 81.54
8036.667 0.035 81.669 0.996 -1.978 0.996 -1.978 0.035 81.669
8061.625 0.036 81.787 0.996 -2.034 0.996 -2.034 0.036 81.787
8086.583 0.037 81.895 0.995 -2.09 0.995 -2.09 0.037 81.895
8111.542 0.038 81.995 0.995 -2.146 0.995 -2.146 0.038 81.995
8136.5 0.039 82.086 0.995 -2.202 0.995 -2.202 0.039 82.086
8161.458 0.04 82.171 0.995 -2.257 0.995 -2.257 0.04 82.171
8186.417 0.041 82.248 0.995 -2.313 0.995 -2.313 0.041 82.248
8211.375 0.041 82.319 0.995 -2.368 0.995 -2.368 0.041 82.319
8236.333 0.042 82.384 0.995 -2.423 0.995 -2.423 0.042 82.384
8261.292 0.043 82.444 0.995 -2.478 0.995 -2.478 0.043 82.444
8286.25 0.044 82.499 0.995 -2.533 0.995 -2.533 0.044 82.499
8311.208 0.045 82.548 0.995 -2.587 0.995 -2.587 0.045 82.548
8336.167 0.046 82.594 0.995 -2.642 0.995 -2.642 0.046 82.594
8361.125 0.047 82.635 0.995 -2.696 0.995 -2.696 0.047 82.635
8386.083 0.048 82.673 0.995 -2.75 0.995 -2.75 0.048 82.673
8411.042 0.049 82.707 0.995 -2.804 0.995 -2.804 0.049 82.707
8436 0.05 82.737 0.995 -2.858 0.995 -2.858 0.05 82.737
8460.958 0.051 82.765 0.995 -2.912 0.995 -2.912 0.051 82.765
8485.917 0.052 82.789 0.995 -2.966 0.995 -2.966 0.052 82.789
8510.875 0.053 82.811 0.995 -3.019 0.995 -3.019 0.053 82.811
8535.833 0.054 82.83 0.995 -3.072 0.995 -3.072 0.054 82.83
8560.792 0.055 82.846 0.995 -3.126 0.995 -3.126 0.055 82.846
8585.75 0.056 82.86 0.995 -3.179 0.995 -3.179 0.056 82.86
8610.708 0.057 82.872 0.995 -3.232 0.995 -3.232 0.057 82.872
8635.667 0.057 82.882 0.995 -3.284 0.995 -3.284 0.057 82.882
8660.625 0.058 82.89 0.994 -3.337 0.994 -3.337 0.058 82.89
8685.583 0.059 82.896 0.994 -3.39 0.994 -3.39 0.059 82.896
8710.542 0.06 82.9 0.994 -3.442 0.994 -3.442 0.06 82.9
8735.5 0.061 82.902 0.994 -3.495 0.994 -3.495 0.061 82.902
8760.458 0.062 82.903 0.994 -3.547 0.994 -3.547 0.062 82.903
8785.417 0.063 82.902 0.994 -3.599 0.994 -3.599 0.063 82.902
8810.375 0.064 82.9 0.994 -3.651 0.994 -3.651 0.064 82.9
8835.333 0.065 82.897 0.994 -3.702 0.994 -3.702 0.065 82.897
8860.292 0.066 82.892 0.994 -3.754 0.994 -3.754 0.066 82.892
8885.25 0.066 82.886 0.994 -3.806 0.994 -3.806 0.066 82.886
8910.208 0.067 82.878 0.994 -3.857 0.994 -3.857 0.067 82.878
8935.167 0.068 82.87 0.994 -3.908 0.994 -3.908 0.068 82.87
8960.125 0.069 82.861 0.994 -3.96 0.994 -3.96 0.069 82.861
8985.083 0.07 82.85 0.994 -4.011 0.994 -4.011 0.07 82.85
9010.042 0.071 82.838 0.994 -4.062 0.994 -4.062 0.071 82.838
9035 0.072 82.826 0.994 -4.113 0.994 -4.113 0.072 82.826
9059.958 0.073 82.813 0.994 -4.163 0.994 -4.163 0.073 82.813
9084.917 0.074 82.798 0.993 -4.214 0.993 -4.214 0.074 82.798
9109.875 0.074 82.783 0.993 -4.264 0.993 -4.264 0.074 82.783
9134.833 0.075 82.768 0.993 -4.315 0.993 -4.315 0.075 82.768
9159.792 0.076 82.751 0.993 -4.365 0.993 -4.365 0.076 82.751
9184.75 0.077 82.734 0.993 -4.415 0.993 -4.415 0.077 82.734
9209.708 0.078 82.716 0.993 -4.465 0.993 -4.465 0.078 82.716
9234.667 0.079 82.697 0.993 -4.515 0.993 -4.515 0.079 82.697
9259.625 0.08 82.678 0.993 -4.565 0.993 -4.565 0.08 82.678
9284.583 0.081 82.658 0.993 -4.615 0.993 -4.615 0.081 82.658
9309.542 0.081 82.637 0.993 -4.665 0.993 -4.665 0.081 82.637
9334.5 0.082 82.616 0.993 -4.714 0.993 -4.714 0.082 82.616
9359.458 0.083 82.594 0.993 -4.763 0.993 -4.763 0.083 82.594
9384.417 0.084 82.572 0.993 -4.813 0.993 -4.813 0.084 82.572
9409.375 0.085 82.55 0.993 -4.862 0.993 -4.862 0.085 82.55
9434.333 0.086 82.526 0.992 -4.911 0.992 -4.911 0.086 82.526
9459.292 0.087 82.503 0.992 -4.96 0.992 -4.96 0.087 82.503
9484.25 0.087 82.479 0.992 -5.009 0.992 -5.009 0.087 82.479
9509.208 0.088 82.454 0.992 -5.058 0.992 -5.058 0.088 82.454
9534.167 0.089 82.429 0.992 -5.106 0.992 -5.106 0.089 82.429
9559.125 0.09 82.404 0.992 -5.155 0.992 -5.155 0.09 82.404
9584.083 0.091 82.379 0.992 -5.204 0.992 -5.204 0.091 82.379
9609.042 0.092 82.353 0.992 -5.252 0.992 -5.252 0.092 82.353
9634 0.092 82.326 0.992 -5.3 0.992 -5.3 0.092 82.326
9658.958 0.093 82.299 0.992 -5.348 0.992 -5.348 0.093 82.299
9683.917 0.094 82.272 0.992 -5.397 0.992 -5.397 0.094 82.272
9708.875 0.095 82.245 0.992 -5.445 0.992 -5.445 0.095 82.245
9733.833 0.096 82.217 0.992 -5.492 0.992 -5.492 0.096 82.217
9758.792 0.097 82.189 0.992 -5.54 0.992 -5.54 0.097 82.189
9783.75 0.097 82.161 0.991 -5.588 0.991 -5.588 0.097 82.161
9808.708 0.098 82.133 0.991 -5.636 0.991 -5.636 0.098 82.133
9833.667 0.099 82.104 0.991 -5.683 0.991 -5.683 0.099 82.104
9858.625 0.1 82.075 0.991 -5.731 0.991 -5.731 0.1 82.075
9883.583 0.101 82.046 0.991 -5.778 0.991 -5.778 0.101 82.046
9908.542 0.102 82.016 0.991 -5.825 0.991 -5.825 0.102 82.016
9933.5 0.102 81.986 0.991 -5.872 0.991 -5.872 0.102 81.986
9958.458 0.103 81.956 0.991 -5.92 0.991 -5.92 0.103 81.956
9983.417 0.104 81.926 0.991 -5.967 0.991 -5.967 0.104 81.926
10008.375 0.105 81.896 0.991 -6.013 0.991 -6.013 0.105 81.896
10033.333 0.106 81.865 0.991 -6.06 0.991 -6.06 0.106 81.865
10058.292 0.106 81.835 0.991 -6.107 0.991 -6.107 0.106 81.835
10083.25 0.107 81.804 0.99 -6.154 0.99 -6.154 0.107 81.804
10108.208 0.108 81.773 0.99 -6.2 0.99 -6.2 0.108 81.773
10133.167 0.109 81.741 0.99 -6.247 0.99 -6.247 0.109 81.741
10158.125 0.11 81.71 0.99 -6.293 0.99 -6.293 0.11 81.71
10183.083 0.11 81.678 0.99 -6.339 0.99 -6.339 0.11 81.678
10208.042 0.111 81.646 0.99 -6.386 0.99 -6.386 0.111 81.646
10233 0.112 81.614 0.99 -6.432 0.99 -6.432 0.112 81.614
10257.958 0.113 81.582 0.99 -6.478 0.99 -6.478 0.113 81.582
10282.917 0.114 81.55 0.99 -6.524 0.99 -6.524 0.114 81.55
10307.875 0.114 81.518 0.99 -6.57 0.99 -6.57 0.114 81.518
10332.833 0.115 81.485 0.99 -6.615 0.99 -6.615 0.115 81.485
10357.792 0.116 81.453 0.989 -6.661 0.989 -6.661 0.116 81.453
10382.75 0.117 81.42 0.989 -6.707 0.989 -6.707 0.117 81.42
10407.708 0.118 81.387 0.989 -6.752 0.989 -6.752 0.118 81.387
10432.667 0.118 81.354 0.989 -6.798 0.989 -6.798 0.118 81.354
10457.625 0.119 81.321 0.989 -6.843 0.989 -6.843 0.119 81.321
10482.583 0.12 81.288 0.989 -6.889 0.989 -6.889 0.12 81.288
10507.542 0.121 81.255 0.989 -6.934 0.989 -6.934 0.121 81.255
10532.5 0.122 81.222 0.989 -6.979 0.989 -6.979 0.122 81.222
10557.458 0.122 81.188 0.989 -7.024 0.989 -7.024 0.122 81.188
10582.417 0.123 81.155 0.989 -7.069 0.989 -7.069 0.123 81.155
10607.375 0.124 81.121 0.988 -7.114 0.988 -7.114 0.124 81.121
10632.333 0.125 81.087 0.988 -7.159 0.988 -7.159 0.125 81.087
10657.292 0.125 81.054 0.988 -7.204 0.988 -7.204 0.125 81.054
10682.25 0.126 81.02 0.988 -7.249 0.988 -7.249 0.126 81.02
10707.208 0.127 80.986 0.988 -7.293 0.988 -7.293 0.127 80.986
10732.167 0.128 80.952 0.988 -7.338 0.988 -7.338 0.128 80.952
10757.125 0.129 80.918 0.988 -7.382 0.988 -7.382 0.129 80.918
10782.083 0.129 80.883 0.988 -7.427 0.988 -7.427 0.129 80.883
10807.042 0.13 80.849 0.988 -7.471 0.988 -7.471 0.13 80.849
10832 0.131 80.815 0.988 -7.515 0.988 -7.515 0.131 80.815
10856.958 0.132 80.781 0.987 -7.56 0.987 -7.56 0.132 80.781
10881.917 0.132 80.746 0.987 -7.604 0.987 -7.604 0.132 80.746
10906.875 0.133 80.712 0.987 -7.648 0.987 -7.648 0.133 80.712
10931.833 0.134 80.677 0.987 -7.692 0.987 -7.692 0.134 80.677
10956.792 0.135 80.643 0.987 -7.736 0.987 -7.736 0.135 80.643
10981.75 0.135 80.608 0.987 -7.78 0.987 -7.78 0.135 80.608
11006.708 0.136 80.573 0.987 -7.823 0.987 -7.823 0.136 80.573
11031.667 0.137 80.539 0.987 -7.867 0.987 -7.867 0.137 80.539
11056.625 0.138 80.504 0.987 -7.911 0.987 -7.911 0.138 80.504
11081.583 0.138 80.469 0.987 -7.954 0.987 -7.954 0.138 80.469
11106.542 0.139 80.434 0.986 -7.998 0.986 -7.998 0.139 80.434
11131.5 0.14 80.399 0.986 -8.041 0.986 -8.041 0.14 80.399
11156.458 0.141 80.365 0.986 -8.085 0.986 -8.085 0.141 80.365
11181.417 0.141 80.33 0.986 -8.128 0.986 -8.128 0.141 80.33
11206.375 0.142 80.295 0.986 -8.171 0.986 -8.171 0.142 80.295
11231.333 0.143 80.26 0.986 -8.215 0.986 -8.215 0.143 80.26
11256.292 0.144 80.225 0.986 -8.258 0.986 -8.258 0.144 80.225
11281.25 0.144 80.189 0.986 -8.301 0.986 -8.301 0.144 80.189
11306.208 0.145 80.154 0.986 -8.344 0.986 -8.344 0.145 80.154
11331.167 0.146 80.119 0.986 -8.387 0.986 -8.387 0.146 80.119
11356.125 0.147 80.084 0.985 -8.429 0.985 -8.429 0.147 80.084
11381.083 0.147 80.049 0.985 -8.472 0.985 -8.472 0.147 80.049
11406.042 0.148 80.014 0.985 -8.515 0.985 -8.515 0.148 80.014
11431 0.149 79.978 0.985 -8.558 0.985 -8.558 0.149 79.978
11455.958 0.15 79.943 0.985 -8.6 0.985 -8.6 0.15 79.943
11480.917 0.15 79.908 0.985 -8.643 0.985 -8.643 0.15 79.908
11505.875 0.151 79.873 0.985 -8.685 0.985 -8.685 0.151 79.873
11530.833 0.152 79.837 0.985 -8.728 0.985 -8.728 0.152 79.837
11555.792 0.153 79.802 0.985 -8.77 0.985 -8.77 0.153 79.802
11580.75 0.153 79.767 0.984 -8.812 0.984 -8.812 0.153 79.767
11605.708 0.154 79.731 0.984 -8.855 0.984 -8.855 0.154 79.731
11630.667 0.155 79.696 0.984 -8.897 0.984 -8.897 0.155 79.696
11655.625 0.155 79.66 0.984 -8.939 0.984 -8.939 0.155 79.66
11680.583 0.156 79.625 0.984 -8.981 0.984 -8.981 0.156 79.625
11705.542 0.157 79.59 0.984 -9.023 0.984 -9.023 0.157 79.59
11730.5 0.158 79.554 0.984 -9.065 0.984 -9.065 0.158 79.554
11755.458 0.158 79.519 0.984 -9.107 0.984 -9.107 0.158 79.519
11780.417 0.159 79.483 0.983 -9.149 0.983 -9.149 0.159 79.483
11805.375 0.16 79.448 0.983 -9.191 0.983 -9.191 0.16 79.448
11830.333 0.16 79.412 0.983 -9.232 0.983 -9.232 0.16 79.412
11855.292 0.161 79.377 0.983 -9.274 0.983 -9.274 0.161 79.377
11880.25 0.162 79.342 0.983 -9.316 0.983 -9.316 0.162 79.342
11905.208 0.163 79.306 0.983 -9.357 0.983 -9.357 0.163 79.306
11930.167 0.163 79.271 0.983 -9.399 0.983 -9.399 0.163 79.271
11955.125 0.164 79.235 0.983 -9.44 0.983 -9.44 0.164 79.235
11980.083 0.165 79.2 0.983 -9.481 0.983 -9.481 0.165 79.2
12005.042 0.165 79.164 0.982 -9.523 0.982 -9.523 0.165 79.164
12030 0.166 79.129 0.982 -9.564 0.982 -9.564 0.166 79.129
12054.958 0.167 79.093 0.982 -9.605 0.982 -9.605 0.167 79.093
12079.917 0.168 79.058 0.982 -9.646 0.982 -9.646 0.168 79.058
12104.875 0.168 79.022 0.982 -9.687 0.982 -9.687 0.168 79.022
12129.833 0.169 78.987 0.982 -9.728 0.982 -9.728 0.169 78.987
12154.792 0.17 78.951 0.982 -9.769 0.982 -9.769 0.17 78.951
12179.75 0.17 78.916 0.982 -9.81 0.982 -9.81 0.17 78.916
12204.708 0.171 78.88 0.981 -9.851 0.981 -9.851 0.171 78.88
12229.667 0.172 78.845 0.981 -9.892 0.981 -9.892 0.172 78.845
12254.625 0.173 78.809 0.981 -9.933 0.981 -9.933 0.173 78.809
12279.583 0.173 78.774 0.981 -9.974 0.981 -9.974 0.173 78.774
12304.542 0.174 78.738 0.981 -10.014 0.981 -10.014 0.174 78.738
12329.5 0.175 78.703 0.981 -10.055 0.981 -10.055 0.175 78.703
12354.458 0.175 78.667 0.981 -10.095 0.981 -10.095 0.175 78.667
12379.417 0.176 78.632 0.981 -10.136 0.981 -10.136 0.176 78.632
12404.375 0.177 78.596 0.98 -10.176 0.98 -10.176 0.177 78.596
12429.333 0.177 78.561 0.98 -10.217 0.98 -10.217 0.177 78.561
12454.292 0.178 78.525 0.98 -10.257 0.98 -10.257 0.178 78.525
12479.25 0.179 78.49 0.98 -10.298 0.98 -10.298 0.179 78.49
12504.208 0.179 78.454 0.98 -10.338 0.98 -10.338 0.179 78.454
12529.167 0.18 78.419 0.98 -10.378 0.98 -10.378 0.18 78.419
12554.125 0.181 78.384 0.98 -10.418 0.98 -10.418 0.181 78.384
12579.083 0.182 78.348 0.98 -10.458 0.98 -10.458 0.182 78.348
12604.042 0.182 78.313 0.979 -10.498 0.979 -10.498 0.182 78.313
12629 0.183 78.277 0.979 -10.538 0.979 -10.538 0.183 78.277
12653.958 0.184 78.242 0.979 -10.578 0.979 -10.578 0.184 78.242
12678.917 0.184 78.207 0.979 -10.618 0.979 -10.618 0.184 78.207
12703.875 0.185 78.171 0.979 -10.658 0.979 -10.658 0.185 78.171
12728.833 0.186 78.136 0.979 -10.698 0.979 -10.698 0.186 78.136
12753.792 0.186 78.101 0.979 -10.738 0.979 -10.738 0.186 78.101
12778.75 0.187 78.065 0.979 -10.777 0.979 -10.777 0.187 78.065
12803.708 0.188 78.03 0.978 -10.817 0.978 -10.817 0.188 78.03
12828.667 0.188 77.995 0.978 -10.857 0.978 -10.857 0.188 77.995
12853.625 0.189 77.959 0.978 -10.896 0.978 -10.896 0.189 77.959
12878.583 0.19 77.924 0.978 -10.936 0.978 -10.936 0.19 77.924
12903.542 0.19 77.889 0.978 -10.975 0.978 -10.975 0.19 77.889
12928.5 0.191 77.853 0.978 -11.015 0.978 -11.015 0.191 77.853
12953.458 0.192 77.818 0.978 -11.054 0.978 -11.054 0.192 77.818
12978.417 0.192 77.783 0.978 -11.093 0.978 -11.093 0.192 77.783
13003.375 0.193 77.748 0.977 -11.133 0.977 -11.133 0.193 77.748
13028.333 0.194 77.712 0.977 -11.172 0.977 -11.172 0.194 77.712
13053.292 0.194 77.677 0.977 -11.211 0.977 -11.211 0.194 77.677
13078.25 0.195 77.642 0.977 -11.25 0.977 -11.25 0.195 77.642
13103.208 0.196 77.607 0.977 -11.29 0.977 -11.29 0.196 77.607
13128.167 0.196 77.572 0.977 -11.329 0.977 -11.329 0.196 77.572
13153.125 0.197 77.537 0.977 -11.368 0.977 -11.368 0.197 77.537
13178.083 0.198 77.501 0.976 -11.407 0.976 -11.407 0.198 77.501
13203.042 0.198 77.466 0.976 -11.446 0.976 -11.446 0.198 77.466
13228 0.199 77.431 0.976 -11.484 0.976 -11.484 0.199 77.431
13252.958 0.2 77.396 0.976 -11.523 0.976 -11.523 0.2 77.396
13277.917 0.2 77.361 0.976 -11.562 0.976 -11.562 0.2 77.361
13302.875 0.201 77.326 0.976 -11.601 0.976 -11.601 0.201 77.326
13327.833 0.202 77.291 0.976 -11.64 0.976 -11.64 0.202 77.291
13352.792 0.202 77.256 0.976 -11.678 0.976 -11.678 0.202 77.256
13377.75 0.203 77.221 0.975 -11.717 0.975 -11.717 0.203 77.221
13402.708 0.204 77.186 0.975 -11.755 0.975 -11.755 0.204 77.186
13427.667 0.204 77.151 0.975 -11.794 0.975 -11.794 0.204 77.151
13452.625 0.205 77.116 0.975 -11.832 0.975 -11.832 0.205 77.116
13477.583 0.206 77.081 0.975 -11.871 0.975 -11.871 0.206 77.081
13502.542 0.206 77.046 0.975 -11.909 0.975 -11.909 0.206 77.046
13527.5 0.207 77.011 0.975 -11.948 0.975 -11.948 0.207 77.011
13552.458 0.208 76.976 0.974 -11.986 0.974 -11.986 0.208 76.976
13577.417 0.208 76.941 0.974 -12.024 0.974 -12.024 0.208 76.941
13602.375 0.209 76.906 0.974 -12.063 0.974 -12.063 0.209 76.906
13627.333 0.21 76.872 0.974 -12.101 0.974 -12.101 0.21 76.872
13652.292 0.21 76.837 0.974 -12.139 0.974 -12.139 0.21 76.837
13677.25 0.211 76.802 0.974 -12.177 0.974 -12.177 0.211 76.802
13702.208 0.212 76.767 0.974 -12.215 0.974 -12.215 0.212 76.767
13727.167 0.212 76.732 0.973 -12.253 0.973 -12.253 0.212 76.732
13752.125 0.213 76.698 0.973 -12.291 0.973 -12.291 0.213 76.698
13777.083 0.214 76.663 0.973 -12.329 0.973 -12.329 0.214 76.663
13802.042 0.214 76.628 0.973 -12.367 0.973 -12.367 0.214 76.628
13827 0.215 76.593 0.973 -12.405 0.973 -12.405 0.215 76.593
13851.958 0.215 76.559 0.973 -12.443 0.973 -12.443 0.215 76.559
13876.917 0.216 76.524 0.973 -12.481 0.973 -12.481 0.216 76.524
13901.875 0.217 76.489 0.972 -12.518 0.972 -12.518 0.217 76.489
13926.833 0.217 76.455 0.972 -12.556 0.972 -12.556 0.217 76.455
13951.792 0.218 76.42 0.972 -12.594 0.972 -12.594 0.218 76.42
13976.75 0.219 76.386 0.972 -12.631 0.972 -12.631 0.219 76.386
14001.708 0.219 76.351 0.972 -12.669 0.972 -12.669 0.219 76.351
14026.667 0.22 76.316 0.972 -12.707 0.972 -12.707 0.22 76.316
14051.625 0.221 76.282 0.972 -12.744 0.972 -12.744 0.221 76.282
14076.583 0.221 76.247 0.971 -12.782 0.971 -12.782 0.221 76.247
14101.542 0.222 76.213 0.971 -12.819 0.971 -12.819 0.222 76.213
14126.5 0.223 76.178 0.971 -12.856 0.971 -12.856 0.223 76.178
14151.458 0.223 76.144 0.971 -12.894 0.971 -12.894 0.223 76.144
14176.417 0.224 76.109 0.971 -12.931 0.971 -12.931 0.224 76.109
14201.375 0.224 76.075 0.971 -12.968 0.971 -12.968 0.224 76.075
14226.333 0.225 76.041 0.971 -13.006 0.971 -13.006 0.225 76.041
14251.292 0.226 76.006 0.97 -13.043 0.97 -13.043 0.226 76.006
14276.25 0.226 75.972 0.97 -13.08 0.97 -13.08 0.226 75.972
14301.208 0.227 75.937 0.97 -13.117 0.97 -13.117 0.227 75.937
14326.167 0.228 75.903 0.97 -13.154 0.97 -13.154 0.228 75.903
14351.125 0.228 75.869 0.97 -13.191 0.97 -13.191 0.228 75.869
14376.083 0.229 75.834 0.97 -13.228 0.97 -13.228 0.229 75.834
14401.042 0.229 75.8 0.97 -13.265 0.97 -13.265 0.229 75.8
14426 0.23 75.766 0.969 -13.302 0.969 -13.302 0.23 75.766
14450.958 0.231 75.732 0.969 -13.339 0.969 -13.339 0.231 75.732
14475.917 0.231 75.697 0.969 -13.376 0.969 -13.376 0.231 75.697
14500.875 0.232 75.663 0.969 -13.413 0.969 -13.413 0.232 75.663
14525.833 0.233 75.629 0.969 -13.45 0.969 -13.45 0.233 75.629
14550.792 0.233 75.595 0.969 -13.487 0.969 -13.487 0.233 75.595
14575.75 0.234 75.561 0.969 -13.523 0.969 -13.523 0.234 75.561
14600.708 0.234 75.527 0.968 -13.56 0.968 -13.56 0.234 75.527
14625.667 0.235 75.492 0.968 -13.597 0.968 -13.597 0.235 75.492
14650.625 0.236 75.458 0.968 -13.633 0.968 -13.633 0.236 75.458
14675.583 0.236 75.424 0.968 -13.67 0.968 -13.67 0.236 75.424
14700.542 0.237 75.39 0.968 -13.706 0.968 -13.706 0.237 75.39
14725.5 0.238 75.356 0.968 -13.743 0.968 -13.743 0.238 75.356
14750.458 0.238 75.322 0.967 -13.779 0.967 -13.779 0.238 75.322
14775.417 0.239 75.288 0.967 -13.816 0.967 -13.816 0.239 75.288
14800.375 0.239 75.254 0.967 -13.852 0.967 -13.852 0.239 75.254
14825.333 0.24 75.22 0.967 -13.889 0.967 -13.889 0.24 75.22
14850.292 0.241 75.186 0.967 -13.925 0.967 -13.925 0.241 75.186
14875.25 0.241 75.153 0.967 -13.961 0.967 -13.961 0.241 75.153
14900.208 0.242 75.119 0.967 -13.998 0.967 -13.998 0.242 75.119
14925.167 0.243 75.085 0.966 -14.034 0.966 -14.034 0.243 75.085
14950.125 0.243 75.051 0.966 -14.07 0.966 -14.07 0.243 75.051
14975.083 0.244 75.017 0.966 -14.106 0.966 -14.106 0.244 75.017
15000.042 0.244 74.983 0.966 -14.142 0.966 -14.142 0.244 74.983
15025 0.245 74.95 0.966 -14.178 0.966 -14.178 0.245 74.95
15049.958 0.246 74.916 0.966 -14.215 0.966 -14.215 0.246 74.916
15074.917 0.246 74.882 0.966 -14.251 0.966 -14.251 0.246 74.882
15099.875 0.247 74.848 0.965 -14.287 0.965 -14.287 0.247 74.848
15124.833 0.247 74.815 0.965 -14.323 0.965 -14.323 0.247 74.815
15149.792 0.248 74.781 0.965 -14.358 0.965 -14.358 0.248 74.781
15174.75 0.249 74.747 0.965 -14.394 0.965 -14.394 0.249 74.747
15199.708 0.249 74.714 0.965 -14.43 0.965 -14.43 0.249 74.714
15224.667 0.25 74.68 0.965 -14.466 0.965 -14.466 0.25 74.68
15249.625 0.25 74.646 0.964 -14.502 0.964 -14.502 0.25 74.646
15274.583 0.251 74.613 0.964 -14.538 0.964 -14.538 0.251 74.613
15299.542 0.252 74.579 0.964 -14.573 0.964 -14.573 0.252 74.579
15324.5 0.252 74.546 0.964 -14.609 0.964 -14.609 0.252 74.546
15349.458 0.253 74.512 0.964 -14.645 0.964 -14.645 0.253 74.512
15374.417 0.253 74.479 0.964 -14.68 0.964 -14.68 0.253 74.479
15399.375 0.254 74.445 0.963 -14.716 0.963 -14.716 0.254 74.445
15424.333 0.255 74.412 0.963 -14.752 0.963 -14.752 0.255 74.412
15449.292 0.255 74.378 0.963 -14.787 0.963 -14.787 0.255 74.378
15474.25 0.256 74.345 0.963 -14.823 0.963 -14.823 0.256 74.345
15499.208 0.256 74.311 0.963 -14.858 0.963 -14.858 0.256 74.311
15524.167 0.257 74.278 0.963 -14.894 0.963 -14.894 0.257 74.278
15549.125 0.258 74.245 0.963 -14.929 0.963 -14.929 0.258 74.245
15574.083 0.258 74.211 0.962 -14.964 0.962 -14.964 0.258 74.211
15599.042 0.259 74.178 0.962 -15 0.962 -15 0.259 74.178
15624 0.259 74.145 0.962 -15.035 0.962 -15.035 0.259 74.145
15648.958 0.26 74.111 0.962 -15.07 0.962 -15.07 0.26 74.111
15673.917 0.261 74.078 0.962 -15.106 0.962 -15.106 0.261 74.078
15698.875 0.261 74.045 0.962 -15.141 0.962 -15.141 0.261 74.045
15723.833 0.262 74.012 0.961 -15.176 0.961 -15.176 0.262 74.012
15748.792 0.262 73.979 0.961 -15.211 0.961 -15.211 0.262 73.979
15773.75 0.263 73.945 0.961 -15.246 0.961 -15.246 0.263 73.945
15798.708 0.264 73.912 0.961 -15.281 0.961 -15.281 0.264 73.912
15823.667 0.264 73.879 0.961 -15.316 0.961 -15.316 0.264 73.879
15848.625 0.265 73.846 0.961 -15.352 0.961 -15.352 0.265 73.846
15873.583 0.265 73.813 0.96 -15.387 0.96 -15.387 0.265 73.813
15898.542 0.266 73.78 0.96 -15.422 0.96 -15.422 0.266 73.78
15923.5 0.267 73.747 0.96 -15.456 0.96 -15.456 0.267 73.747
15948.458 0.267 73.714 0.96 -15.491 0.96 -15.491 0.267 73.714
15973.417 0.268 73.681 0.96 -15.526 0.96 -15.526 0.268 73.681
15998.375 0.268 73.648 0.96 -15.561 0.96 -15.561 0.268 73.648
16023.333 0.269 73.615 0.959 -15.596 0.959 -15.596 0.269 73.615
16048.292 0.269 73.582 0.959 -15.631 0.959 -15.631 0.269 73.582
16073.25 0.27 73.549 0.959 -15.666 0.959 -15.666 0.27 73.549
16098.208 0.271 73.516 0.959 -15.7 0.959 -15.7 0.271 73.516
16123.167 0.271 73.483 0.959 -15.735 0.959 -15.735 0.271 73.483
16148.125 0.272 73.45 0.959 -15.77 0.959 -15.77 0.272 73.45
16173.083 0.272 73.417 0.958 -15.804 0.958 -15.804 0.272 73.417
16198.042 0.273 73.384 0.958 -15.839 0.958 -15.839 0.273 73.384
16223 0.274 73.352 0.958 -15.874 0.958 -15.874 0.274 73.352
16247.958 0.274 73.319 0.958 -15.908 0.958 -15.908 0.274 73.319
16272.917 0.275 73.286 0.958 -15.943 0.958 -15.943 0.275 73.286
16297.875 0.275 73.253 0.958 -15.977 0.958 -15.977 0.275 73.253
16322.833 0.276 73.221 0.958 -16.012 0.958 -16.012 0.276 73.221
16347.792 0.276 73.188 0.957 -16.046 0.957 -16.046 0.276 73.188
16372.75 0.277 73.155 0.957 -16.08 0.957 -16.08 0.277 73.155
16397.708 0.278 73.123 0.957 -16.115 0.957 -16.115 0.278 73.123
16422.667 0.278 73.09 0.957 -16.149 0.957 -16.149 0.278 73.09
16447.625 0.279 73.057 0.957 -16.184 0.957 -16.184 0.279 73.057
16472.583 0.279 73.025 0.957 -16.218 0.957 -16.218 0.279 73.025
16497.542 0.28 72.992 0.956 -16.252 0.956 -16.252 0.28 72.992
16522.5 0.28 72.96 0.956 -16.286 0.956 -16.286 0.28 72.96
16547.458 0.281 72.927 0.956 -16.321 0.956 -16.321 0.281 72.927
16572.417 0.282 72.894 0.956 -16.355 0.956 -16.355 0.282 72.894
16597.375 0.282 72.862 0.956 -16.389 0.956 -16.389 0.282 72.862
16622.333 0.283 72.83 0.956 -16.423 0.956 -16.423 0.283 72.83
16647.292 0.283 72.797 0.955 -16.457 0.955 -16.457 0.283 72.797
16672.25 0.284 72.765 0.955 -16.491 0.955 -16.491 0.284 72.765
16697.208 0.284 72.732 0.955 -16.525 0.955 -16.525 0.284 72.732
16722.167 0.285 72.7 0.955 -16.559 0.955 -16.559 0.285 72.7
16747.125 0.286 72.667 0.955 -16.593 0.955 -16.593 0.286 72.667
16772.083 0.286 72.635 0.955 -16.627 0.955 -16.627 0.286 72.635
16797.042 0.287 72.603 0.954 -16.661 0.954 -16.661 0.287 72.603
16822 0.287 72.57 0.954 -16.695 0.954 -16.695 0.287 72.57
16846.958 0.288 72.538 0.954 -16.729 0.954 -16.729 0.288 72.538
16871.917 0.288 72.506 0.954 -16.763 0.954 -16.763 0.288 72.506
16896.875 0.289 72.474 0.954 -16.797 0.954 -16.797 0.289 72.474
16921.833 0.29 72.441 0.953 -16.83 0.953 -16.83 0.29 72.441
16946.792 0.29 72.409 0.953 -16.864 0.953 -16.864 0.29 72.409
16971.75 0.291 72.377 0.953 -16.898 0.953 -16.898 0.291 72.377
16996.708 0.291 72.345 0.953 -16.932 0.953 -16.932 0.291 72.345
17021.667 0.292 72.312 0.953 -16.965 0.953 -16.965 0.292 72.312
17046.625 0.292 72.28 0.953 -16.999 0.953 -16.999 0.292 72.28
17071.583 0.293 72.248 0.952 -17.033 0.952 -17.033 0.293 72.248
17096.542 0.293 72.216 0.952 -17.066 0.952 -17.066 0.293 72.216
17121.5 0.294 72.184 0.952 -17.1 0.952 -17.1 0.294 72.184
17146.458 0.295 72.152 0.952 -17.133 0.952 -17.133 0.295 72.152
17171.417 0.295 72.12 0.952 -17.167 0.952 -17.167 0.295 72.12
17196.375 0.296 72.088 0.952 -17.2 0.952 -17.2 0.296 72.088
17221.333 0.296 72.056 0.951 -17.234 0.951 -17.234 0.296 72.056
17246.292 0.297 72.024 0.951 -17.267 0.951 -17.267 0.297 72.024
17271.25 0.297 71.992 0.951 -17.301 0.951 -17.301 0.297 71.992
17296.208 0.298 71.96 0.951 -17.334 0.951 -17.334 0.298 71.96
17321.167 0.299 71.928 0.951 -17.367 0.951 -17.367 0.299 71.928
17346.125 0.299 71.896 0.951 -17.401 0.951 -17.401 0.299 71.896
17371.083 0.3 71.864 0.95 -17.434 0.95 -17.434 0.3 71.864
17396.042 0.3 71.832 0.95 -17.467 0.95 -17.467 0.3 71.832
17421 0.301 71.801 0.95 -17.501 0.95 -17.501 0.301 71.801
17445.958 0.301 71.769 0.95 -17.534 0.95 -17.534 0.301 71.769
17470.917 0.302 71.737 0.95 -17.567 0.95 -17.567 0.302 71.737
17495.875 0.302 71.705 0.95 -17.6 0.95 -17.6 0.302 71.705
17520.833 0.303 71.673 0.949 -17.633 0.949 -17.633 0.303 71.673
17545.792 0.303 71.642 0.949 -17.667 0.949 -17.667 0.303 71.642
17570.75 0.304 71.61 0.949 -17.7 0.949 -17.7 0.304 71.61
17595.708 0.305 71.578 0.949 -17.733 0.949 -17.733 0.305 71.578
17620.667 0.305 71.547 0.949 -17.766 0.949 -17.766 0.305 71.547
17645.625 0.306 71.515 0.948 -17.799 0.948 -17.799 0.306 71.515
17670.583 0.306 71.483 0.948 -17.832 0.948 -17.832 0.306 71.483
17695.542 0.307 71.452 0.948 -17.865 0.948 -17.865 0.307 71.452
17720.5 0.307 71.42 0.948 -17.898 0.948 -17.898 0.307 71.42
17745.458 0.308 71.388 0.948 -17.931 0.948 -17.931 0.308 71.388
17770.417 0.308 71.357 0.948 -17.964 0.948 -17.964 0.308 71.357
17795.375 0.309 71.325 0.947 -17.996 0.947 -17.996 0.309 71.325
17820.333 0.31 71.294 0.947 -18.029 0.947 -18.029 0.31 71.294
17845.292 0.31 71.262 0.947 -18.062 0.947 -18.062 0.31 71.262
17870.25 0.311 71.231 0.947 -18.095 0.947 -18.095 0.311 71.231
17895.208 0.311 71.199 0.947 -18.128 0.947 -18.128 0.311 71.199
17920.167 0.312 71.168 0.947 -18.16 0.947 -18.16 0.312 71.168
17945.125 0.312 71.136 0.946 -18.193 0.946 -18.193 0.312 71.136
17970.083 0.313 71.105 0.946 -18.226 0.946 -18.226 0.313 71.105
17995.042 0.313 71.074 0.946 -18.259 0.946 -18.259 0.313 71.074
18020 0.314 71.042 0.946 -18.291 0.946 -18.291 0.314 71.042
18044.958 0.314 71.011 0.946 -18.324 0.946 -18.324 0.314 71.011
18069.917 0.315 70.98 0.945 -18.356 0.945 -18.356 0.315 70.98
18094.875 0.315 70.948 0.945 -18.389 0.945 -18.389 0.315 70.948
18119.833 0.316 70.917 0.945 -18.422 0.945 -18.422 0.316 70.917
18144.792 0.317 70.886 0.945 -18.454 0.945 -18.454 0.317 70.886
18169.75 0.317 70.854 0.945 -18.487 0.945 -18.487 0.317 70.854
18194.708 0.318 70.823 0.945 -18.519 0.945 -18.519 0.318 70.823
18219.667 0.318 70.792 0.944 -18.552 0.944 -18.552 0.318 70.792
18244.625 0.319 70.761 0.944 -18.584 0.944 -18.584 0.319 70.761
18269.583 0.319 70.73 0.944 -18.616 0.944 -18.616 0.319 70.73
18294.542 0.32 70.698 0.944 -18.649 0.944 -18.649 0.32 70.698
18319.5 0.32 70.667 0.944 -18.681 0.944 -18.681 0.32 70.667
18344.458 0.321 70.636 0.943 -18.713 0.943 -18.713 0.321 70.636
18369.417 0.321 70.605 0.943 -18.746 0.943 -18.746 0.321 70.605
18394.375 0.322 70.574 0.943 -18.778 0.943 -18.778 0.322 70.574
18419.333 0.322 70.543 0.943 -18.81 0.943 -18.81 0.322 70.543
18444.292 0.323 70.512 0.943 -18.843 0.943 -18.843 0.323 70.512
18469.25 0.324 70.481 0.943 -18.875 0.943 -18.875 0.324 70.481
18494.208 0.324 70.45 0.942 -18.907 0.942 -18.907 0.324 70.45
18519.167 0.325 70.419 0.942 -18.939 0.942 -18.939 0.325 70.419
18544.125 0.325 70.388 0.942 -18.971 0.942 -18.971 0.325 70.388
18569.083 0.326 70.357 0.942 -19.003 0.942 -19.003 0.326 70.357
18594.042 0.326 70.326 0.942 -19.036 0.942 -19.036 0.326 70.326
18619 0.327 70.295 0.941 -19.068 0.941 -19.068 0.327 70.295
18643.958 0.327 70.264 0.941 -19.1 0.941 -19.1 0.327 70.264
18668.917 0.328 70.233 0.941 -19.132 0.941 -19.132 0.328 70.233
18693.875 0.328 70.202 0.941 -19.164 0.941 -19.164 0.328 70.202
18718.833 0.329 70.172 0.941 -19.196 0.941 -19.196 0.329 70.172
18743.792 0.329 70.141 0.941 -19.228 0.941 -19.228 0.329 70.141
18768.75 0.33 70.11 0.94 -19.26 0.94 -19.26 0.33 70.11
18793.708 0.33 70.079 0.94 -19.291 0.94 -19.291 0.33 70.079
18818.667 0.331 70.048 0.94 -19.323 0.94 -19.323 0.331 70.048
18843.625 0.331 70.018 0.94 -19.355 0.94 -19.355 0.331 70.018
18868.583 0.332 69.987 0.94 -19.387 0.94 -19.387 0.332 69.987
18893.542 0.332 69.956 0.939 -19.419 0.939 -19.419 0.332 69.956
18918.5 0.333 69.925 0.939 -19.451 0.939 -19.451 0.333 69.925
18943.458 0.334 69.895 0.939 -19.482 0.939 -19.482 0.334 69.895
18968.417 0.334 69.864 0.939 -19.514 0.939 -19.514 0.334 69.864
18993.375 0.335 69.834 0.939 -19.546 0.939 -19.546 0.335 69.834
19018.333 0.335 69.803 0.939 -19.578 0.939 -19.578 0.335 69.803
19043.292 0.336 69.772 0.938 -19.609 0.938 -19.609 0.336 69.772
19068.25 0.336 69.742 0.938 -19.641 0.938 -19.641 0.336 69.742
19093.208 0.337 69.711 0.938 -19.672 0.938 -19.672 0.337 69.711
19118.167 0.337 69.681 0.938 -19.704 0.938 -19.704 0.337 69.681
19143.125 0.338 69.65 0.938 -19.736 0.938 -19.736 0.338 69.65
19168.083 0.338 69.62 0.937 -19.767 0.937 -19.767 0.338 69.62
19193.042 0.339 69.589 0.937 -19.799 0.937 -19.799 0.339 69.589
19218 0.339 69.559 0.937 -19.83 0.937 -19.83 0.339 69.559
19242.958 0.34 69.528 0.937 -19.862 0.937 -19.862 0.34 69.528
19267.917 0.34 69.498 0.937 -19.893 0.937 -19.893 0.34 69.498
19292.875 0.341 69.467 0.937 -19.925 0.937 -19.925 0.341 69.467
19317.833 0.341 69.437 0.936 -19.956 0.936 -19.956 0.341 69.437
19342.792 0.342 69.407 0.936 -19.988 0.936 -19.988 0.342 69.407
19367.75 0.342 69.376 0.936 -20.019 0.936 -20.019 0.342 69.376
19392.708 0.343 69.346 0.936 -20.05 0.936 -20.05 0.343 69.346
19417.667 0.343 69.316 0.936 -20.082 0.936 -20.082 0.343 69.316
19442.625 0.344 69.285 0.935 -20.113 0.935 -20.113 0.344 69.285
19467.583 0.344 69.255 0.935 -20.144 0.935 -20.144 0.344 69.255
19492.542 0.345 69.225 0.935 -20.176 0.935 -20.176 0.345 69.225
19517.5 0.345 69.195 0.935 -20.207 0.935 -20.207 0.345 69.195
19542.458 0.346 69.164 0.935 -20.238 0.935 -20.238 0.346 69.164
19567.417 0.346 69.134 0.934 -20.269 0.934 -20.269 0.346 69.134
19592.375 0.347 69.104 0.934 -20.3 0.934 -20.3 0.347 69.104
19617.333 0.347 69.074 0.934 -20.332 0.934 -20.332 0.347 69.074
19642.292 0.348 69.044 0.934 -20.363 0.934 -20.363 0.348 69.044
19667.25 0.348 69.014 0.934 -20.394 0.934 -20.394 0.348 69.014
19692.208 0.349 68.983 0.934 -20.425 0.934 -20.425 0.349 68.983
19717.167 0.35 68.953 0.933 -20.456 0.933 -20.456 0.35 68.953
19742.125 0.35 68.923 0.933 -20.487 0.933 -20.487 0.35 68.923
19767.083 0.351 68.893 0.933 -20.518 0.933 -20.518 0.351 68.893
19792.042 0.351 68.863 0.933 -20.549 0.933 -20.549 0.351 68.863
19817 0.352 68.833 0.933 -20.58 0.933 -20.58 0.352 68.833
19841.958 0.352 68.803 0.932 -20.611 0.932 -20.611 0.352 68.803
19866.917 0.353 68.773 0.932 -20.642 0.932 -20.642 0.353 68.773
19891.875 0.353 68.743 0.932 -20.673 0.932 -20.673 0.353 68.743
19916.833 0.354 68.713 0.932 -20.704 0.932 -20.704 0.354 68.713
19941.792 0.354 68.683 0.932 -20.735 0.932 -20.735 0.354 68.683
19966.75 0.355 68.653 0.931 -20.766 0.931 -20.766 0.355 68.653
19991.708 0.355 68.624 0.931 -20.796 0.931 -20.796 0.355 68.624
20016.667 0.356 68.594 0.931 -20.827 0.931 -20.827 0.356 68.594
20041.625 0.356 68.564 0.931 -20.858 0.931 -20.858 0.356 68.564
20066.583 0.357 68.534 0.931 -20.889 0.931 -20.889 0.357 68.534
20091.542 0.357 68.504 0.93 -20.919 0.93 -20.919 0.357 68.504
20116.5 0.358 68.474 0.93 -20.95 0.93 -20.95 0.358 68.474
20141.458 0.358 68.445 0.93 -20.981 0.93 -20.981 0.358 68.445
20166.417 0.359 68.415 0.93 -21.012 0.93 -21.012 0.359 68.415
20191.375 0.359 68.385 0.93 -21.042 0.93 -21.042 0.359 68.385
20216.333 0.36 68.355 0.93 -21.073 0.93 -21.073 0.36 68.355
20241.292 0.36 68.326 0.929 -21.104 0.929 -21.104 0.36 68.326
20266.25 0.361 68.296 0.929 -21.134 0.929 -21.134 0.361 68.296
20291.208 0.361 68.266 0.929 -21.165 0.929 -21.165 0.361 68.266
20316.167 0.362 68.237 0.929 -21.195 0.929 -21.195 0.362 68.237
20341.125 0.362 68.207 0.929 -21.226 0.929 -21.226 0.362 68.207
20366.083 0.363 68.177 0.928 -21.256 0.928 -21.256 0.363 68.177
20391.042 0.363 68.148 0.928 -21.287 0.928 -21.287 0.363 68.148
20416 0.364 68.118 0.928 -21.317 0.928 -21.317 0.364 68.118
20440.958 0.364 68.089 0.928 -21.348 0.928 -21.348 0.364 68.089
20465.917 0.365 68.059 0.928 -21.378 0.928 -21.378 0.365 68.059
20490.875 0.365 68.029 0.927 -21.409 0.927 -21.409 0.365 68.029
20515.833 0.366 68 0.927 -21.439 0.927 -21.439 0.366 68
20540.792 0.366 67.97 0.927 -21.469 0.927 -21.469 0.366 67.97
20565.75 0.367 67.941 0.927 -21.5 0.927 -21.5 0.367 67.941
20590.708 0.367 67.911 0.927 -21.53 0.927 -21.53 0.367 67.911
20615.667 0.367 67.882 0.926 -21.56 0.926 -21.56 0.367 67.882
20640.625 0.368 67.853 0.926 -21.591 0.926 -21.591 0.368 67.853
20665.583 0.368 67.823 0.926 -21.621 0.926 -21.621 0.368 67.823
20690.542 0.369 67.794 0.926 -21.651 0.926 -21.651 0.369 67.794
20715.5 0.369 67.764 0.926 -21.681 0.926 -21.681 0.369 67.764
20740.458 0.37 67.735 0.925 -21.712 0.925 -21.712 0.37 67.735
20765.417 0.37 67.706 0.925 -21.742 0.925 -21.742 0.37 67.706
20790.375 0.371 67.676 0.925 -21.772 0.925 -21.772 0.371 67.676
20815.333 0.371 67.647 0.925 -21.802 0.925 -21.802 0.371 67.647
20840.292 0.372 67.618 0.925 -21.832 0.925 -21.832 0.372 67.618
20865.25 0.372 67.589 0.925 -21.862 0.925 -21.862 0.372 67.589
20890.208 0.373 67.559 0.924 -21.892 0.924 -21.892 0.373 67.559
20915.167 0.373 67.53 0.924 -21.922 0.924 -21.922 0.373 67.53
20940.125 0.374 67.501 0.924 -21.952 0.924 -21.952 0.374 67.501
20965.083 0.374 67.472 0.924 -21.982 0.924 -21.982 0.374 67.472
20990.042 0.375 67.443 0.924 -22.012 0.924 -22.012 0.375 67.443
21015 0.375 67.413 0.923 -22.042 0.923 -22.042 0.375 67.413
21039.958 0.376 67.384 0.923 -22.072 0.923 -22.072 0.376 67.384
21064.917 0.376 67.355 0.923 -22.102 0.923 -22.102 0.376 67.355
21089.875 0.377 67.326 0.923 -22.132 0.923 -22.132 0.377 67.326
21114.833 0.377 67.297 0.923 -22.162 0.923 -22.162 0.377 67.297
21139.792 0.378 67.268 0.922 -22.192 0.922 -22.192 0.378 67.268
21164.75 0.378 67.239 0.922 -22.222 0.922 -22.222 0.378 67.239
21189.708 0.379 67.21 0.922 -22.252 0.922 -22.252 0.379 67.21
21214.667 0.379 67.181 0.922 -22.282 0.922 -22.282 0.379 67.181
21239.625 0.38 67.152 0.922 -22.311 0.922 -22.311 0.38 67.152
21264.583 0.38 67.123 0.921 -22.341 0.921 -22.341 0.38 67.123
21289.542 0.381 67.094 0.921 -22.371 0.921 -22.371 0.381 67.094
21314.5 0.381 67.065 0.921 -22.401 0.921 -22.401 0.381 67.065
21339.458 0.382 67.036 0.921 -22.43 0.921 -22.43 0.382 67.036
21364.417 0.382 67.007 0.921 -22.46 0.921 -22.46 0.382 67.007
21389.375 0.383 66.978 0.92 -22.49 0.92 -22.49 0.383 66.978
21414.333 0.383 66.949 0.92 -22.519 0.92 -22.519 0.383 66.949
21439.292 0.383 66.92 0.92 -22.549 0.92 -22.549 0.383 66.92
21464.25 0.384 66.891 0.92 -22.579 0.92 -22.579 0.384 66.891
21489.208 0.384 66.863 0.92 -22.608 0.92 -22.608 0.384 66.863
21514.167 0.385 66.834 0.919 -22.638 0.919 -22.638 0.385 66.834
21539.125 0.385 66.805 0.919 -22.667 0.919 -22.667 0.385 66.805
21564.083 0.386 66.776 0.919 -22.697 0.919 -22.697 0.386 66.776
21589.042 0.386 66.747 0.919 -22.727 0.919 -22.727 0.386 66.747
21614 0.387 66.719 0.919 -22.756 0.919 -22.756 0.387 66.719
21638.958 0.387 66.69 0.918 -22.786 0.918 -22.786 0.387 66.69
21663.917 0.388 66.661 0.918 -22.815 0.918 -22.815 0.388 66.661
21688.875 0.388 66.633 0.918 -22.844 0.918 -22.844 0.388 66.633
21713.833 0.389 66.604 0.918 -22.874 0.918 -22.874 0.389 66.604
21738.792 0.389 66.575 0.918 -22.903 0.918 -22.903 0.389 66.575
21763.75 0.39 66.547 0.917 -22.933 0.917 -22.933 0.39 66.547
21788.708 0.39 66.518 0.917 -22.962 0.917 -22.962 0.39 66.518
21813.667 0.391 66.489 0.917 -22.991 0.917 -22.991 0.391 66.489
21838.625 0.391 66.461 0.917 -23.021 0.917 -23.021 0.391 66.461
21863.583 0.392 66.432 0.917 -23.05 0.917 -23.05 0.392 66.432
21888.542 0.392 66.404 0.916 -23.079 0.916 -23.079 0.392 66.404
21913.5 0.392 66.375 0.916 -23.109 0.916 -23.109 0.392 66.375
21938.458 0.393 66.347 0.916 -23.138 0.916 -23.138 0.393 66.347
21963.417 0.393 66.318 0.916 -23.167 0.916 -23.167 0.393 66.318
21988.375 0.394 66.29 0.916 -23.196 0.916 -23.196 0.394 66.29
22013.333 0.394 66.261 0.915 -23.225 0.915 -23.225 0.394 66.261
22038.292 0.395 66.233 0.915 -23.255 0.915 -23.255 0.395 66.233
22063.25 0.395 66.204 0.915 -23.284 0.915 -23.284 0.395 66.204
22088.208 0.396 66.176 0.915 -23.313 0.915 -23.313 0.396 66.176
22113.167 0.396 66.147 0.915 -23.342 0.915 -23.342 0.396 66.147
22138.125 0.397 66.119 0.914 -23.371 0.914 -23.371 0.397 66.119
22163.083 0.397 66.091 0.914 -23.4 0.914 -23.4 0.397 66.091
22188.042 0.398 66.062 0.914 -23.429 0.914 -23.429 0.398 66.062
22213 0.398 66.034 0.914 -23.458 0.914 -23.458 0.398 66.034
22237.958 0.399 66.006 0.914 -23.487 0.914 -23.487 0.399 66.006
22262.917 0.399 65.977 0.913 -23.516 0.913 -23.516 0.399 65.977
22287.875 0.399 65.949 0.913 -23.545 0.913 -23.545 0.399 65.949
22312.833 0.4 65.921 0.913 -23.574 0.913 -23.574 0.4 65.921
22337.792 0.4 65.892 0.913 -23.603 0.913 -23.603 0.4 65.892
22362.75 0.401 65.864 0.913 -23.632 0.913 -23.632 0.401 65.864
22387.708 0.401 65.836 0.912 -23.661 0.912 -23.661 0.401 65.836
22412.667 0.402 65.808 0.912 -23.69 0.912 -23.69 0.402 65.808
22437.625 0.402 65.78 0.912 -23.719 0.912 -23.719 0.402 65.78
22462.583 0.403 65.751 0.912 -23.748 0.912 -23.748 0.403 65.751
22487.542 0.403 65.723 0.912 -23.777 0.912 -23.777 0.403 65.723
22512.5 0.404 65.695 0.911 -23.805 0.911 -23.805 0.404 65.695
22537.458 0.404 65.667 0.911 -23.834 0.911 -23.834 0.404 65.667
22562.417 0.405 65.639 0.911 -23.863 0.911 -23.863 0.405 65.639
22587.375 0.405 65.611 0.911 -23.892 0.911 -23.892 0.405 65.611
22612.333 0.405 65.583 0.911 -23.92 0.911 -23.92 0.405 65.583
22637.292 0.406 65.555 0.91 -23.949 0.91 -23.949 0.406 65.555
22662.25 0.406 65.527 0.91 -23.978 0.91 -23.978 0.406 65.527
22687.208 0.407 65.499 0.91 -24.007 0.91 -24.007 0.407 65.499
22712.167 0.407 65.471 0.91 -24.035 0.91 -24.035 0.407 65.471
22737.125 0.408 65.443 0.91 -24.064 0.91 -24.064 0.408 65.443
22762.083 0.408 65.415 0.909 -24.093 0.909 -24.093 0.408 65.415
22787.042 0.409 65.387 0.909 -24.121 0.909 -24.121 0.409 65.387
22812 0.409 65.359 0.909 -24.15 0.909 -24.15 0.409 65.359
22836.958 0.41 65.331 0.909 -24.178 0.909 -24.178 0.41 65.331
22861.917 0.41 65.303 0.909 -24.207 0.909 -24.207 0.41 65.303
22886.875 0.411 65.275 0.908 -24.235 0.908 -24.235 0.411 65.275
22911.833 0.411 65.247 0.908 -24.264 0.908 -24.264 0.411 65.247
22936.792 0.411 65.219 0.908 -24.292 0.908 -24.292 0.411 65.219
22961.75 0.412 65.192 0.908 -24.321 0.908 -24.321 0.412 65.192
22986.708 0.412 65.164 0.908 -24.349 0.908 -24.349 0.412 65.164
23011.667 0.413 65.136 0.907 -24.378 0.907 -24.378 0.413 65.136
23036.625 0.413 65.108 0.907 -24.406 0.907 -24.406 0.413 65.108
23061.583 0.414 65.08 0.907 -24.435 0.907 -24.435 0.414 65.08
23086.542 0.414 65.053 0.907 -24.463 0.907 -24.463 0.414 65.053
23111.5 0.415 65.025 0.907 -24.491 0.907 -24.491 0.415 65.025
23136.458 0.415 64.997 0.906 -24.52 0.906 -24.52 0.415 64.997
23161.417 0.415 64.969 0.906 -24.548 0.906 -24.548 0.415 64.969
23186.375 0.416 64.942 0.906 -24.576 0.906 -24.576 0.416 64.942
23211.333 0.416 64.914 0.906 -24.605 0.906 -24.605 0.416 64.914
23236.292 0.417 64.886 0.906 -24.633 0.906 -24.633 0.417 64.886
23261.25 0.417 64.859 0.905 -24.661 0.905 -24.661 0.417 64.859
23286.208 0.418 64.831 0.905 -24.69 0.905 -24.69 0.418 64.831
23311.167 0.418 64.804 0.905 -24.718 0.905 -24.718 0.418 64.804
23336.125 0.419 64.776 0.905 -24.746 0.905 -24.746 0.419 64.776
23361.083 0.419 64.748 0.904 -24.774 0.904 -24.774 0.419 64.748
23386.042 0.42 64.721 0.904 -24.802 0.904 -24.802 0.42 64.721
23411 0.42 64.693 0.904 -24.83 0.904 -24.83 0.42 64.693
23435.958 0.42 64.666 0.904 -24.859 0.904 -24.859 0.42 64.666
23460.917 0.421 64.638 0.904 -24.887 0.904 -24.887 0.421 64.638
23485.875 0.421 64.611 0.903 -24.915 0.903 -24.915 0.421 64.611
23510.833 0.422 64.583 0.903 -24.943 0.903 -24.943 0.422 64.583
23535.792 0.422 64.556 0.903 -24.971 0.903 -24.971 0.422 64.556
23560.75 0.423 64.528 0.903 -24.999 0.903 -24.999 0.423 64.528
23585.708 0.423 64.501 0.903 -25.027 0.903 -25.027 0.423 64.501
23610.667 0.424 64.474 0.902 -25.055 0.902 -25.055 0.424 64.474
23635.625 0.424 64.446 0.902 -25.083 0.902 -25.083 0.424 64.446
23660.583 0.424 64.419 0.902 -25.111 0.902 -25.111 0.424 64.419
23685.542 0.425 64.391 0.902 -25.139 0.902 -25.139 0.425 64.391
23710.5 0.425 64.364 0.902 -25.167 0.902 -25.167 0.425 64.364
23735.458 0.426 64.337 0.901 -25.195 0.901 -25.195 0.426 64.337
23760.417 0.426 64.309 0.901 -25.223 0.901 -25.223 0.426 64.309
23785.375 0.427 64.282 0.901 -25.251 0.901 -25.251 0.427 64.282
23810.333 0.427 64.255 0.901 -25.279 0.901 -25.279 0.427 64.255
23835.292 0.427 64.228 0.901 -25.306 0.901 -25.306 0.427 64.228
23860.25 0.428 64.2 0.9 -25.334 0.9 -25.334 0.428 64.2
23885.208 0.428 64.173 0.9 -25.362 0.9 -25.362 0.428 64.173
23910.167 0.429 64.146 0.9 -25.39 0.9 -25.39 0.429 64.146
23935.125 0.429 64.119 0.9 -25.418 0.9 -25.418 0.429 64.119
23960.083 0.43 64.092 0.9 -25.445 0.9 -25.445 0.43 64.092
23985.042 0.43 64.064 0.899 -25.473 0.899 -25.473 0.43 64.064
24010 0.431 64.037 0.899 -25.501 0.899 -25.501 0.431 64.037
24034.958 0.431 64.01 0.899 -25.529 0.899 -25.529 0.431 64.01
24059.917 0.431 63.983 0.899 -25.556 0.899 -25.556 0.431 63.983
24084.875 0.432 63.956 0.898 -25.584 0.898 -25.584 0.432 63.956
24109.833 0.432 63.929 0.898 -25.612 0.898 -25.612 0.432 63.929
24134.792 0.433 63.902 0.898 -25.639 0.898 -25.639 0.433 63.902
24159.75 0.433 63.875 0.898 -25.667 0.898 -25.667 0.433 63.875
24184.708 0.434 63.848 0.898 -25.694 0.898 -25.694 0.434 63.848
24209.667 0.434 63.821 0.897 -25.722 0.897 -25.722 0.434 63.821
24234.625 0.434 63.794 0.897 -25.75 0.897 -25.75 0.434 63.794
24259.583 0.435 63.767 0.897 -25.777 0.897 -25.777 0.435 63.767
24284.542 0.435 63.74 0.897 -25.805 0.897 -25.805 0.435 63.74
24309.5 0.436 63.713 0.897 -25.832 0.897 -25.832 0.436 63.713
24334.458 0.436 63.686 0.896 -25.86 0.896 -25.86 0.436 63.686
24359.417 0.437 63.659 0.896 -25.887 0.896 -25.887 0.437 63.659
24384.375 0.437 63.632 0.896 -25.915 0.896 -25.915 0.437 63.632
24409.333 0.437 63.605 0.896 -25.942 0.896 -25.942 0.437 63.605
24434.292 0.438 63.578 0.896 -25.97 0.896 -25.97 0.438 63.578
24459.25 0.438 63.551 0.895 -25.997 0.895 -25.997 0.438 63.551
24484.208 0.439 63.524 0.895 -26.024 0.895 -26.024 0.439 63.524
24509.167 0.439 63.497 0.895 -26.052 0.895 -26.052 0.439 63.497
24534.125 0.44 63.471 0.895 -26.079 0.895 -26.079 0.44 63.471
24559.083 0.44 63.444 0.895 -26.107 0.895 -26.107 0.44 63.444
24584.042 0.44 63.417 0.894 -26.134 0.894 -26.134 0.44 63.417
24609 0.441 63.39 0.894 -26.161 0.894 -26.161 0.441 63.39
24633.958 0.441 63.364 0.894 -26.188 0.894 -26.188 0.441 63.364
24658.917 0.442 63.337 0.894 -26.216 0.894 -26.216 0.442 63.337
24683.875 0.442 63.31 0.893 -26.243 0.893 -26.243 0.442 63.31
24708.833 0.443 63.283 0.893 -26.27 0.893 -26.27 0.443 63.283
24733.792 0.443 63.257 0.893 -26.297 0.893 -26.297 0.443 63.257
24758.75 0.443 63.23 0.893 -26.325 0.893 -26.325 0.443 63.23
24783.708 0.444 63.203 0.893 -26.352 0.893 -26.352 0.444 63.203
24808.667 0.444 63.177 0.892 -26.379 0.892 -26.379 0.444 63.177
24833.625 0.445 63.15 0.892 -26.406 0.892 -26.406 0.445 63.15
24858.583 0.445 63.123 0.892 -26.433 0.892 -26.433 0.445 63.123
24883.542 0.446 63.097 0.892 -26.46 0.892 -26.46 0.446 63.097
24908.5 0.446 63.07 0.892 -26.488 0.892 -26.488 0.446 63.07
24933.458 0.446 63.044 0.891 -26.515 0.891 -26.515 0.446 63.044
24958.417 0.447 63.017 0.891 -26.542 0.891 -26.542 0.447 63.017
24983.375 0.447 62.991 0.891 -26.569 0.891 -26.569 0.447 62.991
25008.333 0.448 62.964 0.891 -26.596 0.891 -26.596 0.448 62.964
25033.292 0.448 62.938 0.891 -26.623 0.891 -26.623 0.448 62.938
25058.25 0.449 62.911 0.89 -26.65 0.89 -26.65 0.449 62.911
25083.208 0.449 62.885 0.89 -26.677 0.89 -26.677 0.449 62.885
25108.167 0.449 62.858 0.89 -26.704 0.89 -26.704 0.449 62.858
25133.125 0.45 62.832 0.89 -26.731 0.89 -26.731 0.45 62.832
25158.083 0.45 62.805 0.889 -26.758 0.889 -26.758 0.45 62.805
25183.042 0.451 62.779 0.889 -26.785 0.889 -26.785 0.451 62.779
25208 0.451 62.752 0.889 -26.812 0.889 -26.812 0.451 62.752
25232.958 0.451 62.726 0.889 -26.838 0.889 -26.838 0.451 62.726
25257.917 0.452 62.7 0.889 -26.865 0.889 -26.865 0.452 62.7
25282.875 0.452 62.673 0.888 -26.892 0.888 -26.892 0.452 62.673
25307.833 0.453 62.647 0.888 -26.919 0.888 -26.919 0.453 62.647
25332.792 0.453 62.621 0.888 -26.946 0.888 -26.946 0.453 62.621
25357.75 0.454 62.594 0.888 -26.973 0.888 -26.973 0.454 62.594
25382.708 0.454 62.568 0.888 -26.999 0.888 -26.999 0.454 62.568
25407.667 0.454 62.542 0.887 -27.026 0.887 -27.026 0.454 62.542
25432.625 0.455 62.516 0.887 -27.053 0.887 -27.053 0.455 62.516
25457.583 0.455 62.489 0.887 -27.08 0.887 -27.08 0.455 62.489
25482.542 0.456 62.463 0.887 -27.106 0.887 -27.106 0.456 62.463
25507.5 0.456 62.437 0.887 -27.133 0.887 -27.133 0.456 62.437
25532.458 0.456 62.411 0.886 -27.16 0.886 -27.16 0.456 62.411
25557.417 0.457 62.385 0.886 -27.186 0.886 -27.186 0.457 62.385
25582.375 0.457 62.358 0.886 -27.213 0.886 -27.213 0.457 62.358
25607.333 0.458 62.332 0.886 -27.24 0.886 -27.24 0.458 62.332
25632.292 0.458 62.306 0.885 -27.266 0.885 -27.266 0.458 62.306
25657.25 0.459 62.28 0.885 -27.293 0.885 -27.293 0.459 62.28
25682.208 0.459 62.254 0.885 -27.32 0.885 -27.32 0.459 62.254
25707.167 0.459 62.228 0.885 -27.346 0.885 -27.346 0.459 62.228
25732.125 0.46 62.202 0.885 -27.373 0.885 -27.373 0.46 62.202
25757.083 0.46 62.176 0.884 -27.399 0.884 -27.399 0.46 62.176
25782.042 0.461 62.15 0.884 -27.426 0.884 -27.426 0.461 62.15
25807 0.461 62.124 0.884 -27.452 0.884 -27.452 0.461 62.124
25831.958 0.461 62.098 0.884 -27.479 0.884 -27.479 0.461 62.098
25856.917 0.462 62.072 0.884 -27.505 0.884 -27.505 0.462 62.072
25881.875 0.462 62.046 0.883 -27.532 0.883 -27.532 0.462 62.046
25906.833 0.463 62.02 0.883 -27.558 0.883 -27.558 0.463 62.02
25931.792 0.463 61.994 0.883 -27.585 0.883 -27.585 0.463 61.994
25956.75 0.463 61.968 0.883 -27.611 0.883 -27.611 0.463 61.968
25981.708 0.464 61.942 0.882 -27.637 0.882 -27.637 0.464 61.942
26006.667 0.464 61.916 0.882 -27.664 0.882 -27.664 0.464 61.916
26031.625 0.465 61.89 0.882 -27.69 0.882 -27.69 0.465 61.89
26056.583 0.465 61.864 0.882 -27.716 0.882 -27.716 0.465 61.864
26081.542 0.466 61.838 0.882 -27.743 0.882 -27.743 0.466 61.838
26106.5 0.466 61.812 0.881 -27.769 0.881 -27.769 0.466 61.812
26131.458 0.466 61.787 0.881 -27.795 0.881 -27.795 0.466 61.787
26156.417 0.467 61.761 0.881 -27.822 0.881 -27.822 0.467 61.761
26181.375 0.467 61.735 0.881 -27.848 0.881 -27.848 0.467 61.735
26206.333 0.468 61.709 0.881 -27.874 0.881 -27.874 0.468 61.709
26231.292 0.468 61.683 0.88 -27.9 0.88 -27.9 0.468 61.683
26256.25 0.468 61.658 0.88 -27.927 0.88 -27.927 0.468 61.658
26281.208 0.469 61.632 0.88 -27.953 0.88 -27.953 0.469 61.632
26306.167 0.469 61.606 0.88 -27.979 0.88 -27.979 0.469 61.606
26331.125 0.47 61.581 0.88 -28.005 0.88 -28.005 0.47 61.581
26356.083 0.47 61.555 0.879 -28.031 0.879 -28.031 0.47 61.555
26381.042 0.47 61.529 0.879 -28.057 0.879 -28.057 0.47 61.529
26406 0.471 61.504 0.879 -28.084 0.879 -28.084 0.471 61.504
26430.958 0.471 61.478 0.879 -28.11 0.879 -28.11 0.471 61.478
26455.917 0.472 61.452 0.878 -28.136 0.878 -28.136 0.472 61.452
26480.875 0.472 61.427 0.878 -28.162 0.878 -28.162 0.472 61.427
26505.833 0.472 61.401 0.878 -28.188 0.878 -28.188 0.472 61.401
26530.792 0.473 61.375 0.878 -28.214 0.878 -28.214 0.473 61.375
26555.75 0.473 61.35 0.878 -28.24 0.878 -28.24 0.473 61.35
26580.708 0.474 61.324 0.877 -28.266 0.877 -28.266 0.474 61.324
26605.667 0.474 61.299 0.877 -28.292 0.877 -28.292 0.474 61.299
26630.625 0.474 61.273 0.877 -28.318 0.877 -28.318 0.474 61.273
26655.583 0.475 61.248 0.877 -28.344 0.877 -28.344 0.475 61.248
26680.542 0.475 61.222 0.877 -28.37 0.877 -28.37 0.475 61.222
26705.5 0.476 61.197 0.876 -28.396 0.876 -28.396 0.476 61.197
26730.458 0.476 61.171 0.876 -28.422 0.876 -28.422 0.476 61.171
26755.417 0.476 61.146 0.876 -28.447 0.876 -28.447 0.476 61.146
26780.375 0.477 61.12 0.876 -28.473 0.876 -28.473 0.477 61.12
26805.333 0.477 61.095 0.875 -28.499 0.875 -28.499 0.477 61.095
26830.292 0.478 61.07 0.875 -28.525 0.875 -28.525 0.478 61.07
26855.25 0.478 61.044 0.875 -28.551 0.875 -28.551 0.478 61.044
26880.208 0.478 61.019 0.875 -28.577 0.875 -28.577 0.478 61.019
26905.167 0.479 60.993 0.875 -28.602 0.875 -28.602 0.479 60.993
26930.125 0.479 60.968 0.874 -28.628 0.874 -28.628 0.479 60.968
26955.083 0.48 60.943 0.874 -28.654 0.874 -28.654 0.48 60.943
26980.042 0.48 60.917 0.874 -28.68 0.874 -28.68 0.48 60.917
27005 0.48 60.892 0.874 -28.705 0.874 -28.705 0.48 60.892
27029.958 0.481 60.867 0.874 -28.731 0.874 -28.731 0.481 60.867
27054.917 0.481 60.842 0.873 -28.757 0.873 -28.757 0.481 60.842
27079.875 0.481 60.816 0.873 -28.783 0.873 -28.783 0.481 60.816
27104.833 0.482 60.791 0.873 -28.808 0.873 -28.808 0.482 60.791
27129.792 0.482 60.766 0.873 -28.834 0.873 -28.834 0.482 60.766
27154.75 0.483 60.741 0.872 -28.86 0.872 -28.86 0.483 60.741
27179.708 0.483 60.715 0.872 -28.885 0.872 -28.885 0.483 60.715
27204.667 0.483 60.69 0.872 -28.911 0.872 -28.911 0.483 60.69
27229.625 0.484 60.665 0.872 -28.936 0.872 -28.936 0.484 60.665
27254.583 0.484 60.64 0.872 -28.962 0.872 -28.962 0.484 60.64
27279.542 0.485 60.615 0.871 -28.988 0.871 -28.988 0.485 60.615
27304.5 0.485 60.59 0.871 -29.013 0.871 -29.013 0.485 60.59
27329.458 0.485 60.565 0.871 -29.039 0.871 -29.039 0.485 60.565
27354.417 0.486 60.539 0.871 -29.064 0.871 -29.064 0.486 60.539
27379.375 0.486 60.514 0.87 -29.09 0.87 -29.09 0.486 60.514
27404.333 0.487 60.489 0.87 -29.115 0.87 -29.115 0.487 60.489
27429.292 0.487 60.464 0.87 -29.141 0.87 -29.141 0.487 60.464
27454.25 0.487 60.439 0.87 -29.166 0.87 -29.166 0.487 60.439
27479.208 0.488 60.414 0.87 -29.191 0.87 -29.191 0.488 60.414
27504.167 0.488 60.389 0.869 -29.217 0.869 -29.217 0.488 60.389
27529.125 0.489 60.364 0.869 -29.242 0.869 -29.242 0.489 60.364
27554.083 0.489 60.339 0.869 -29.268 0.869 -29.268 0.489 60.339
27579.042 0.489 60.314 0.869 -29.293 0.869 -29.293 0.489 60.314
27604 0.49 60.289 0.869 -29.318 0.869 -29.318 0.49 60.289
27628.958 0.49 60.264 0.868 -29.344 0.868 -29.344 0.49 60.264
27653.917 0.49 60.239 0.868 -29.369 0.868 -29.369 0.49 60.239
27678.875 0.491 60.215 0.868 -29.394 0.868 -29.394 0.491 60.215
27703.833 0.491 60.19 0.868 -29.42 0.868 -29.42 0.491 60.19
27728.792 0.492 60.165 0.867 -29.445 0.867 -29.445 0.492 60.165
27753.75 0.492 60.14 0.867 -29.47 0.867 -29.47 0.492 60.14
27778.708 0.492 60.115 0.867 -29.495 0.867 -29.495 0.492 60.115
27803.667 0.493 60.09 0.867 -29.521 0.867 -29.521 0.493 60.09
27828.625 0.493 60.065 0.867 -29.546 0.867 -29.546 0.493 60.065
27853.583 0.494 60.041 0.866 -29.571 0.866 -29.571 0.494 60.041
27878.542 0.494 60.016 0.866 -29.596 0.866 -29.596 0.494 60.016
27903.5 0.494 59.991 0.866 -29.621 0.866 -29.621 0.494 59.991
27928.458 0.495 59.966 0.866 -29.647 0.866 -29.647 0.495 59.966
27953.417 0.495 59.942 0.866 -29.672 0.866 -29.672 0.495 59.942
27978.375 0.495 59.917 0.865 -29.697 0.865 -29.697 0.495 59.917
28003.333 0.496 59.892 0.865 -29.722 0.865 -29.722 0.496 59.892
28028.292 0.496 59.867 0.865 -29.747 0.865 -29.747 0.496 59.867
28053.25 0.497 59.843 0.865 -29.772 0.865 -29.772 0.497 59.843
28078.208 0.497 59.818 0.864 -29.797 0.864 -29.797 0.497 59.818
28103.167 0.497 59.793 0.864 -29.822 0.864 -29.822 0.497 59.793
28128.125 0.498 59.769 0.864 -29.847 0.864 -29.847 0.498 59.769
28153.083 0.498 59.744 0.864 -29.872 0.864 -29.872 0.498 59.744
28178.042 0.498 59.719 0.864 -29.897 0.864 -29.897 0.498 59.719
28203 0.499 59.695 0.863 -29.922 0.863 -29.922 0.499 59.695
28227.958 0.499 59.67 0.863 -29.947 0.863 -29.947 0.499 59.67
28252.917 0.5 59.646 0.863 -29.972 0.863 -29.972 0.5 59.646
28277.875 0.5 59.621 0.863 -29.997 0.863 -29.997 0.5 59.621
28302.833 0.5 59.597 0.863 -30.022 0.863 -30.022 0.5 59.597
28327.792 0.501 59.572 0.862 -30.047 0.862 -30.047 0.501 59.572
28352.75 0.501 59.548 0.862 -30.072 0.862 -30.072 0.501 59.548
28377.708 0.501 59.523 0.862 -30.097 0.862 -30.097 0.501 59.523
28402.667 0.502 59.499 0.862 -30.122 0.862 -30.122 0.502 59.499
28427.625 0.502 59.474 0.861 -30.146 0.861 -30.146 0.502 59.474
28452.583 0.503 59.45 0.861 -30.171 0.861 -30.171 0.503 59.45
28477.542 0.503 59.425 0.861 -30.196 0.861 -30.196 0.503 59.425
28502.5 0.503 59.401 0.861 -30.221 0.861 -30.221 0.503 59.401
28527.458 0.504 59.376 0.861 -30.246 0.861 -30.246 0.504 59.376
28552.417 0.504 59.352 0.86 -30.271 0.86 -30.271 0.504 59.352
28577.375 0.504 59.328 0.86 -30.295 0.86 -30.295 0.504 59.328
28602.333 0.505 59.303 0.86 -30.32 0.86 -30.32 0.505 59.303
28627.292 0.505 59.279 0.86 -30.345 0.86 -30.345 0.505 59.279
28652.25 0.506 59.254 0.859 -30.369 0.859 -30.369 0.506 59.254
28677.208 0.506 59.23 0.859 -30.394 0.859 -30.394 0.506 59.23
28702.167 0.506 59.206 0.859 -30.419 0.859 -30.419 0.506 59.206
28727.125 0.507 59.182 0.859 -30.444 0.859 -30.444 0.507 59.182
28752.083 0.507 59.157 0.859 -30.468 0.859 -30.468 0.507 59.157
28777.042 0.507 59.133 0.858 -30.493 0.858 -30.493 0.507 59.133
28802 0.508 59.109 0.858 -30.517 0.858 -30.517 0.508 59.109
28826.958 0.508 59.084 0.858 -30.542 0.858 -30.542 0.508 59.084
28851.917 0.509 59.06 0.858 -30.567 0.858 -30.567 0.509 59.06
28876.875 0.509 59.036 0.858 -30.591 0.858 -30.591 0.509 59.036
28901.833 0.509 59.012 0.857 -30.616 0.857 -30.616 0.509 59.012
28926.792 0.51 58.988 0.857 -30.64 0.857 -30.64 0.51 58.988
28951.75 0.51 58.963 0.857 -30.665 0.857 -30.665 0.51 58.963
28976.708 0.51 58.939 0.857 -30.689 0.857 -30.689 0.51 58.939
29001.667 0.511 58.915 0.856 -30.714 0.856 -30.714 0.511 58.915
29026.625 0.511 58.891 0.856 -30.738 0.856 -30.738 0.511 58.891
29051.583 0.511 58.867 0.856 -30.763 0.856 -30.763 0.511 58.867
29076.542 0.512 58.843 0.856 -30.787 0.856 -30.787 0.512 58.843
29101.5 0.512 58.819 0.856 -30.812 0.856 -30.812 0.512 58.819
29126.458 0.513 58.795 0.855 -30.836 0.855 -30.836 0.513 58.795
29151.417 0.513 58.771 0.855 -30.861 0.855 -30.861 0.513 58.771
29176.375 0.513 58.747 0.855 -30.885 0.855 -30.885 0.513 58.747
29201.333 0.514 58.723 0.855 -30.909 0.855 -30.909 0.514 58.723
29226.292 0.514 58.699 0.854 -30.934 0.854 -30.934 0.514 58.699
29251.25 0.514 58.675 0.854 -30.958 0.854 -30.958 0.514 58.675
29276.208 0.515 58.651 0.854 -30.982 0.854 -30.982 0.515 58.651
29301.167 0.515 58.627 0.854 -31.007 0.854 -31.007 0.515 58.627
29326.125 0.516 58.603 0.854 -31.031 0.854 -31.031 0.516 58.603
29351.083 0.516 58.579 0.853 -31.055 0.853 -31.055 0.516 58.579
29376.042 0.516 58.555 0.853 -31.08 0.853 -31.08 0.516 58.555
29401 0.517 58.531 0.853 -31.104 0.853 -31.104 0.517 58.531
29425.958 0.517 58.507 0.853 -31.128 0.853 -31.128 0.517 58.507
29450.917 0.517 58.483 0.853 -31.152 0.853 -31.152 0.517 58.483
29475.875 0.518 58.459 0.852 -31.177 0.852 -31.177 0.518 58.459
29500.833 0.518 58.435 0.852 -31.201 0.852 -31.201 0.518 58.435
29525.792 0.518 58.411 0.852 -31.225 0.852 -31.225 0.518 58.411
29550.75 0.519 58.388 0.852 -31.249 0.852 -31.249 0.519 58.388
29575.708 0.519 58.364 0.851 -31.273 0.851 -31.273 0.519 58.364
29600.667 0.519 58.34 0.851 -31.298 0.851 -31.298 0.519 58.34
29625.625 0.52 58.316 0.851 -31.322 0.851 -31.322 0.52 58.316
29650.583 0.52 58.292 0.851 -31.346 0.851 -31.346 0.52 58.292
29675.542 0.521 58.269 0.851 -31.37 0.851 -31.37 0.521 58.269
29700.5 0.521 58.245 0.85 -31.394 0.85 -31.394 0.521 58.245
29725.458 0.521 58.221 0.85 -31.418 0.85 -31.418 0.521 58.221
29750.417 0.522 58.197 0.85 -31.442 0.85 -31.442 0.522 58.197
29775.375 0.522 58.174 0.85 -31.466 0.85 -31.466 0.522 58.174
29800.333 0.522 58.15 0.849 -31.49 0.849 -31.49 0.522 58.15
29825.292 0.523 58.126 0.849 -31.514 0.849 -31.514 0.523 58.126
29850.25 0.523 58.103 0.849 -31.538 0.849 -31.538 0.523 58.103
29875.208 0.523 58.079 0.849 -31.562 0.849 -31.562 0.523 58.079
29900.167 0.524 58.055 0.849 -31.586 0.849 -31.586 0.524 58.055
29925.125 0.524 58.032 0.848 -31.61 0.848 -31.61 0.524 58.032
29950.083 0.525 58.008 0.848 -31.634 0.848 -31.634 0.525 58.008
29975.042 0.525 57.985 0.848 -31.658 0.848 -31.658 0.525 57.985
30000 0.525 57.961 0.848 -31.682 0.848 -31.682 0.525 57.961
