!	AVX Thin Film Operation 	Date: April 2014		
!	Description: Accu-P® Series, Thin Film  SMD RF Capacitor
!	Part Number: 02015JA55PBSTR					
!								
# MHZ S MA R 50

50 0.999 -2.788 0.049 87.202 0.049 87.202 0.999 -2.788
74.958 0.997 -4.176 0.073 85.81 0.073 85.81 0.997 -4.176
99.917 0.995 -5.559 0.097 84.422 0.097 84.422 0.995 -5.559
124.875 0.993 -6.936 0.121 83.04 0.121 83.04 0.993 -6.936
149.833 0.989 -8.305 0.144 81.665 0.144 81.665 0.989 -8.305
174.792 0.986 -9.666 0.168 80.3 0.168 80.3 0.986 -9.666
199.75 0.981 -11.016 0.191 78.945 0.191 78.945 0.981 -11.016
224.708 0.977 -12.355 0.214 77.601 0.214 77.601 0.977 -12.355
249.667 0.971 -13.681 0.237 76.271 0.237 76.271 0.971 -13.681
274.625 0.966 -14.993 0.259 74.954 0.259 74.954 0.966 -14.993
299.583 0.96 -16.29 0.281 73.652 0.281 73.652 0.96 -16.29
324.542 0.953 -17.571 0.302 72.366 0.302 72.366 0.953 -17.571
349.5 0.946 -18.836 0.323 71.096 0.323 71.096 0.946 -18.836
374.458 0.939 -20.083 0.343 69.844 0.343 69.844 0.939 -20.083
399.417 0.931 -21.311 0.363 68.611 0.363 68.611 0.931 -21.311
424.375 0.923 -22.521 0.383 67.396 0.383 67.396 0.923 -22.521
449.333 0.915 -23.711 0.402 66.201 0.402 66.201 0.915 -23.711
474.292 0.907 -24.881 0.421 65.026 0.421 65.026 0.907 -24.881
499.25 0.898 -26.031 0.439 63.871 0.439 63.871 0.898 -26.031
524.208 0.889 -27.161 0.456 62.737 0.456 62.737 0.889 -27.161
549.167 0.88 -28.269 0.474 61.624 0.474 61.624 0.88 -28.269
574.125 0.871 -29.357 0.49 60.531 0.49 60.531 0.871 -29.357
599.083 0.861 -30.423 0.506 59.46 0.506 59.46 0.861 -30.423
624.042 0.852 -31.468 0.522 58.41 0.522 58.41 0.852 -31.468
649 0.842 -32.493 0.537 57.381 0.537 57.381 0.842 -32.493
673.958 0.833 -33.496 0.552 56.373 0.552 56.373 0.833 -33.496
698.917 0.823 -34.478 0.566 55.385 0.566 55.385 0.823 -34.478
723.875 0.813 -35.439 0.58 54.419 0.58 54.419 0.813 -35.439
748.833 0.804 -36.38 0.593 53.473 0.593 53.473 0.804 -36.38
773.792 0.794 -37.3 0.606 52.548 0.606 52.548 0.794 -37.3
798.75 0.784 -38.2 0.618 51.643 0.618 51.643 0.784 -38.2
823.708 0.774 -39.081 0.63 50.757 0.63 50.757 0.774 -39.081
848.667 0.765 -39.941 0.642 49.892 0.642 49.892 0.765 -39.941
873.625 0.755 -40.783 0.653 49.045 0.653 49.045 0.755 -40.783
898.583 0.746 -41.606 0.664 48.217 0.664 48.217 0.746 -41.606
923.542 0.736 -42.41 0.674 47.408 0.674 47.408 0.736 -42.41
948.5 0.727 -43.196 0.684 46.617 0.684 46.617 0.727 -43.196
973.458 0.717 -43.964 0.694 45.844 0.694 45.844 0.717 -43.964
998.417 0.708 -44.715 0.704 45.088 0.704 45.088 0.708 -44.715
1023.375 0.699 -45.448 0.713 44.349 0.713 44.349 0.699 -45.448
1048.333 0.69 -46.165 0.721 43.627 0.721 43.627 0.69 -46.165
1073.292 0.681 -46.866 0.73 42.921 0.73 42.921 0.681 -46.866
1098.25 0.672 -47.551 0.738 42.231 0.738 42.231 0.672 -47.551
1123.208 0.663 -48.22 0.746 41.556 0.746 41.556 0.663 -48.22
1148.167 0.655 -48.874 0.753 40.897 0.753 40.897 0.655 -48.874
1173.125 0.646 -49.514 0.761 40.252 0.761 40.252 0.646 -49.514
1198.083 0.638 -50.139 0.768 39.622 0.768 39.622 0.638 -50.139
1223.042 0.629 -50.75 0.774 39.005 0.774 39.005 0.629 -50.75
1248 0.621 -51.348 0.781 38.402 0.781 38.402 0.621 -51.348
1272.958 0.613 -51.932 0.787 37.813 0.787 37.813 0.613 -51.932
1297.917 0.605 -52.503 0.793 37.236 0.793 37.236 0.605 -52.503
1322.875 0.597 -53.062 0.799 36.672 0.799 36.672 0.597 -53.062
1347.833 0.589 -53.608 0.805 36.12 0.805 36.12 0.589 -53.608
1372.792 0.582 -54.143 0.81 35.58 0.81 35.58 0.582 -54.143
1397.75 0.574 -54.666 0.816 35.051 0.816 35.051 0.574 -54.666
1422.708 0.567 -55.178 0.821 34.534 0.821 34.534 0.567 -55.178
1447.667 0.56 -55.679 0.826 34.028 0.826 34.028 0.56 -55.679
1472.625 0.552 -56.169 0.831 33.532 0.831 33.532 0.552 -56.169
1497.583 0.545 -56.649 0.835 33.047 0.835 33.047 0.545 -56.649
1522.542 0.538 -57.119 0.84 32.571 0.84 32.571 0.538 -57.119
1547.5 0.531 -57.579 0.844 32.106 0.844 32.106 0.531 -57.579
1572.458 0.525 -58.029 0.848 31.649 0.848 31.649 0.525 -58.029
1597.417 0.518 -58.47 0.852 31.203 0.852 31.203 0.518 -58.47
1622.375 0.512 -58.903 0.856 30.765 0.856 30.765 0.512 -58.903
1647.333 0.505 -59.326 0.86 30.335 0.86 30.335 0.505 -59.326
1672.292 0.499 -59.741 0.864 29.915 0.864 29.915 0.499 -59.741
1697.25 0.492 -60.148 0.867 29.502 0.867 29.502 0.492 -60.148
1722.208 0.486 -60.546 0.871 29.098 0.871 29.098 0.486 -60.546
1747.167 0.48 -60.937 0.874 28.701 0.874 28.701 0.48 -60.937
1772.125 0.474 -61.32 0.877 28.312 0.877 28.312 0.474 -61.32
1797.083 0.468 -61.696 0.88 27.93 0.88 27.93 0.468 -61.696
1822.042 0.463 -62.064 0.883 27.556 0.883 27.556 0.463 -62.064
1847 0.457 -62.426 0.886 27.188 0.886 27.188 0.457 -62.426
1871.958 0.451 -62.781 0.889 26.828 0.889 26.828 0.451 -62.781
1896.917 0.446 -63.129 0.892 26.473 0.892 26.473 0.446 -63.129
1921.875 0.44 -63.47 0.895 26.126 0.895 26.126 0.44 -63.47
1946.833 0.435 -63.805 0.897 25.784 0.897 25.784 0.435 -63.805
1971.792 0.43 -64.135 0.9 25.449 0.9 25.449 0.43 -64.135
1996.75 0.425 -64.458 0.902 25.12 0.902 25.12 0.425 -64.458
2021.708 0.419 -64.775 0.905 24.796 0.905 24.796 0.419 -64.775
2046.667 0.414 -65.087 0.907 24.478 0.907 24.478 0.414 -65.087
2071.625 0.409 -65.393 0.909 24.166 0.909 24.166 0.409 -65.393
2096.583 0.404 -65.694 0.911 23.858 0.911 23.858 0.404 -65.694
2121.542 0.4 -65.989 0.913 23.556 0.913 23.556 0.4 -65.989
2146.5 0.395 -66.279 0.916 23.259 0.916 23.259 0.395 -66.279
2171.458 0.39 -66.565 0.918 22.968 0.918 22.968 0.39 -66.565
2196.417 0.386 -66.845 0.919 22.68 0.919 22.68 0.386 -66.845
2221.375 0.381 -67.121 0.921 22.398 0.921 22.398 0.381 -67.121
2246.333 0.377 -67.393 0.923 22.12 0.923 22.12 0.377 -67.393
2271.292 0.372 -67.659 0.925 21.846 0.925 21.846 0.372 -67.659
2296.25 0.368 -67.922 0.927 21.577 0.927 21.577 0.368 -67.922
2321.208 0.363 -68.18 0.928 21.312 0.928 21.312 0.363 -68.18
2346.167 0.359 -68.433 0.93 21.052 0.93 21.052 0.359 -68.433
2371.125 0.355 -68.683 0.932 20.795 0.932 20.795 0.355 -68.683
2396.083 0.351 -68.929 0.933 20.542 0.933 20.542 0.351 -68.929
2421.042 0.347 -69.171 0.935 20.293 0.935 20.293 0.347 -69.171
2446 0.343 -69.409 0.936 20.048 0.936 20.048 0.343 -69.409
2470.958 0.339 -69.643 0.938 19.806 0.938 19.806 0.339 -69.643
2495.917 0.335 -69.874 0.939 19.568 0.939 19.568 0.335 -69.874
2520.875 0.331 -70.101 0.94 19.334 0.94 19.334 0.331 -70.101
2545.833 0.327 -70.325 0.942 19.103 0.942 19.103 0.327 -70.325
2570.792 0.324 -70.546 0.943 18.875 0.943 18.875 0.324 -70.546
2595.75 0.32 -70.763 0.944 18.65 0.944 18.65 0.32 -70.763
2620.708 0.316 -70.976 0.945 18.429 0.945 18.429 0.316 -70.976
2645.667 0.313 -71.187 0.947 18.211 0.947 18.211 0.313 -71.187
2670.625 0.309 -71.395 0.948 17.995 0.948 17.995 0.309 -71.395
2695.583 0.305 -71.599 0.949 17.783 0.949 17.783 0.305 -71.599
2720.542 0.302 -71.801 0.95 17.573 0.95 17.573 0.302 -71.801
2745.5 0.299 -72 0.951 17.367 0.951 17.367 0.299 -72
2770.458 0.295 -72.196 0.952 17.163 0.952 17.163 0.295 -72.196
2795.417 0.292 -72.389 0.953 16.962 0.953 16.962 0.292 -72.389
2820.375 0.288 -72.579 0.954 16.763 0.954 16.763 0.288 -72.579
2845.333 0.285 -72.767 0.955 16.567 0.955 16.567 0.285 -72.767
2870.292 0.282 -72.952 0.956 16.373 0.956 16.373 0.282 -72.952
2895.25 0.279 -73.135 0.957 16.182 0.957 16.182 0.279 -73.135
2920.208 0.276 -73.315 0.958 15.994 0.958 15.994 0.276 -73.315
2945.167 0.272 -73.493 0.959 15.808 0.959 15.808 0.272 -73.493
2970.125 0.269 -73.668 0.96 15.624 0.96 15.624 0.269 -73.668
2995.083 0.266 -73.841 0.961 15.442 0.961 15.442 0.266 -73.841
3020.042 0.263 -74.011 0.961 15.262 0.961 15.262 0.263 -74.011
3045 0.26 -74.18 0.962 15.085 0.962 15.085 0.26 -74.18
3069.958 0.257 -74.346 0.963 14.91 0.963 14.91 0.257 -74.346
3094.917 0.254 -74.51 0.964 14.737 0.964 14.737 0.254 -74.51
3119.875 0.252 -74.672 0.965 14.566 0.965 14.566 0.252 -74.672
3144.833 0.249 -74.831 0.965 14.397 0.965 14.397 0.249 -74.831
3169.792 0.246 -74.989 0.966 14.23 0.966 14.23 0.246 -74.989
3194.75 0.243 -75.145 0.967 14.064 0.967 14.064 0.243 -75.145
3219.708 0.24 -75.298 0.967 13.901 0.967 13.901 0.24 -75.298
3244.667 0.238 -75.45 0.968 13.739 0.968 13.739 0.238 -75.45
3269.625 0.235 -75.6 0.969 13.58 0.969 13.58 0.235 -75.6
3294.583 0.232 -75.748 0.969 13.422 0.969 13.422 0.232 -75.748
3319.542 0.229 -75.894 0.97 13.266 0.97 13.266 0.229 -75.894
3344.5 0.227 -76.038 0.971 13.111 0.971 13.111 0.227 -76.038
3369.458 0.224 -76.181 0.971 12.958 0.971 12.958 0.224 -76.181
3394.417 0.222 -76.322 0.972 12.807 0.972 12.807 0.222 -76.322
3419.375 0.219 -76.461 0.972 12.657 0.972 12.657 0.219 -76.461
3444.333 0.217 -76.598 0.973 12.509 0.973 12.509 0.217 -76.598
3469.292 0.214 -76.733 0.973 12.363 0.973 12.363 0.214 -76.733
3494.25 0.212 -76.867 0.974 12.217 0.974 12.217 0.212 -76.867
3519.208 0.209 -77 0.974 12.074 0.974 12.074 0.209 -77
3544.167 0.207 -77.131 0.975 11.932 0.975 11.932 0.207 -77.131
3569.125 0.204 -77.26 0.976 11.791 0.976 11.791 0.204 -77.26
3594.083 0.202 -77.387 0.976 11.652 0.976 11.652 0.202 -77.387
3619.042 0.2 -77.513 0.976 11.514 0.976 11.514 0.2 -77.513
3644 0.197 -77.638 0.977 11.377 0.977 11.377 0.197 -77.638
3668.958 0.195 -77.761 0.977 11.242 0.977 11.242 0.195 -77.761
3693.917 0.193 -77.883 0.978 11.108 0.978 11.108 0.193 -77.883
3718.875 0.19 -78.003 0.978 10.975 0.978 10.975 0.19 -78.003
3743.833 0.188 -78.122 0.979 10.844 0.979 10.844 0.188 -78.122
3768.792 0.186 -78.239 0.979 10.714 0.979 10.714 0.186 -78.239
3793.75 0.184 -78.355 0.98 10.585 0.98 10.585 0.184 -78.355
3818.708 0.182 -78.47 0.98 10.457 0.98 10.457 0.182 -78.47
3843.667 0.179 -78.583 0.98 10.33 0.98 10.33 0.179 -78.583
3868.625 0.177 -78.695 0.981 10.205 0.981 10.205 0.177 -78.695
3893.583 0.175 -78.805 0.981 10.08 0.981 10.08 0.175 -78.805
3918.542 0.173 -78.914 0.982 9.957 0.982 9.957 0.173 -78.914
3943.5 0.171 -79.022 0.982 9.835 0.982 9.835 0.171 -79.022
3968.458 0.169 -79.129 0.982 9.714 0.982 9.714 0.169 -79.129
3993.417 0.167 -79.234 0.983 9.594 0.983 9.594 0.167 -79.234
4018.375 0.165 -79.338 0.983 9.474 0.983 9.474 0.165 -79.338
4043.333 0.163 -79.441 0.983 9.356 0.983 9.356 0.163 -79.441
4068.292 0.161 -79.543 0.984 9.239 0.984 9.239 0.161 -79.543
4093.25 0.159 -79.643 0.984 9.123 0.984 9.123 0.159 -79.643
4118.208 0.157 -79.742 0.984 9.008 0.984 9.008 0.157 -79.742
4143.167 0.155 -79.84 0.985 8.894 0.985 8.894 0.155 -79.84
4168.125 0.153 -79.937 0.985 8.781 0.985 8.781 0.153 -79.937
4193.083 0.151 -80.032 0.985 8.669 0.985 8.669 0.151 -80.032
4218.042 0.149 -80.126 0.985 8.557 0.985 8.557 0.149 -80.126
4243 0.147 -80.219 0.986 8.447 0.986 8.447 0.147 -80.219
4267.958 0.145 -80.311 0.986 8.337 0.986 8.337 0.145 -80.311
4292.917 0.143 -80.402 0.986 8.228 0.986 8.228 0.143 -80.402
4317.875 0.141 -80.491 0.987 8.12 0.987 8.12 0.141 -80.491
4342.833 0.139 -80.58 0.987 8.013 0.987 8.013 0.139 -80.58
4367.792 0.138 -80.667 0.987 7.907 0.987 7.907 0.138 -80.667
4392.75 0.136 -80.753 0.987 7.801 0.987 7.801 0.136 -80.753
4417.708 0.134 -80.837 0.988 7.697 0.988 7.697 0.134 -80.837
4442.667 0.132 -80.921 0.988 7.593 0.988 7.593 0.132 -80.921
4467.625 0.13 -81.004 0.988 7.49 0.988 7.49 0.13 -81.004
4492.583 0.129 -81.085 0.988 7.387 0.988 7.387 0.129 -81.085
4517.542 0.127 -81.165 0.988 7.286 0.988 7.286 0.127 -81.165
4542.5 0.125 -81.244 0.989 7.185 0.989 7.185 0.125 -81.244
4567.458 0.123 -81.322 0.989 7.084 0.989 7.084 0.123 -81.322
4592.417 0.122 -81.398 0.989 6.985 0.989 6.985 0.122 -81.398
4617.375 0.12 -81.474 0.989 6.886 0.989 6.886 0.12 -81.474
4642.333 0.118 -81.548 0.99 6.788 0.99 6.788 0.118 -81.548
4667.292 0.117 -81.621 0.99 6.691 0.99 6.691 0.117 -81.621
4692.25 0.115 -81.692 0.99 6.594 0.99 6.594 0.115 -81.692
4717.208 0.113 -81.763 0.99 6.498 0.99 6.498 0.113 -81.763
4742.167 0.112 -81.832 0.99 6.402 0.99 6.402 0.112 -81.832
4767.125 0.11 -81.9 0.991 6.308 0.991 6.308 0.11 -81.9
4792.083 0.108 -81.967 0.991 6.214 0.991 6.214 0.108 -81.967
4817.042 0.107 -82.033 0.991 6.12 0.991 6.12 0.107 -82.033
4842 0.105 -82.097 0.991 6.027 0.991 6.027 0.105 -82.097
4866.958 0.103 -82.16 0.991 5.935 0.991 5.935 0.103 -82.16
4891.917 0.102 -82.221 0.991 5.843 0.991 5.843 0.102 -82.221
4916.875 0.1 -82.282 0.992 5.752 0.992 5.752 0.1 -82.282
4941.833 0.099 -82.341 0.992 5.661 0.992 5.661 0.099 -82.341
4966.792 0.097 -82.398 0.992 5.571 0.992 5.571 0.097 -82.398
4991.75 0.096 -82.454 0.992 5.482 0.992 5.482 0.096 -82.454
5016.708 0.094 -82.509 0.992 5.393 0.992 5.393 0.094 -82.509
5041.667 0.093 -82.562 0.992 5.305 0.992 5.305 0.093 -82.562
5066.625 0.091 -82.614 0.992 5.217 0.992 5.217 0.091 -82.614
5091.583 0.089 -82.664 0.993 5.13 0.993 5.13 0.089 -82.664
5116.542 0.088 -82.713 0.993 5.043 0.993 5.043 0.088 -82.713
5141.5 0.086 -82.76 0.993 4.957 0.993 4.957 0.086 -82.76
5166.458 0.085 -82.805 0.993 4.871 0.993 4.871 0.085 -82.805
5191.417 0.084 -82.849 0.993 4.786 0.993 4.786 0.084 -82.849
5216.375 0.082 -82.891 0.993 4.701 0.993 4.701 0.082 -82.891
5241.333 0.081 -82.931 0.993 4.617 0.993 4.617 0.081 -82.931
5266.292 0.079 -82.969 0.993 4.534 0.993 4.534 0.079 -82.969
5291.25 0.078 -83.005 0.994 4.45 0.994 4.45 0.078 -83.005
5316.208 0.076 -83.04 0.994 4.368 0.994 4.368 0.076 -83.04
5341.167 0.075 -83.072 0.994 4.285 0.994 4.285 0.075 -83.072
5366.125 0.073 -83.103 0.994 4.203 0.994 4.203 0.073 -83.103
5391.083 0.072 -83.131 0.994 4.122 0.994 4.122 0.072 -83.131
5416.042 0.071 -83.156 0.994 4.041 0.994 4.041 0.071 -83.156
5441 0.069 -83.18 0.994 3.961 0.994 3.961 0.069 -83.18
5465.958 0.068 -83.201 0.994 3.881 0.994 3.881 0.068 -83.201
5490.917 0.066 -83.219 0.994 3.801 0.994 3.801 0.066 -83.219
5515.875 0.065 -83.235 0.994 3.722 0.994 3.722 0.065 -83.235
5540.833 0.064 -83.248 0.995 3.643 0.995 3.643 0.064 -83.248
5565.792 0.062 -83.258 0.995 3.565 0.995 3.565 0.062 -83.258
5590.75 0.061 -83.265 0.995 3.487 0.995 3.487 0.061 -83.265
5615.708 0.06 -83.268 0.995 3.409 0.995 3.409 0.06 -83.268
5640.667 0.058 -83.269 0.995 3.332 0.995 3.332 0.058 -83.269
5665.625 0.057 -83.265 0.995 3.255 0.995 3.255 0.057 -83.265
5690.583 0.056 -83.258 0.995 3.179 0.995 3.179 0.056 -83.258
5715.542 0.054 -83.247 0.995 3.103 0.995 3.103 0.054 -83.247
5740.5 0.053 -83.231 0.995 3.027 0.995 3.027 0.053 -83.231
5765.458 0.052 -83.211 0.995 2.952 0.995 2.952 0.052 -83.211
5790.417 0.05 -83.186 0.995 2.877 0.995 2.877 0.05 -83.186
5815.375 0.049 -83.156 0.995 2.803 0.995 2.803 0.049 -83.156
5840.333 0.048 -83.121 0.995 2.728 0.995 2.728 0.048 -83.121
5865.292 0.046 -83.08 0.995 2.655 0.995 2.655 0.046 -83.08
5890.25 0.045 -83.032 0.996 2.581 0.996 2.581 0.045 -83.032
5915.208 0.044 -82.978 0.996 2.508 0.996 2.508 0.044 -82.978
5940.167 0.043 -82.916 0.996 2.435 0.996 2.435 0.043 -82.916
5965.125 0.041 -82.846 0.996 2.363 0.996 2.363 0.041 -82.846
5990.083 0.04 -82.768 0.996 2.291 0.996 2.291 0.04 -82.768
6015.042 0.039 -82.681 0.996 2.219 0.996 2.219 0.039 -82.681
6040 0.038 -82.584 0.996 2.148 0.996 2.148 0.038 -82.584
6064.958 0.036 -82.475 0.996 2.077 0.996 2.077 0.036 -82.475
6089.917 0.035 -82.355 0.996 2.006 0.996 2.006 0.035 -82.355
6114.875 0.034 -82.221 0.996 1.935 0.996 1.935 0.034 -82.221
6139.833 0.033 -82.073 0.996 1.865 0.996 1.865 0.033 -82.073
6164.792 0.032 -81.909 0.996 1.796 0.996 1.796 0.032 -81.909
6189.75 0.03 -81.727 0.996 1.726 0.996 1.726 0.03 -81.727
6214.708 0.029 -81.525 0.996 1.657 0.996 1.657 0.029 -81.525
6239.667 0.028 -81.301 0.996 1.588 0.996 1.588 0.028 -81.301
6264.625 0.027 -81.052 0.996 1.519 0.996 1.519 0.027 -81.052
6289.583 0.026 -80.774 0.996 1.451 0.996 1.451 0.026 -80.774
6314.542 0.024 -80.465 0.996 1.383 0.996 1.383 0.024 -80.465
6339.5 0.023 -80.119 0.996 1.315 0.996 1.315 0.023 -80.119
6364.458 0.022 -79.73 0.996 1.248 0.996 1.248 0.022 -79.73
6389.417 0.021 -79.293 0.996 1.181 0.996 1.181 0.021 -79.293
6414.375 0.02 -78.799 0.996 1.114 0.996 1.114 0.02 -78.799
6439.333 0.019 -78.238 0.996 1.047 0.996 1.047 0.019 -78.238
6464.292 0.017 -77.597 0.996 0.981 0.996 0.981 0.017 -77.597
6489.25 0.016 -76.862 0.996 0.915 0.996 0.915 0.016 -76.862
6514.208 0.015 -76.011 0.996 0.849 0.996 0.849 0.015 -76.011
6539.167 0.014 -75.019 0.996 0.783 0.996 0.783 0.014 -75.019
6564.125 0.013 -73.852 0.996 0.718 0.996 0.718 0.013 -73.852
6589.083 0.012 -72.463 0.996 0.653 0.996 0.653 0.012 -72.463
6614.042 0.011 -70.79 0.996 0.588 0.996 0.588 0.011 -70.79
6639 9.768e-3 -68.743 0.997 0.523 0.997 0.523 9.768e-3 -68.743
6663.958 8.728e-3 -66.199 0.997 0.459 0.997 0.459 8.728e-3 -66.199
6688.917 7.714e-3 -62.971 0.997 0.395 0.997 0.395 7.714e-3 -62.971
6713.875 6.737e-3 -58.785 0.997 0.331 0.997 0.331 6.737e-3 -58.785
6738.833 5.813e-3 -53.226 0.997 0.268 0.997 0.268 5.813e-3 -53.226
6763.792 4.968e-3 -45.683 0.997 0.204 0.997 0.204 4.968e-3 -45.683
6788.75 4.247e-3 -35.349 0.997 0.141 0.997 0.141 4.247e-3 -35.349
6813.708 3.719e-3 -21.513 0.997 0.078 0.997 0.078 3.719e-3 -21.513
6838.667 3.469e-3 -4.539 0.997 0.016 0.997 0.016 3.469e-3 -4.539
6863.625 3.553e-3 13.193 0.997 -0.047 0.997 -0.047 3.553e-3 13.193
6888.583 3.945e-3 28.661 0.997 -0.109 0.997 -0.109 3.945e-3 28.661
6913.542 4.565e-3 40.583 0.997 -0.171 0.997 -0.171 4.565e-3 40.583
6938.5 5.331e-3 49.327 0.997 -0.232 0.997 -0.232 5.331e-3 49.327
6963.458 6.188e-3 55.728 0.997 -0.294 0.997 -0.294 6.188e-3 55.728
6988.417 7.1e-3 60.497 0.997 -0.355 0.997 -0.355 7.1e-3 60.497
7013.375 8.048e-3 64.135 0.997 -0.416 0.997 -0.416 8.048e-3 64.135
7038.333 9.019e-3 66.976 0.997 -0.477 0.997 -0.477 9.019e-3 66.976
7063.292 0.01 69.241 0.996 -0.538 0.996 -0.538 0.01 69.241
7088.25 0.011 71.08 0.996 -0.598 0.996 -0.598 0.011 71.08
7113.208 0.012 72.598 0.996 -0.659 0.996 -0.659 0.012 72.598
7138.167 0.013 73.867 0.996 -0.719 0.996 -0.719 0.013 73.867
7163.125 0.014 74.942 0.996 -0.778 0.996 -0.778 0.014 74.942
7188.083 0.015 75.861 0.996 -0.838 0.996 -0.838 0.015 75.861
7213.042 0.016 76.654 0.996 -0.898 0.996 -0.898 0.016 76.654
7238 0.017 77.344 0.996 -0.957 0.996 -0.957 0.017 77.344
7262.958 0.018 77.948 0.996 -1.016 0.996 -1.016 0.018 77.948
7287.917 0.019 78.48 0.996 -1.075 0.996 -1.075 0.019 78.48
7312.875 0.02 78.951 0.996 -1.133 0.996 -1.133 0.02 78.951
7337.833 0.021 79.37 0.996 -1.192 0.996 -1.192 0.021 79.37
7362.792 0.022 79.745 0.996 -1.25 0.996 -1.25 0.022 79.745
7387.75 0.023 80.081 0.996 -1.308 0.996 -1.308 0.023 80.081
7412.708 0.024 80.383 0.996 -1.366 0.996 -1.366 0.024 80.383
7437.667 0.025 80.655 0.996 -1.424 0.996 -1.424 0.025 80.655
7462.625 0.026 80.902 0.996 -1.481 0.996 -1.481 0.026 80.902
7487.583 0.027 81.126 0.996 -1.539 0.996 -1.539 0.027 81.126
7512.542 0.028 81.329 0.996 -1.596 0.996 -1.596 0.028 81.329
7537.5 0.029 81.514 0.996 -1.653 0.996 -1.653 0.029 81.514
7562.458 0.03 81.682 0.996 -1.71 0.996 -1.71 0.03 81.682
7587.417 0.031 81.836 0.996 -1.767 0.996 -1.767 0.031 81.836
7612.375 0.032 81.976 0.996 -1.823 0.996 -1.823 0.032 81.976
7637.333 0.033 82.104 0.996 -1.879 0.996 -1.879 0.033 82.104
7662.292 0.034 82.222 0.996 -1.936 0.996 -1.936 0.034 82.222
7687.25 0.035 82.329 0.996 -1.992 0.996 -1.992 0.035 82.329
7712.208 0.036 82.427 0.996 -2.047 0.996 -2.047 0.036 82.427
7737.167 0.037 82.517 0.996 -2.103 0.996 -2.103 0.037 82.517
7762.125 0.038 82.599 0.996 -2.159 0.996 -2.159 0.038 82.599
7787.083 0.039 82.674 0.996 -2.214 0.996 -2.214 0.039 82.674
7812.042 0.04 82.743 0.996 -2.269 0.996 -2.269 0.04 82.743
7837 0.041 82.806 0.996 -2.324 0.996 -2.324 0.041 82.806
7861.958 0.042 82.863 0.996 -2.379 0.996 -2.379 0.042 82.863
7886.917 0.043 82.915 0.996 -2.434 0.996 -2.434 0.043 82.915
7911.875 0.044 82.962 0.996 -2.488 0.996 -2.488 0.044 82.962
7936.833 0.045 83.004 0.996 -2.543 0.996 -2.543 0.045 83.004
7961.792 0.045 83.043 0.996 -2.597 0.996 -2.597 0.045 83.043
7986.75 0.046 83.078 0.995 -2.651 0.995 -2.651 0.046 83.078
8011.708 0.047 83.109 0.995 -2.705 0.995 -2.705 0.047 83.109
8036.667 0.048 83.136 0.995 -2.759 0.995 -2.759 0.048 83.136
8061.625 0.049 83.161 0.995 -2.813 0.995 -2.813 0.049 83.161
8086.583 0.05 83.182 0.995 -2.866 0.995 -2.866 0.05 83.182
8111.542 0.051 83.201 0.995 -2.92 0.995 -2.92 0.051 83.201
8136.5 0.052 83.217 0.995 -2.973 0.995 -2.973 0.052 83.217
8161.458 0.053 83.231 0.995 -3.026 0.995 -3.026 0.053 83.231
8186.417 0.054 83.242 0.995 -3.079 0.995 -3.079 0.054 83.242
8211.375 0.055 83.252 0.995 -3.132 0.995 -3.132 0.055 83.252
8236.333 0.056 83.259 0.995 -3.185 0.995 -3.185 0.056 83.259
8261.292 0.057 83.264 0.995 -3.237 0.995 -3.237 0.057 83.264
8286.25 0.057 83.267 0.995 -3.29 0.995 -3.29 0.057 83.267
8311.208 0.058 83.269 0.995 -3.342 0.995 -3.342 0.058 83.269
8336.167 0.059 83.269 0.995 -3.394 0.995 -3.394 0.059 83.269
8361.125 0.06 83.267 0.995 -3.446 0.995 -3.446 0.06 83.267
8386.083 0.061 83.264 0.995 -3.498 0.995 -3.498 0.061 83.264
8411.042 0.062 83.259 0.995 -3.55 0.995 -3.55 0.062 83.259
8436 0.063 83.254 0.995 -3.601 0.995 -3.601 0.063 83.254
8460.958 0.064 83.246 0.995 -3.653 0.995 -3.653 0.064 83.246
8485.917 0.065 83.238 0.994 -3.704 0.994 -3.704 0.065 83.238
8510.875 0.066 83.229 0.994 -3.756 0.994 -3.756 0.066 83.229
8535.833 0.066 83.218 0.994 -3.807 0.994 -3.807 0.066 83.218
8560.792 0.067 83.206 0.994 -3.858 0.994 -3.858 0.067 83.206
8585.75 0.068 83.194 0.994 -3.909 0.994 -3.909 0.068 83.194
8610.708 0.069 83.18 0.994 -3.96 0.994 -3.96 0.069 83.18
8635.667 0.07 83.166 0.994 -4.01 0.994 -4.01 0.07 83.166
8660.625 0.071 83.15 0.994 -4.061 0.994 -4.061 0.071 83.15
8685.583 0.072 83.134 0.994 -4.111 0.994 -4.111 0.072 83.134
8710.542 0.073 83.117 0.994 -4.161 0.994 -4.161 0.073 83.117
8735.5 0.074 83.1 0.994 -4.212 0.994 -4.212 0.074 83.1
8760.458 0.074 83.081 0.994 -4.262 0.994 -4.262 0.074 83.081
8785.417 0.075 83.062 0.994 -4.312 0.994 -4.312 0.075 83.062
8810.375 0.076 83.042 0.994 -4.362 0.994 -4.362 0.076 83.042
8835.333 0.077 83.022 0.994 -4.411 0.994 -4.411 0.077 83.022
8860.292 0.078 83.001 0.994 -4.461 0.994 -4.461 0.078 83.001
8885.25 0.079 82.979 0.993 -4.51 0.993 -4.51 0.079 82.979
8910.208 0.08 82.957 0.993 -4.56 0.993 -4.56 0.08 82.957
8935.167 0.08 82.935 0.993 -4.609 0.993 -4.609 0.08 82.935
8960.125 0.081 82.911 0.993 -4.658 0.993 -4.658 0.081 82.911
8985.083 0.082 82.888 0.993 -4.707 0.993 -4.707 0.082 82.888
9010.042 0.083 82.864 0.993 -4.756 0.993 -4.756 0.083 82.864
9035 0.084 82.839 0.993 -4.805 0.993 -4.805 0.084 82.839
9059.958 0.085 82.814 0.993 -4.854 0.993 -4.854 0.085 82.814
9084.917 0.086 82.789 0.993 -4.903 0.993 -4.903 0.086 82.789
9109.875 0.086 82.763 0.993 -4.951 0.993 -4.951 0.086 82.763
9134.833 0.087 82.737 0.993 -5 0.993 -5 0.087 82.737
9159.792 0.088 82.71 0.993 -5.048 0.993 -5.048 0.088 82.71
9184.75 0.089 82.683 0.993 -5.096 0.993 -5.096 0.089 82.683
9209.708 0.09 82.656 0.993 -5.144 0.993 -5.144 0.09 82.656
9234.667 0.091 82.628 0.992 -5.192 0.992 -5.192 0.091 82.628
9259.625 0.091 82.6 0.992 -5.24 0.992 -5.24 0.091 82.6
9284.583 0.092 82.572 0.992 -5.288 0.992 -5.288 0.092 82.572
9309.542 0.093 82.544 0.992 -5.336 0.992 -5.336 0.093 82.544
9334.5 0.094 82.515 0.992 -5.384 0.992 -5.384 0.094 82.515
9359.458 0.095 82.486 0.992 -5.431 0.992 -5.431 0.095 82.486
9384.417 0.096 82.456 0.992 -5.479 0.992 -5.479 0.096 82.456
9409.375 0.096 82.427 0.992 -5.526 0.992 -5.526 0.096 82.427
9434.333 0.097 82.397 0.992 -5.573 0.992 -5.573 0.097 82.397
9459.292 0.098 82.367 0.992 -5.62 0.992 -5.62 0.098 82.367
9484.25 0.099 82.337 0.992 -5.667 0.992 -5.667 0.099 82.337
9509.208 0.1 82.306 0.992 -5.714 0.992 -5.714 0.1 82.306
9534.167 0.1 82.276 0.992 -5.761 0.992 -5.761 0.1 82.276
9559.125 0.101 82.245 0.991 -5.808 0.991 -5.808 0.101 82.245
9584.083 0.102 82.214 0.991 -5.855 0.991 -5.855 0.102 82.214
9609.042 0.103 82.182 0.991 -5.902 0.991 -5.902 0.103 82.182
9634 0.104 82.151 0.991 -5.948 0.991 -5.948 0.104 82.151
9658.958 0.104 82.119 0.991 -5.995 0.991 -5.995 0.104 82.119
9683.917 0.105 82.087 0.991 -6.041 0.991 -6.041 0.105 82.087
9708.875 0.106 82.055 0.991 -6.087 0.991 -6.087 0.106 82.055
9733.833 0.107 82.023 0.991 -6.133 0.991 -6.133 0.107 82.023
9758.792 0.108 81.991 0.991 -6.179 0.991 -6.179 0.108 81.991
9783.75 0.108 81.959 0.991 -6.225 0.991 -6.225 0.108 81.959
9808.708 0.109 81.926 0.991 -6.271 0.991 -6.271 0.109 81.926
9833.667 0.11 81.894 0.99 -6.317 0.99 -6.317 0.11 81.894
9858.625 0.111 81.861 0.99 -6.363 0.99 -6.363 0.111 81.861
9883.583 0.112 81.828 0.99 -6.409 0.99 -6.409 0.112 81.828
9908.542 0.112 81.795 0.99 -6.454 0.99 -6.454 0.112 81.795
9933.5 0.113 81.762 0.99 -6.5 0.99 -6.5 0.113 81.762
9958.458 0.114 81.728 0.99 -6.545 0.99 -6.545 0.114 81.728
9983.417 0.115 81.695 0.99 -6.591 0.99 -6.591 0.115 81.695
10008.375 0.116 81.661 0.99 -6.636 0.99 -6.636 0.116 81.661
10033.333 0.116 81.628 0.99 -6.681 0.99 -6.681 0.116 81.628
10058.292 0.117 81.594 0.99 -6.726 0.99 -6.726 0.117 81.594
10083.25 0.118 81.56 0.99 -6.771 0.99 -6.771 0.118 81.56
10108.208 0.119 81.527 0.989 -6.816 0.989 -6.816 0.119 81.527
10133.167 0.12 81.493 0.989 -6.861 0.989 -6.861 0.12 81.493
10158.125 0.12 81.459 0.989 -6.906 0.989 -6.906 0.12 81.459
10183.083 0.121 81.425 0.989 -6.95 0.989 -6.95 0.121 81.425
10208.042 0.122 81.39 0.989 -6.995 0.989 -6.995 0.122 81.39
10233 0.123 81.356 0.989 -7.04 0.989 -7.04 0.123 81.356
10257.958 0.123 81.322 0.989 -7.084 0.989 -7.084 0.123 81.322
10282.917 0.124 81.287 0.989 -7.129 0.989 -7.129 0.124 81.287
10307.875 0.125 81.253 0.989 -7.173 0.989 -7.173 0.125 81.253
10332.833 0.126 81.219 0.989 -7.217 0.989 -7.217 0.126 81.219
10357.792 0.126 81.184 0.989 -7.261 0.989 -7.261 0.126 81.184
10382.75 0.127 81.149 0.988 -7.305 0.988 -7.305 0.127 81.149
10407.708 0.128 81.115 0.988 -7.349 0.988 -7.349 0.128 81.115
10432.667 0.129 81.08 0.988 -7.393 0.988 -7.393 0.129 81.08
10457.625 0.129 81.045 0.988 -7.437 0.988 -7.437 0.129 81.045
10482.583 0.13 81.01 0.988 -7.481 0.988 -7.481 0.13 81.01
10507.542 0.131 80.975 0.988 -7.525 0.988 -7.525 0.131 80.975
10532.5 0.132 80.94 0.988 -7.569 0.988 -7.569 0.132 80.94
10557.458 0.133 80.905 0.988 -7.612 0.988 -7.612 0.133 80.905
10582.417 0.133 80.87 0.988 -7.656 0.988 -7.656 0.133 80.87
10607.375 0.134 80.835 0.988 -7.699 0.988 -7.699 0.134 80.835
10632.333 0.135 80.8 0.987 -7.743 0.987 -7.743 0.135 80.8
10657.292 0.136 80.765 0.987 -7.786 0.987 -7.786 0.136 80.765
10682.25 0.136 80.73 0.987 -7.829 0.987 -7.829 0.136 80.73
10707.208 0.137 80.695 0.987 -7.872 0.987 -7.872 0.137 80.695
10732.167 0.138 80.66 0.987 -7.916 0.987 -7.916 0.138 80.66
10757.125 0.139 80.624 0.987 -7.959 0.987 -7.959 0.139 80.624
10782.083 0.139 80.589 0.987 -8.002 0.987 -8.002 0.139 80.589
10807.042 0.14 80.554 0.987 -8.045 0.987 -8.045 0.14 80.554
10832 0.141 80.518 0.987 -8.087 0.987 -8.087 0.141 80.518
10856.958 0.141 80.483 0.987 -8.13 0.987 -8.13 0.141 80.483
10881.917 0.142 80.448 0.986 -8.173 0.986 -8.173 0.142 80.448
10906.875 0.143 80.412 0.986 -8.216 0.986 -8.216 0.143 80.412
10931.833 0.144 80.377 0.986 -8.258 0.986 -8.258 0.144 80.377
10956.792 0.144 80.341 0.986 -8.301 0.986 -8.301 0.144 80.341
10981.75 0.145 80.306 0.986 -8.343 0.986 -8.343 0.145 80.306
11006.708 0.146 80.27 0.986 -8.386 0.986 -8.386 0.146 80.27
11031.667 0.147 80.235 0.986 -8.428 0.986 -8.428 0.147 80.235
11056.625 0.147 80.199 0.986 -8.47 0.986 -8.47 0.147 80.199
11081.583 0.148 80.164 0.986 -8.513 0.986 -8.513 0.148 80.164
11106.542 0.149 80.128 0.985 -8.555 0.985 -8.555 0.149 80.128
11131.5 0.15 80.093 0.985 -8.597 0.985 -8.597 0.15 80.093
11156.458 0.15 80.057 0.985 -8.639 0.985 -8.639 0.15 80.057
11181.417 0.151 80.021 0.985 -8.681 0.985 -8.681 0.151 80.021
11206.375 0.152 79.986 0.985 -8.723 0.985 -8.723 0.152 79.986
11231.333 0.152 79.95 0.985 -8.765 0.985 -8.765 0.152 79.95
11256.292 0.153 79.915 0.985 -8.807 0.985 -8.807 0.153 79.915
11281.25 0.154 79.879 0.985 -8.848 0.985 -8.848 0.154 79.879
11306.208 0.155 79.843 0.985 -8.89 0.985 -8.89 0.155 79.843
11331.167 0.155 79.808 0.984 -8.932 0.984 -8.932 0.155 79.808
11356.125 0.156 79.772 0.984 -8.973 0.984 -8.973 0.156 79.772
11381.083 0.157 79.737 0.984 -9.015 0.984 -9.015 0.157 79.737
11406.042 0.157 79.701 0.984 -9.056 0.984 -9.056 0.157 79.701
11431 0.158 79.665 0.984 -9.098 0.984 -9.098 0.158 79.665
11455.958 0.159 79.63 0.984 -9.139 0.984 -9.139 0.159 79.63
11480.917 0.16 79.594 0.984 -9.18 0.984 -9.18 0.16 79.594
11505.875 0.16 79.558 0.984 -9.221 0.984 -9.221 0.16 79.558
11530.833 0.161 79.523 0.984 -9.263 0.984 -9.263 0.161 79.523
11555.792 0.162 79.487 0.983 -9.304 0.983 -9.304 0.162 79.487
11580.75 0.162 79.451 0.983 -9.345 0.983 -9.345 0.162 79.451
11605.708 0.163 79.416 0.983 -9.386 0.983 -9.386 0.163 79.416
11630.667 0.164 79.38 0.983 -9.427 0.983 -9.427 0.164 79.38
11655.625 0.165 79.344 0.983 -9.468 0.983 -9.468 0.165 79.344
11680.583 0.165 79.309 0.983 -9.508 0.983 -9.508 0.165 79.309
11705.542 0.166 79.273 0.983 -9.549 0.983 -9.549 0.166 79.273
11730.5 0.167 79.237 0.983 -9.59 0.983 -9.59 0.167 79.237
11755.458 0.167 79.202 0.982 -9.631 0.982 -9.631 0.167 79.202
11780.417 0.168 79.166 0.982 -9.671 0.982 -9.671 0.168 79.166
11805.375 0.169 79.131 0.982 -9.712 0.982 -9.712 0.169 79.131
11830.333 0.169 79.095 0.982 -9.752 0.982 -9.752 0.169 79.095
11855.292 0.17 79.059 0.982 -9.793 0.982 -9.793 0.17 79.059
11880.25 0.171 79.024 0.982 -9.833 0.982 -9.833 0.171 79.024
11905.208 0.172 78.988 0.982 -9.874 0.982 -9.874 0.172 78.988
11930.167 0.172 78.953 0.982 -9.914 0.982 -9.914 0.172 78.953
11955.125 0.173 78.917 0.982 -9.954 0.982 -9.954 0.173 78.917
11980.083 0.174 78.881 0.981 -9.994 0.981 -9.994 0.174 78.881
12005.042 0.174 78.846 0.981 -10.034 0.981 -10.034 0.174 78.846
12030 0.175 78.81 0.981 -10.075 0.981 -10.075 0.175 78.81
12054.958 0.176 78.775 0.981 -10.115 0.981 -10.115 0.176 78.775
12079.917 0.176 78.739 0.981 -10.155 0.981 -10.155 0.176 78.739
12104.875 0.177 78.704 0.981 -10.195 0.981 -10.195 0.177 78.704
12129.833 0.178 78.668 0.981 -10.234 0.981 -10.234 0.178 78.668
12154.792 0.178 78.633 0.981 -10.274 0.981 -10.274 0.178 78.633
12179.75 0.179 78.597 0.98 -10.314 0.98 -10.314 0.179 78.597
12204.708 0.18 78.562 0.98 -10.354 0.98 -10.354 0.18 78.562
12229.667 0.18 78.526 0.98 -10.394 0.98 -10.394 0.18 78.526
12254.625 0.181 78.491 0.98 -10.433 0.98 -10.433 0.181 78.491
12279.583 0.182 78.455 0.98 -10.473 0.98 -10.473 0.182 78.455
12304.542 0.182 78.42 0.98 -10.512 0.98 -10.512 0.182 78.42
12329.5 0.183 78.384 0.98 -10.552 0.98 -10.552 0.183 78.384
12354.458 0.184 78.349 0.98 -10.591 0.98 -10.591 0.184 78.349
12379.417 0.185 78.314 0.979 -10.631 0.979 -10.631 0.185 78.314
12404.375 0.185 78.278 0.979 -10.67 0.979 -10.67 0.185 78.278
12429.333 0.186 78.243 0.979 -10.709 0.979 -10.709 0.186 78.243
12454.292 0.187 78.208 0.979 -10.749 0.979 -10.749 0.187 78.208
12479.25 0.187 78.172 0.979 -10.788 0.979 -10.788 0.187 78.172
12504.208 0.188 78.137 0.979 -10.827 0.979 -10.827 0.188 78.137
12529.167 0.189 78.102 0.979 -10.866 0.979 -10.866 0.189 78.102
12554.125 0.189 78.066 0.979 -10.905 0.979 -10.905 0.189 78.066
12579.083 0.19 78.031 0.978 -10.944 0.978 -10.944 0.19 78.031
12604.042 0.191 77.996 0.978 -10.983 0.978 -10.983 0.191 77.996
12629 0.191 77.96 0.978 -11.022 0.978 -11.022 0.191 77.96
12653.958 0.192 77.925 0.978 -11.061 0.978 -11.061 0.192 77.925
12678.917 0.193 77.89 0.978 -11.1 0.978 -11.1 0.193 77.89
12703.875 0.193 77.855 0.978 -11.139 0.978 -11.139 0.193 77.855
12728.833 0.194 77.82 0.978 -11.178 0.978 -11.178 0.194 77.82
12753.792 0.195 77.784 0.978 -11.216 0.978 -11.216 0.195 77.784
12778.75 0.195 77.749 0.977 -11.255 0.977 -11.255 0.195 77.749
12803.708 0.196 77.714 0.977 -11.294 0.977 -11.294 0.196 77.714
12828.667 0.197 77.679 0.977 -11.332 0.977 -11.332 0.197 77.679
12853.625 0.197 77.644 0.977 -11.371 0.977 -11.371 0.197 77.644
12878.583 0.198 77.609 0.977 -11.409 0.977 -11.409 0.198 77.609
12903.542 0.199 77.574 0.977 -11.448 0.977 -11.448 0.199 77.574
12928.5 0.199 77.539 0.977 -11.486 0.977 -11.486 0.199 77.539
12953.458 0.2 77.504 0.976 -11.525 0.976 -11.525 0.2 77.504
12978.417 0.2 77.469 0.976 -11.563 0.976 -11.563 0.2 77.469
13003.375 0.201 77.434 0.976 -11.601 0.976 -11.601 0.201 77.434
13028.333 0.202 77.399 0.976 -11.64 0.976 -11.64 0.202 77.399
13053.292 0.202 77.364 0.976 -11.678 0.976 -11.678 0.202 77.364
13078.25 0.203 77.329 0.976 -11.716 0.976 -11.716 0.203 77.329
13103.208 0.204 77.294 0.976 -11.754 0.976 -11.754 0.204 77.294
13128.167 0.204 77.259 0.976 -11.792 0.976 -11.792 0.204 77.259
13153.125 0.205 77.224 0.975 -11.83 0.975 -11.83 0.205 77.224
13178.083 0.206 77.189 0.975 -11.868 0.975 -11.868 0.206 77.189
13203.042 0.206 77.154 0.975 -11.906 0.975 -11.906 0.206 77.154
13228 0.207 77.119 0.975 -11.944 0.975 -11.944 0.207 77.119
13252.958 0.208 77.084 0.975 -11.982 0.975 -11.982 0.208 77.084
13277.917 0.208 77.05 0.975 -12.02 0.975 -12.02 0.208 77.05
13302.875 0.209 77.015 0.975 -12.058 0.975 -12.058 0.209 77.015
13327.833 0.21 76.98 0.974 -12.095 0.974 -12.095 0.21 76.98
13352.792 0.21 76.945 0.974 -12.133 0.974 -12.133 0.21 76.945
13377.75 0.211 76.911 0.974 -12.171 0.974 -12.171 0.211 76.911
13402.708 0.211 76.876 0.974 -12.208 0.974 -12.208 0.211 76.876
13427.667 0.212 76.841 0.974 -12.246 0.974 -12.246 0.212 76.841
13452.625 0.213 76.807 0.974 -12.283 0.974 -12.283 0.213 76.807
13477.583 0.213 76.772 0.974 -12.321 0.974 -12.321 0.213 76.772
13502.542 0.214 76.737 0.973 -12.358 0.973 -12.358 0.214 76.737
13527.5 0.215 76.703 0.973 -12.396 0.973 -12.396 0.215 76.703
13552.458 0.215 76.668 0.973 -12.433 0.973 -12.433 0.215 76.668
13577.417 0.216 76.633 0.973 -12.471 0.973 -12.471 0.216 76.633
13602.375 0.217 76.599 0.973 -12.508 0.973 -12.508 0.217 76.599
13627.333 0.217 76.564 0.973 -12.545 0.973 -12.545 0.217 76.564
13652.292 0.218 76.53 0.973 -12.583 0.973 -12.583 0.218 76.53
13677.25 0.219 76.495 0.972 -12.62 0.972 -12.62 0.219 76.495
13702.208 0.219 76.461 0.972 -12.657 0.972 -12.657 0.219 76.461
13727.167 0.22 76.426 0.972 -12.694 0.972 -12.694 0.22 76.426
13752.125 0.22 76.392 0.972 -12.731 0.972 -12.731 0.22 76.392
13777.083 0.221 76.357 0.972 -12.768 0.972 -12.768 0.221 76.357
13802.042 0.222 76.323 0.972 -12.805 0.972 -12.805 0.222 76.323
13827 0.222 76.289 0.972 -12.842 0.972 -12.842 0.222 76.289
13851.958 0.223 76.254 0.971 -12.879 0.971 -12.879 0.223 76.254
13876.917 0.224 76.22 0.971 -12.916 0.971 -12.916 0.224 76.22
13901.875 0.224 76.186 0.971 -12.953 0.971 -12.953 0.224 76.186
13926.833 0.225 76.151 0.971 -12.99 0.971 -12.99 0.225 76.151
13951.792 0.225 76.117 0.971 -13.027 0.971 -13.027 0.225 76.117
13976.75 0.226 76.083 0.971 -13.063 0.971 -13.063 0.226 76.083
14001.708 0.227 76.049 0.971 -13.1 0.971 -13.1 0.227 76.049
14026.667 0.227 76.014 0.97 -13.137 0.97 -13.137 0.227 76.014
14051.625 0.228 75.98 0.97 -13.173 0.97 -13.173 0.228 75.98
14076.583 0.229 75.946 0.97 -13.21 0.97 -13.21 0.229 75.946
14101.542 0.229 75.912 0.97 -13.247 0.97 -13.247 0.229 75.912
14126.5 0.23 75.878 0.97 -13.283 0.97 -13.283 0.23 75.878
14151.458 0.23 75.843 0.97 -13.32 0.97 -13.32 0.23 75.843
14176.417 0.231 75.809 0.97 -13.356 0.97 -13.356 0.231 75.809
14201.375 0.232 75.775 0.969 -13.393 0.969 -13.393 0.232 75.775
14226.333 0.232 75.741 0.969 -13.429 0.969 -13.429 0.232 75.741
14251.292 0.233 75.707 0.969 -13.465 0.969 -13.465 0.233 75.707
14276.25 0.233 75.673 0.969 -13.502 0.969 -13.502 0.233 75.673
14301.208 0.234 75.639 0.969 -13.538 0.969 -13.538 0.234 75.639
14326.167 0.235 75.605 0.969 -13.574 0.969 -13.574 0.235 75.605
14351.125 0.235 75.571 0.969 -13.61 0.969 -13.61 0.235 75.571
14376.083 0.236 75.537 0.968 -13.647 0.968 -13.647 0.236 75.537
14401.042 0.237 75.503 0.968 -13.683 0.968 -13.683 0.237 75.503
14426 0.237 75.469 0.968 -13.719 0.968 -13.719 0.237 75.469
14450.958 0.238 75.436 0.968 -13.755 0.968 -13.755 0.238 75.436
14475.917 0.238 75.402 0.968 -13.791 0.968 -13.791 0.238 75.402
14500.875 0.239 75.368 0.968 -13.827 0.968 -13.827 0.239 75.368
14525.833 0.24 75.334 0.968 -13.863 0.968 -13.863 0.24 75.334
14550.792 0.24 75.3 0.967 -13.899 0.967 -13.899 0.24 75.3
14575.75 0.241 75.266 0.967 -13.935 0.967 -13.935 0.241 75.266
14600.708 0.241 75.233 0.967 -13.971 0.967 -13.971 0.241 75.233
14625.667 0.242 75.199 0.967 -14.007 0.967 -14.007 0.242 75.199
14650.625 0.243 75.165 0.967 -14.043 0.967 -14.043 0.243 75.165
14675.583 0.243 75.132 0.967 -14.078 0.967 -14.078 0.243 75.132
14700.542 0.244 75.098 0.966 -14.114 0.966 -14.114 0.244 75.098
14725.5 0.244 75.064 0.966 -14.15 0.966 -14.15 0.244 75.064
14750.458 0.245 75.031 0.966 -14.186 0.966 -14.186 0.245 75.031
14775.417 0.246 74.997 0.966 -14.221 0.966 -14.221 0.246 74.997
14800.375 0.246 74.963 0.966 -14.257 0.966 -14.257 0.246 74.963
14825.333 0.247 74.93 0.966 -14.292 0.966 -14.292 0.247 74.93
14850.292 0.247 74.896 0.966 -14.328 0.966 -14.328 0.247 74.896
14875.25 0.248 74.863 0.965 -14.363 0.965 -14.363 0.248 74.863
14900.208 0.249 74.829 0.965 -14.399 0.965 -14.399 0.249 74.829
14925.167 0.249 74.796 0.965 -14.434 0.965 -14.434 0.249 74.796
14950.125 0.25 74.762 0.965 -14.47 0.965 -14.47 0.25 74.762
14975.083 0.25 74.729 0.965 -14.505 0.965 -14.505 0.25 74.729
15000.042 0.251 74.695 0.965 -14.541 0.965 -14.541 0.251 74.695
15025 0.252 74.662 0.964 -14.576 0.964 -14.576 0.252 74.662
15049.958 0.252 74.629 0.964 -14.611 0.964 -14.611 0.252 74.629
15074.917 0.253 74.595 0.964 -14.647 0.964 -14.647 0.253 74.595
15099.875 0.253 74.562 0.964 -14.682 0.964 -14.682 0.253 74.562
15124.833 0.254 74.529 0.964 -14.717 0.964 -14.717 0.254 74.529
15149.792 0.255 74.495 0.964 -14.752 0.964 -14.752 0.255 74.495
15174.75 0.255 74.462 0.964 -14.787 0.964 -14.787 0.255 74.462
15199.708 0.256 74.429 0.963 -14.823 0.963 -14.823 0.256 74.429
15224.667 0.256 74.396 0.963 -14.858 0.963 -14.858 0.256 74.396
15249.625 0.257 74.362 0.963 -14.893 0.963 -14.893 0.257 74.362
15274.583 0.258 74.329 0.963 -14.928 0.963 -14.928 0.258 74.329
15299.542 0.258 74.296 0.963 -14.963 0.963 -14.963 0.258 74.296
15324.5 0.259 74.263 0.963 -14.998 0.963 -14.998 0.259 74.263
15349.458 0.259 74.23 0.962 -15.033 0.962 -15.033 0.259 74.23
15374.417 0.26 74.196 0.962 -15.067 0.962 -15.067 0.26 74.196
15399.375 0.261 74.163 0.962 -15.102 0.962 -15.102 0.261 74.163
15424.333 0.261 74.13 0.962 -15.137 0.962 -15.137 0.261 74.13
15449.292 0.262 74.097 0.962 -15.172 0.962 -15.172 0.262 74.097
15474.25 0.262 74.064 0.962 -15.207 0.962 -15.207 0.262 74.064
15499.208 0.263 74.031 0.961 -15.242 0.961 -15.242 0.263 74.031
15524.167 0.263 73.998 0.961 -15.276 0.961 -15.276 0.263 73.998
15549.125 0.264 73.965 0.961 -15.311 0.961 -15.311 0.264 73.965
15574.083 0.265 73.932 0.961 -15.346 0.961 -15.346 0.265 73.932
15599.042 0.265 73.899 0.961 -15.38 0.961 -15.38 0.265 73.899
15624 0.266 73.866 0.961 -15.415 0.961 -15.415 0.266 73.866
15648.958 0.266 73.834 0.961 -15.45 0.961 -15.45 0.266 73.834
15673.917 0.267 73.801 0.96 -15.484 0.96 -15.484 0.267 73.801
15698.875 0.268 73.768 0.96 -15.519 0.96 -15.519 0.268 73.768
15723.833 0.268 73.735 0.96 -15.553 0.96 -15.553 0.268 73.735
15748.792 0.269 73.702 0.96 -15.588 0.96 -15.588 0.269 73.702
15773.75 0.269 73.669 0.96 -15.622 0.96 -15.622 0.269 73.669
15798.708 0.27 73.637 0.96 -15.656 0.96 -15.656 0.27 73.637
15823.667 0.27 73.604 0.959 -15.691 0.959 -15.691 0.27 73.604
15848.625 0.271 73.571 0.959 -15.725 0.959 -15.725 0.271 73.571
15873.583 0.272 73.538 0.959 -15.759 0.959 -15.759 0.272 73.538
15898.542 0.272 73.506 0.959 -15.794 0.959 -15.794 0.272 73.506
15923.5 0.273 73.473 0.959 -15.828 0.959 -15.828 0.273 73.473
15948.458 0.273 73.44 0.959 -15.862 0.959 -15.862 0.273 73.44
15973.417 0.274 73.408 0.958 -15.896 0.958 -15.896 0.274 73.408
15998.375 0.274 73.375 0.958 -15.931 0.958 -15.931 0.274 73.375
16023.333 0.275 73.343 0.958 -15.965 0.958 -15.965 0.275 73.343
16048.292 0.276 73.31 0.958 -15.999 0.958 -15.999 0.276 73.31
16073.25 0.276 73.278 0.958 -16.033 0.958 -16.033 0.276 73.278
16098.208 0.277 73.245 0.958 -16.067 0.958 -16.067 0.277 73.245
16123.167 0.277 73.213 0.957 -16.101 0.957 -16.101 0.277 73.213
16148.125 0.278 73.18 0.957 -16.135 0.957 -16.135 0.278 73.18
16173.083 0.278 73.148 0.957 -16.169 0.957 -16.169 0.278 73.148
16198.042 0.279 73.115 0.957 -16.203 0.957 -16.203 0.279 73.115
16223 0.28 73.083 0.957 -16.237 0.957 -16.237 0.28 73.083
16247.958 0.28 73.05 0.957 -16.271 0.957 -16.271 0.28 73.05
16272.917 0.281 73.018 0.956 -16.305 0.956 -16.305 0.281 73.018
16297.875 0.281 72.986 0.956 -16.339 0.956 -16.339 0.281 72.986
16322.833 0.282 72.953 0.956 -16.372 0.956 -16.372 0.282 72.953
16347.792 0.282 72.921 0.956 -16.406 0.956 -16.406 0.282 72.921
16372.75 0.283 72.889 0.956 -16.44 0.956 -16.44 0.283 72.889
16397.708 0.284 72.856 0.956 -16.474 0.956 -16.474 0.284 72.856
16422.667 0.284 72.824 0.955 -16.507 0.955 -16.507 0.284 72.824
16447.625 0.285 72.792 0.955 -16.541 0.955 -16.541 0.285 72.792
16472.583 0.285 72.76 0.955 -16.575 0.955 -16.575 0.285 72.76
16497.542 0.286 72.727 0.955 -16.608 0.955 -16.608 0.286 72.727
16522.5 0.286 72.695 0.955 -16.642 0.955 -16.642 0.286 72.695
16547.458 0.287 72.663 0.955 -16.676 0.955 -16.676 0.287 72.663
16572.417 0.288 72.631 0.954 -16.709 0.954 -16.709 0.288 72.631
16597.375 0.288 72.599 0.954 -16.743 0.954 -16.743 0.288 72.599
16622.333 0.289 72.567 0.954 -16.776 0.954 -16.776 0.289 72.567
16647.292 0.289 72.535 0.954 -16.81 0.954 -16.81 0.289 72.535
16672.25 0.29 72.502 0.954 -16.843 0.954 -16.843 0.29 72.502
16697.208 0.29 72.47 0.954 -16.876 0.954 -16.876 0.29 72.47
16722.167 0.291 72.438 0.953 -16.91 0.953 -16.91 0.291 72.438
16747.125 0.291 72.406 0.953 -16.943 0.953 -16.943 0.291 72.406
16772.083 0.292 72.374 0.953 -16.977 0.953 -16.977 0.292 72.374
16797.042 0.293 72.342 0.953 -17.01 0.953 -17.01 0.293 72.342
16822 0.293 72.311 0.953 -17.043 0.953 -17.043 0.293 72.311
16846.958 0.294 72.279 0.953 -17.076 0.953 -17.076 0.294 72.279
16871.917 0.294 72.247 0.952 -17.11 0.952 -17.11 0.294 72.247
16896.875 0.295 72.215 0.952 -17.143 0.952 -17.143 0.295 72.215
16921.833 0.295 72.183 0.952 -17.176 0.952 -17.176 0.295 72.183
16946.792 0.296 72.151 0.952 -17.209 0.952 -17.209 0.296 72.151
16971.75 0.296 72.119 0.952 -17.242 0.952 -17.242 0.296 72.119
16996.708 0.297 72.087 0.952 -17.275 0.952 -17.275 0.297 72.087
17021.667 0.298 72.056 0.951 -17.308 0.951 -17.308 0.298 72.056
17046.625 0.298 72.024 0.951 -17.342 0.951 -17.342 0.298 72.024
17071.583 0.299 71.992 0.951 -17.375 0.951 -17.375 0.299 71.992
17096.542 0.299 71.96 0.951 -17.408 0.951 -17.408 0.299 71.96
17121.5 0.3 71.929 0.951 -17.441 0.951 -17.441 0.3 71.929
17146.458 0.3 71.897 0.951 -17.474 0.951 -17.474 0.3 71.897
17171.417 0.301 71.865 0.95 -17.506 0.95 -17.506 0.301 71.865
17196.375 0.301 71.834 0.95 -17.539 0.95 -17.539 0.301 71.834
17221.333 0.302 71.802 0.95 -17.572 0.95 -17.572 0.302 71.802
17246.292 0.302 71.77 0.95 -17.605 0.95 -17.605 0.302 71.77
17271.25 0.303 71.739 0.95 -17.638 0.95 -17.638 0.303 71.739
17296.208 0.304 71.707 0.95 -17.671 0.95 -17.671 0.304 71.707
17321.167 0.304 71.676 0.949 -17.704 0.949 -17.704 0.304 71.676
17346.125 0.305 71.644 0.949 -17.736 0.949 -17.736 0.305 71.644
17371.083 0.305 71.613 0.949 -17.769 0.949 -17.769 0.305 71.613
17396.042 0.306 71.581 0.949 -17.802 0.949 -17.802 0.306 71.581
17421 0.306 71.55 0.949 -17.834 0.949 -17.834 0.306 71.55
17445.958 0.307 71.518 0.948 -17.867 0.948 -17.867 0.307 71.518
17470.917 0.307 71.487 0.948 -17.9 0.948 -17.9 0.307 71.487
17495.875 0.308 71.455 0.948 -17.932 0.948 -17.932 0.308 71.455
17520.833 0.308 71.424 0.948 -17.965 0.948 -17.965 0.308 71.424
17545.792 0.309 71.393 0.948 -17.997 0.948 -17.997 0.309 71.393
17570.75 0.31 71.361 0.948 -18.03 0.948 -18.03 0.31 71.361
17595.708 0.31 71.33 0.947 -18.062 0.947 -18.062 0.31 71.33
17620.667 0.311 71.299 0.947 -18.095 0.947 -18.095 0.311 71.299
17645.625 0.311 71.267 0.947 -18.127 0.947 -18.127 0.311 71.267
17670.583 0.312 71.236 0.947 -18.16 0.947 -18.16 0.312 71.236
17695.542 0.312 71.205 0.947 -18.192 0.947 -18.192 0.312 71.205
17720.5 0.313 71.174 0.947 -18.225 0.947 -18.225 0.313 71.174
17745.458 0.313 71.142 0.946 -18.257 0.946 -18.257 0.313 71.142
17770.417 0.314 71.111 0.946 -18.289 0.946 -18.289 0.314 71.111
17795.375 0.314 71.08 0.946 -18.322 0.946 -18.322 0.314 71.08
17820.333 0.315 71.049 0.946 -18.354 0.946 -18.354 0.315 71.049
17845.292 0.315 71.018 0.946 -18.386 0.946 -18.386 0.315 71.018
17870.25 0.316 70.986 0.945 -18.419 0.945 -18.419 0.316 70.986
17895.208 0.317 70.955 0.945 -18.451 0.945 -18.451 0.317 70.955
17920.167 0.317 70.924 0.945 -18.483 0.945 -18.483 0.317 70.924
17945.125 0.318 70.893 0.945 -18.515 0.945 -18.515 0.318 70.893
17970.083 0.318 70.862 0.945 -18.547 0.945 -18.547 0.318 70.862
17995.042 0.319 70.831 0.945 -18.579 0.945 -18.579 0.319 70.831
18020 0.319 70.8 0.944 -18.612 0.944 -18.612 0.319 70.8
18044.958 0.32 70.769 0.944 -18.644 0.944 -18.644 0.32 70.769
18069.917 0.32 70.738 0.944 -18.676 0.944 -18.676 0.32 70.738
18094.875 0.321 70.707 0.944 -18.708 0.944 -18.708 0.321 70.707
18119.833 0.321 70.676 0.944 -18.74 0.944 -18.74 0.321 70.676
18144.792 0.322 70.645 0.944 -18.772 0.944 -18.772 0.322 70.645
18169.75 0.322 70.614 0.943 -18.804 0.943 -18.804 0.322 70.614
18194.708 0.323 70.583 0.943 -18.836 0.943 -18.836 0.323 70.583
18219.667 0.323 70.553 0.943 -18.868 0.943 -18.868 0.323 70.553
18244.625 0.324 70.522 0.943 -18.899 0.943 -18.899 0.324 70.522
18269.583 0.324 70.491 0.943 -18.931 0.943 -18.931 0.324 70.491
18294.542 0.325 70.46 0.942 -18.963 0.942 -18.963 0.325 70.46
18319.5 0.326 70.429 0.942 -18.995 0.942 -18.995 0.326 70.429
18344.458 0.326 70.399 0.942 -19.027 0.942 -19.027 0.326 70.399
18369.417 0.327 70.368 0.942 -19.059 0.942 -19.059 0.327 70.368
18394.375 0.327 70.337 0.942 -19.09 0.942 -19.09 0.327 70.337
18419.333 0.328 70.306 0.942 -19.122 0.942 -19.122 0.328 70.306
18444.292 0.328 70.276 0.941 -19.154 0.941 -19.154 0.328 70.276
18469.25 0.329 70.245 0.941 -19.186 0.941 -19.186 0.329 70.245
18494.208 0.329 70.214 0.941 -19.217 0.941 -19.217 0.329 70.214
18519.167 0.33 70.184 0.941 -19.249 0.941 -19.249 0.33 70.184
18544.125 0.33 70.153 0.941 -19.28 0.941 -19.28 0.33 70.153
18569.083 0.331 70.122 0.94 -19.312 0.94 -19.312 0.331 70.122
18594.042 0.331 70.092 0.94 -19.344 0.94 -19.344 0.331 70.092
18619 0.332 70.061 0.94 -19.375 0.94 -19.375 0.332 70.061
18643.958 0.332 70.031 0.94 -19.407 0.94 -19.407 0.332 70.031
18668.917 0.333 70 0.94 -19.438 0.94 -19.438 0.333 70
18693.875 0.333 69.97 0.94 -19.47 0.94 -19.47 0.333 69.97
18718.833 0.334 69.939 0.939 -19.501 0.939 -19.501 0.334 69.939
18743.792 0.334 69.909 0.939 -19.533 0.939 -19.533 0.334 69.909
18768.75 0.335 69.878 0.939 -19.564 0.939 -19.564 0.335 69.878
18793.708 0.335 69.848 0.939 -19.596 0.939 -19.596 0.335 69.848
18818.667 0.336 69.817 0.939 -19.627 0.939 -19.627 0.336 69.817
18843.625 0.336 69.787 0.938 -19.658 0.938 -19.658 0.336 69.787
18868.583 0.337 69.757 0.938 -19.69 0.938 -19.69 0.337 69.757
18893.542 0.337 69.726 0.938 -19.721 0.938 -19.721 0.337 69.726
18918.5 0.338 69.696 0.938 -19.752 0.938 -19.752 0.338 69.696
18943.458 0.338 69.666 0.938 -19.784 0.938 -19.784 0.338 69.666
18968.417 0.339 69.635 0.938 -19.815 0.938 -19.815 0.339 69.635
18993.375 0.34 69.605 0.937 -19.846 0.937 -19.846 0.34 69.605
19018.333 0.34 69.575 0.937 -19.877 0.937 -19.877 0.34 69.575
19043.292 0.341 69.544 0.937 -19.908 0.937 -19.908 0.341 69.544
19068.25 0.341 69.514 0.937 -19.94 0.937 -19.94 0.341 69.514
19093.208 0.342 69.484 0.937 -19.971 0.937 -19.971 0.342 69.484
19118.167 0.342 69.454 0.936 -20.002 0.936 -20.002 0.342 69.454
19143.125 0.343 69.424 0.936 -20.033 0.936 -20.033 0.343 69.424
19168.083 0.343 69.393 0.936 -20.064 0.936 -20.064 0.343 69.393
19193.042 0.344 69.363 0.936 -20.095 0.936 -20.095 0.344 69.363
19218 0.344 69.333 0.936 -20.126 0.936 -20.126 0.344 69.333
19242.958 0.345 69.303 0.936 -20.157 0.936 -20.157 0.345 69.303
19267.917 0.345 69.273 0.935 -20.188 0.935 -20.188 0.345 69.273
19292.875 0.346 69.243 0.935 -20.219 0.935 -20.219 0.346 69.243
19317.833 0.346 69.213 0.935 -20.25 0.935 -20.25 0.346 69.213
19342.792 0.347 69.183 0.935 -20.281 0.935 -20.281 0.347 69.183
19367.75 0.347 69.153 0.935 -20.312 0.935 -20.312 0.347 69.153
19392.708 0.348 69.123 0.934 -20.343 0.934 -20.343 0.348 69.123
19417.667 0.348 69.093 0.934 -20.374 0.934 -20.374 0.348 69.093
19442.625 0.349 69.063 0.934 -20.404 0.934 -20.404 0.349 69.063
19467.583 0.349 69.033 0.934 -20.435 0.934 -20.435 0.349 69.033
19492.542 0.35 69.003 0.934 -20.466 0.934 -20.466 0.35 69.003
19517.5 0.35 68.973 0.933 -20.497 0.933 -20.497 0.35 68.973
19542.458 0.351 68.943 0.933 -20.528 0.933 -20.528 0.351 68.943
19567.417 0.351 68.913 0.933 -20.558 0.933 -20.558 0.351 68.913
19592.375 0.352 68.883 0.933 -20.589 0.933 -20.589 0.352 68.883
19617.333 0.352 68.854 0.933 -20.62 0.933 -20.62 0.352 68.854
19642.292 0.353 68.824 0.933 -20.65 0.933 -20.65 0.353 68.824
19667.25 0.353 68.794 0.932 -20.681 0.932 -20.681 0.353 68.794
19692.208 0.354 68.764 0.932 -20.712 0.932 -20.712 0.354 68.764
19717.167 0.354 68.734 0.932 -20.742 0.932 -20.742 0.354 68.734
19742.125 0.355 68.705 0.932 -20.773 0.932 -20.773 0.355 68.705
19767.083 0.355 68.675 0.932 -20.804 0.932 -20.804 0.355 68.675
19792.042 0.356 68.645 0.931 -20.834 0.931 -20.834 0.356 68.645
19817 0.356 68.615 0.931 -20.865 0.931 -20.865 0.356 68.615
19841.958 0.357 68.586 0.931 -20.895 0.931 -20.895 0.357 68.586
19866.917 0.357 68.556 0.931 -20.926 0.931 -20.926 0.357 68.556
19891.875 0.358 68.526 0.931 -20.956 0.931 -20.956 0.358 68.526
19916.833 0.358 68.497 0.93 -20.987 0.93 -20.987 0.358 68.497
19941.792 0.359 68.467 0.93 -21.017 0.93 -21.017 0.359 68.467
19966.75 0.359 68.438 0.93 -21.047 0.93 -21.047 0.359 68.438
19991.708 0.36 68.408 0.93 -21.078 0.93 -21.078 0.36 68.408
20016.667 0.36 68.379 0.93 -21.108 0.93 -21.108 0.36 68.379
20041.625 0.361 68.349 0.929 -21.139 0.929 -21.139 0.361 68.349
20066.583 0.361 68.319 0.929 -21.169 0.929 -21.169 0.361 68.319
20091.542 0.362 68.29 0.929 -21.199 0.929 -21.199 0.362 68.29
20116.5 0.362 68.26 0.929 -21.229 0.929 -21.229 0.362 68.26
20141.458 0.363 68.231 0.929 -21.26 0.929 -21.26 0.363 68.231
20166.417 0.363 68.202 0.929 -21.29 0.929 -21.29 0.363 68.202
20191.375 0.364 68.172 0.928 -21.32 0.928 -21.32 0.364 68.172
20216.333 0.364 68.143 0.928 -21.35 0.928 -21.35 0.364 68.143
20241.292 0.365 68.113 0.928 -21.381 0.928 -21.381 0.365 68.113
20266.25 0.365 68.084 0.928 -21.411 0.928 -21.411 0.365 68.084
20291.208 0.366 68.055 0.928 -21.441 0.928 -21.441 0.366 68.055
20316.167 0.366 68.025 0.927 -21.471 0.927 -21.471 0.366 68.025
20341.125 0.367 67.996 0.927 -21.501 0.927 -21.501 0.367 67.996
20366.083 0.367 67.967 0.927 -21.531 0.927 -21.531 0.367 67.967
20391.042 0.368 67.937 0.927 -21.561 0.927 -21.561 0.368 67.937
20416 0.368 67.908 0.927 -21.591 0.927 -21.591 0.368 67.908
20440.958 0.368 67.879 0.926 -21.621 0.926 -21.621 0.368 67.879
20465.917 0.369 67.849 0.926 -21.651 0.926 -21.651 0.369 67.849
20490.875 0.369 67.82 0.926 -21.681 0.926 -21.681 0.369 67.82
20515.833 0.37 67.791 0.926 -21.711 0.926 -21.711 0.37 67.791
20540.792 0.37 67.762 0.926 -21.741 0.926 -21.741 0.37 67.762
20565.75 0.371 67.733 0.925 -21.771 0.925 -21.771 0.371 67.733
20590.708 0.371 67.704 0.925 -21.801 0.925 -21.801 0.371 67.704
20615.667 0.372 67.674 0.925 -21.831 0.925 -21.831 0.372 67.674
20640.625 0.372 67.645 0.925 -21.861 0.925 -21.861 0.372 67.645
20665.583 0.373 67.616 0.925 -21.891 0.925 -21.891 0.373 67.616
20690.542 0.373 67.587 0.924 -21.921 0.924 -21.921 0.373 67.587
20715.5 0.374 67.558 0.924 -21.95 0.924 -21.95 0.374 67.558
20740.458 0.374 67.529 0.924 -21.98 0.924 -21.98 0.374 67.529
20765.417 0.375 67.5 0.924 -22.01 0.924 -22.01 0.375 67.5
20790.375 0.375 67.471 0.924 -22.04 0.924 -22.04 0.375 67.471
20815.333 0.376 67.442 0.924 -22.069 0.924 -22.069 0.376 67.442
20840.292 0.376 67.413 0.923 -22.099 0.923 -22.099 0.376 67.413
20865.25 0.377 67.384 0.923 -22.129 0.923 -22.129 0.377 67.384
20890.208 0.377 67.355 0.923 -22.158 0.923 -22.158 0.377 67.355
20915.167 0.378 67.326 0.923 -22.188 0.923 -22.188 0.378 67.326
20940.125 0.378 67.297 0.923 -22.218 0.923 -22.218 0.378 67.297
20965.083 0.379 67.268 0.922 -22.247 0.922 -22.247 0.379 67.268
20990.042 0.379 67.239 0.922 -22.277 0.922 -22.277 0.379 67.239
21015 0.38 67.21 0.922 -22.307 0.922 -22.307 0.38 67.21
21039.958 0.38 67.182 0.922 -22.336 0.922 -22.336 0.38 67.182
21064.917 0.381 67.153 0.922 -22.366 0.922 -22.366 0.381 67.153
21089.875 0.381 67.124 0.921 -22.395 0.921 -22.395 0.381 67.124
21114.833 0.381 67.095 0.921 -22.425 0.921 -22.425 0.381 67.095
21139.792 0.382 67.066 0.921 -22.454 0.921 -22.454 0.382 67.066
21164.75 0.382 67.038 0.921 -22.484 0.921 -22.484 0.382 67.038
21189.708 0.383 67.009 0.921 -22.513 0.921 -22.513 0.383 67.009
21214.667 0.383 66.98 0.92 -22.542 0.92 -22.542 0.383 66.98
21239.625 0.384 66.951 0.92 -22.572 0.92 -22.572 0.384 66.951
21264.583 0.384 66.923 0.92 -22.601 0.92 -22.601 0.384 66.923
21289.542 0.385 66.894 0.92 -22.631 0.92 -22.631 0.385 66.894
21314.5 0.385 66.865 0.92 -22.66 0.92 -22.66 0.385 66.865
21339.458 0.386 66.837 0.919 -22.689 0.919 -22.689 0.386 66.837
21364.417 0.386 66.808 0.919 -22.719 0.919 -22.719 0.386 66.808
21389.375 0.387 66.78 0.919 -22.748 0.919 -22.748 0.387 66.78
21414.333 0.387 66.751 0.919 -22.777 0.919 -22.777 0.387 66.751
21439.292 0.388 66.722 0.919 -22.806 0.919 -22.806 0.388 66.722
21464.25 0.388 66.694 0.918 -22.836 0.918 -22.836 0.388 66.694
21489.208 0.389 66.665 0.918 -22.865 0.918 -22.865 0.389 66.665
21514.167 0.389 66.637 0.918 -22.894 0.918 -22.894 0.389 66.637
21539.125 0.39 66.608 0.918 -22.923 0.918 -22.923 0.39 66.608
21564.083 0.39 66.58 0.918 -22.952 0.918 -22.952 0.39 66.58
21589.042 0.39 66.551 0.917 -22.982 0.917 -22.982 0.39 66.551
21614 0.391 66.523 0.917 -23.011 0.917 -23.011 0.391 66.523
21638.958 0.391 66.494 0.917 -23.04 0.917 -23.04 0.391 66.494
21663.917 0.392 66.466 0.917 -23.069 0.917 -23.069 0.392 66.466
21688.875 0.392 66.437 0.917 -23.098 0.917 -23.098 0.392 66.437
21713.833 0.393 66.409 0.916 -23.127 0.916 -23.127 0.393 66.409
21738.792 0.393 66.381 0.916 -23.156 0.916 -23.156 0.393 66.381
21763.75 0.394 66.352 0.916 -23.185 0.916 -23.185 0.394 66.352
21788.708 0.394 66.324 0.916 -23.214 0.916 -23.214 0.394 66.324
21813.667 0.395 66.296 0.916 -23.243 0.916 -23.243 0.395 66.296
21838.625 0.395 66.267 0.915 -23.272 0.915 -23.272 0.395 66.267
21863.583 0.396 66.239 0.915 -23.301 0.915 -23.301 0.396 66.239
21888.542 0.396 66.211 0.915 -23.33 0.915 -23.33 0.396 66.211
21913.5 0.396 66.183 0.915 -23.359 0.915 -23.359 0.396 66.183
21938.458 0.397 66.154 0.915 -23.388 0.915 -23.388 0.397 66.154
21963.417 0.397 66.126 0.914 -23.416 0.914 -23.416 0.397 66.126
21988.375 0.398 66.098 0.914 -23.445 0.914 -23.445 0.398 66.098
22013.333 0.398 66.07 0.914 -23.474 0.914 -23.474 0.398 66.07
22038.292 0.399 66.041 0.914 -23.503 0.914 -23.503 0.399 66.041
22063.25 0.399 66.013 0.914 -23.532 0.914 -23.532 0.399 66.013
22088.208 0.4 65.985 0.913 -23.56 0.913 -23.56 0.4 65.985
22113.167 0.4 65.957 0.913 -23.589 0.913 -23.589 0.4 65.957
22138.125 0.401 65.929 0.913 -23.618 0.913 -23.618 0.401 65.929
22163.083 0.401 65.901 0.913 -23.647 0.913 -23.647 0.401 65.901
22188.042 0.402 65.873 0.913 -23.675 0.913 -23.675 0.402 65.873
22213 0.402 65.845 0.912 -23.704 0.912 -23.704 0.402 65.845
22237.958 0.402 65.817 0.912 -23.733 0.912 -23.733 0.402 65.817
22262.917 0.403 65.789 0.912 -23.761 0.912 -23.761 0.403 65.789
22287.875 0.403 65.761 0.912 -23.79 0.912 -23.79 0.403 65.761
22312.833 0.404 65.733 0.912 -23.819 0.912 -23.819 0.404 65.733
22337.792 0.404 65.705 0.911 -23.847 0.911 -23.847 0.404 65.705
22362.75 0.405 65.677 0.911 -23.876 0.911 -23.876 0.405 65.677
22387.708 0.405 65.649 0.911 -23.904 0.911 -23.904 0.405 65.649
22412.667 0.406 65.621 0.911 -23.933 0.911 -23.933 0.406 65.621
22437.625 0.406 65.593 0.911 -23.961 0.911 -23.961 0.406 65.593
22462.583 0.407 65.565 0.91 -23.99 0.91 -23.99 0.407 65.565
22487.542 0.407 65.537 0.91 -24.018 0.91 -24.018 0.407 65.537
22512.5 0.407 65.509 0.91 -24.047 0.91 -24.047 0.407 65.509
22537.458 0.408 65.481 0.91 -24.075 0.91 -24.075 0.408 65.481
22562.417 0.408 65.453 0.91 -24.104 0.91 -24.104 0.408 65.453
22587.375 0.409 65.426 0.909 -24.132 0.909 -24.132 0.409 65.426
22612.333 0.409 65.398 0.909 -24.16 0.909 -24.16 0.409 65.398
22637.292 0.41 65.37 0.909 -24.189 0.909 -24.189 0.41 65.37
22662.25 0.41 65.342 0.909 -24.217 0.909 -24.217 0.41 65.342
22687.208 0.411 65.315 0.909 -24.245 0.909 -24.245 0.411 65.315
22712.167 0.411 65.287 0.908 -24.274 0.908 -24.274 0.411 65.287
22737.125 0.412 65.259 0.908 -24.302 0.908 -24.302 0.412 65.259
22762.083 0.412 65.231 0.908 -24.33 0.908 -24.33 0.412 65.231
22787.042 0.412 65.204 0.908 -24.359 0.908 -24.359 0.412 65.204
22812 0.413 65.176 0.908 -24.387 0.908 -24.387 0.413 65.176
22836.958 0.413 65.148 0.907 -24.415 0.907 -24.415 0.413 65.148
22861.917 0.414 65.121 0.907 -24.443 0.907 -24.443 0.414 65.121
22886.875 0.414 65.093 0.907 -24.472 0.907 -24.472 0.414 65.093
22911.833 0.415 65.065 0.907 -24.5 0.907 -24.5 0.415 65.065
22936.792 0.415 65.038 0.907 -24.528 0.907 -24.528 0.415 65.038
22961.75 0.416 65.01 0.906 -24.556 0.906 -24.556 0.416 65.01
22986.708 0.416 64.983 0.906 -24.584 0.906 -24.584 0.416 64.983
23011.667 0.416 64.955 0.906 -24.612 0.906 -24.612 0.416 64.955
23036.625 0.417 64.928 0.906 -24.64 0.906 -24.64 0.417 64.928
23061.583 0.417 64.9 0.906 -24.668 0.906 -24.668 0.417 64.9
23086.542 0.418 64.873 0.905 -24.696 0.905 -24.696 0.418 64.873
23111.5 0.418 64.845 0.905 -24.724 0.905 -24.724 0.418 64.845
23136.458 0.419 64.818 0.905 -24.752 0.905 -24.752 0.419 64.818
23161.417 0.419 64.79 0.905 -24.78 0.905 -24.78 0.419 64.79
23186.375 0.42 64.763 0.905 -24.808 0.905 -24.808 0.42 64.763
23211.333 0.42 64.735 0.904 -24.836 0.904 -24.836 0.42 64.735
23236.292 0.42 64.708 0.904 -24.864 0.904 -24.864 0.42 64.708
23261.25 0.421 64.681 0.904 -24.892 0.904 -24.892 0.421 64.681
23286.208 0.421 64.653 0.904 -24.92 0.904 -24.92 0.421 64.653
23311.167 0.422 64.626 0.904 -24.948 0.904 -24.948 0.422 64.626
23336.125 0.422 64.599 0.903 -24.976 0.903 -24.976 0.422 64.599
23361.083 0.423 64.571 0.903 -25.004 0.903 -25.004 0.423 64.571
23386.042 0.423 64.544 0.903 -25.032 0.903 -25.032 0.423 64.544
23411 0.424 64.517 0.903 -25.06 0.903 -25.06 0.424 64.517
23435.958 0.424 64.489 0.903 -25.087 0.903 -25.087 0.424 64.489
23460.917 0.424 64.462 0.902 -25.115 0.902 -25.115 0.424 64.462
23485.875 0.425 64.435 0.902 -25.143 0.902 -25.143 0.425 64.435
23510.833 0.425 64.408 0.902 -25.171 0.902 -25.171 0.425 64.408
23535.792 0.426 64.38 0.902 -25.198 0.902 -25.198 0.426 64.38
23560.75 0.426 64.353 0.902 -25.226 0.902 -25.226 0.426 64.353
23585.708 0.427 64.326 0.901 -25.254 0.901 -25.254 0.427 64.326
23610.667 0.427 64.299 0.901 -25.282 0.901 -25.282 0.427 64.299
23635.625 0.428 64.272 0.901 -25.309 0.901 -25.309 0.428 64.272
23660.583 0.428 64.245 0.901 -25.337 0.901 -25.337 0.428 64.245
23685.542 0.428 64.218 0.9 -25.365 0.9 -25.365 0.428 64.218
23710.5 0.429 64.19 0.9 -25.392 0.9 -25.392 0.429 64.19
23735.458 0.429 64.163 0.9 -25.42 0.9 -25.42 0.429 64.163
23760.417 0.43 64.136 0.9 -25.447 0.9 -25.447 0.43 64.136
23785.375 0.43 64.109 0.9 -25.475 0.9 -25.475 0.43 64.109
23810.333 0.431 64.082 0.899 -25.502 0.899 -25.502 0.431 64.082
23835.292 0.431 64.055 0.899 -25.53 0.899 -25.53 0.431 64.055
23860.25 0.431 64.028 0.899 -25.557 0.899 -25.557 0.431 64.028
23885.208 0.432 64.001 0.899 -25.585 0.899 -25.585 0.432 64.001
23910.167 0.432 63.974 0.899 -25.612 0.899 -25.612 0.432 63.974
23935.125 0.433 63.947 0.898 -25.64 0.898 -25.64 0.433 63.947
23960.083 0.433 63.92 0.898 -25.667 0.898 -25.667 0.433 63.92
23985.042 0.434 63.893 0.898 -25.695 0.898 -25.695 0.434 63.893
24010 0.434 63.866 0.898 -25.722 0.898 -25.722 0.434 63.866
24034.958 0.434 63.84 0.898 -25.75 0.898 -25.75 0.434 63.84
24059.917 0.435 63.813 0.897 -25.777 0.897 -25.777 0.435 63.813
24084.875 0.435 63.786 0.897 -25.804 0.897 -25.804 0.435 63.786
24109.833 0.436 63.759 0.897 -25.832 0.897 -25.832 0.436 63.759
24134.792 0.436 63.732 0.897 -25.859 0.897 -25.859 0.436 63.732
24159.75 0.437 63.705 0.897 -25.886 0.897 -25.886 0.437 63.705
24184.708 0.437 63.678 0.896 -25.914 0.896 -25.914 0.437 63.678
24209.667 0.437 63.652 0.896 -25.941 0.896 -25.941 0.437 63.652
24234.625 0.438 63.625 0.896 -25.968 0.896 -25.968 0.438 63.625
24259.583 0.438 63.598 0.896 -25.995 0.896 -25.995 0.438 63.598
24284.542 0.439 63.571 0.896 -26.023 0.896 -26.023 0.439 63.571
24309.5 0.439 63.545 0.895 -26.05 0.895 -26.05 0.439 63.545
24334.458 0.44 63.518 0.895 -26.077 0.895 -26.077 0.44 63.518
24359.417 0.44 63.491 0.895 -26.104 0.895 -26.104 0.44 63.491
24384.375 0.44 63.465 0.895 -26.131 0.895 -26.131 0.44 63.465
24409.333 0.441 63.438 0.894 -26.159 0.894 -26.159 0.441 63.438
24434.292 0.441 63.411 0.894 -26.186 0.894 -26.186 0.441 63.411
24459.25 0.442 63.385 0.894 -26.213 0.894 -26.213 0.442 63.385
24484.208 0.442 63.358 0.894 -26.24 0.894 -26.24 0.442 63.358
24509.167 0.443 63.331 0.894 -26.267 0.894 -26.267 0.443 63.331
24534.125 0.443 63.305 0.893 -26.294 0.893 -26.294 0.443 63.305
24559.083 0.443 63.278 0.893 -26.321 0.893 -26.321 0.443 63.278
24584.042 0.444 63.252 0.893 -26.348 0.893 -26.348 0.444 63.252
24609 0.444 63.225 0.893 -26.375 0.893 -26.375 0.444 63.225
24633.958 0.445 63.199 0.893 -26.402 0.893 -26.402 0.445 63.199
24658.917 0.445 63.172 0.892 -26.429 0.892 -26.429 0.445 63.172
24683.875 0.446 63.146 0.892 -26.456 0.892 -26.456 0.446 63.146
24708.833 0.446 63.119 0.892 -26.483 0.892 -26.483 0.446 63.119
24733.792 0.446 63.093 0.892 -26.51 0.892 -26.51 0.446 63.093
24758.75 0.447 63.066 0.892 -26.537 0.892 -26.537 0.447 63.066
24783.708 0.447 63.04 0.891 -26.564 0.891 -26.564 0.447 63.04
24808.667 0.448 63.013 0.891 -26.591 0.891 -26.591 0.448 63.013
24833.625 0.448 62.987 0.891 -26.618 0.891 -26.618 0.448 62.987
24858.583 0.448 62.961 0.891 -26.644 0.891 -26.644 0.448 62.961
24883.542 0.449 62.934 0.891 -26.671 0.891 -26.671 0.449 62.934
24908.5 0.449 62.908 0.89 -26.698 0.89 -26.698 0.449 62.908
24933.458 0.45 62.882 0.89 -26.725 0.89 -26.725 0.45 62.882
24958.417 0.45 62.855 0.89 -26.752 0.89 -26.752 0.45 62.855
24983.375 0.451 62.829 0.89 -26.778 0.89 -26.778 0.451 62.829
25008.333 0.451 62.803 0.889 -26.805 0.889 -26.805 0.451 62.803
25033.292 0.451 62.776 0.889 -26.832 0.889 -26.832 0.451 62.776
25058.25 0.452 62.75 0.889 -26.859 0.889 -26.859 0.452 62.75
25083.208 0.452 62.724 0.889 -26.885 0.889 -26.885 0.452 62.724
25108.167 0.453 62.698 0.889 -26.912 0.889 -26.912 0.453 62.698
25133.125 0.453 62.671 0.888 -26.939 0.888 -26.939 0.453 62.671
25158.083 0.453 62.645 0.888 -26.965 0.888 -26.965 0.453 62.645
25183.042 0.454 62.619 0.888 -26.992 0.888 -26.992 0.454 62.619
25208 0.454 62.593 0.888 -27.019 0.888 -27.019 0.454 62.593
25232.958 0.455 62.567 0.888 -27.045 0.888 -27.045 0.455 62.567
25257.917 0.455 62.54 0.887 -27.072 0.887 -27.072 0.455 62.54
25282.875 0.456 62.514 0.887 -27.098 0.887 -27.098 0.456 62.514
25307.833 0.456 62.488 0.887 -27.125 0.887 -27.125 0.456 62.488
25332.792 0.456 62.462 0.887 -27.151 0.887 -27.151 0.456 62.462
25357.75 0.457 62.436 0.887 -27.178 0.887 -27.178 0.457 62.436
25382.708 0.457 62.41 0.886 -27.205 0.886 -27.205 0.457 62.41
25407.667 0.458 62.384 0.886 -27.231 0.886 -27.231 0.458 62.384
25432.625 0.458 62.358 0.886 -27.257 0.886 -27.257 0.458 62.358
25457.583 0.458 62.332 0.886 -27.284 0.886 -27.284 0.458 62.332
25482.542 0.459 62.306 0.885 -27.31 0.885 -27.31 0.459 62.306
25507.5 0.459 62.28 0.885 -27.337 0.885 -27.337 0.459 62.28
25532.458 0.46 62.254 0.885 -27.363 0.885 -27.363 0.46 62.254
25557.417 0.46 62.228 0.885 -27.39 0.885 -27.39 0.46 62.228
25582.375 0.46 62.202 0.885 -27.416 0.885 -27.416 0.46 62.202
25607.333 0.461 62.176 0.884 -27.442 0.884 -27.442 0.461 62.176
25632.292 0.461 62.15 0.884 -27.469 0.884 -27.469 0.461 62.15
25657.25 0.462 62.124 0.884 -27.495 0.884 -27.495 0.462 62.124
25682.208 0.462 62.098 0.884 -27.521 0.884 -27.521 0.462 62.098
25707.167 0.462 62.072 0.884 -27.548 0.884 -27.548 0.462 62.072
25732.125 0.463 62.047 0.883 -27.574 0.883 -27.574 0.463 62.047
25757.083 0.463 62.021 0.883 -27.6 0.883 -27.6 0.463 62.021
25782.042 0.464 61.995 0.883 -27.626 0.883 -27.626 0.464 61.995
25807 0.464 61.969 0.883 -27.653 0.883 -27.653 0.464 61.969
25831.958 0.465 61.943 0.883 -27.679 0.883 -27.679 0.465 61.943
25856.917 0.465 61.918 0.882 -27.705 0.882 -27.705 0.465 61.918
25881.875 0.465 61.892 0.882 -27.731 0.882 -27.731 0.465 61.892
25906.833 0.466 61.866 0.882 -27.757 0.882 -27.757 0.466 61.866
25931.792 0.466 61.84 0.882 -27.784 0.882 -27.784 0.466 61.84
25956.75 0.467 61.815 0.881 -27.81 0.881 -27.81 0.467 61.815
25981.708 0.467 61.789 0.881 -27.836 0.881 -27.836 0.467 61.789
26006.667 0.467 61.763 0.881 -27.862 0.881 -27.862 0.467 61.763
26031.625 0.468 61.737 0.881 -27.888 0.881 -27.888 0.468 61.737
26056.583 0.468 61.712 0.881 -27.914 0.881 -27.914 0.468 61.712
26081.542 0.469 61.686 0.88 -27.94 0.88 -27.94 0.469 61.686
26106.5 0.469 61.661 0.88 -27.966 0.88 -27.966 0.469 61.661
26131.458 0.469 61.635 0.88 -27.992 0.88 -27.992 0.469 61.635
26156.417 0.47 61.609 0.88 -28.018 0.88 -28.018 0.47 61.609
26181.375 0.47 61.584 0.88 -28.044 0.88 -28.044 0.47 61.584
26206.333 0.471 61.558 0.879 -28.07 0.879 -28.07 0.471 61.558
26231.292 0.471 61.533 0.879 -28.096 0.879 -28.096 0.471 61.533
26256.25 0.471 61.507 0.879 -28.122 0.879 -28.122 0.471 61.507
26281.208 0.472 61.481 0.879 -28.148 0.879 -28.148 0.472 61.481
26306.167 0.472 61.456 0.878 -28.174 0.878 -28.174 0.472 61.456
26331.125 0.473 61.43 0.878 -28.2 0.878 -28.2 0.473 61.43
26356.083 0.473 61.405 0.878 -28.226 0.878 -28.226 0.473 61.405
26381.042 0.473 61.379 0.878 -28.252 0.878 -28.252 0.473 61.379
26406 0.474 61.354 0.878 -28.278 0.878 -28.278 0.474 61.354
26430.958 0.474 61.329 0.877 -28.303 0.877 -28.303 0.474 61.329
26455.917 0.475 61.303 0.877 -28.329 0.877 -28.329 0.475 61.303
26480.875 0.475 61.278 0.877 -28.355 0.877 -28.355 0.475 61.278
26505.833 0.475 61.252 0.877 -28.381 0.877 -28.381 0.475 61.252
26530.792 0.476 61.227 0.877 -28.407 0.877 -28.407 0.476 61.227
26555.75 0.476 61.202 0.876 -28.432 0.876 -28.432 0.476 61.202
26580.708 0.477 61.176 0.876 -28.458 0.876 -28.458 0.477 61.176
26605.667 0.477 61.151 0.876 -28.484 0.876 -28.484 0.477 61.151
26630.625 0.477 61.126 0.876 -28.51 0.876 -28.51 0.477 61.126
26655.583 0.478 61.1 0.875 -28.535 0.875 -28.535 0.478 61.1
26680.542 0.478 61.075 0.875 -28.561 0.875 -28.561 0.478 61.075
26705.5 0.478 61.05 0.875 -28.587 0.875 -28.587 0.478 61.05
26730.458 0.479 61.024 0.875 -28.612 0.875 -28.612 0.479 61.024
26755.417 0.479 60.999 0.875 -28.638 0.875 -28.638 0.479 60.999
26780.375 0.48 60.974 0.874 -28.664 0.874 -28.664 0.48 60.974
26805.333 0.48 60.949 0.874 -28.689 0.874 -28.689 0.48 60.949
26830.292 0.48 60.924 0.874 -28.715 0.874 -28.715 0.48 60.924
26855.25 0.481 60.898 0.874 -28.74 0.874 -28.74 0.481 60.898
26880.208 0.481 60.873 0.874 -28.766 0.874 -28.766 0.481 60.873
26905.167 0.482 60.848 0.873 -28.791 0.873 -28.791 0.482 60.848
26930.125 0.482 60.823 0.873 -28.817 0.873 -28.817 0.482 60.823
26955.083 0.482 60.798 0.873 -28.843 0.873 -28.843 0.482 60.798
26980.042 0.483 60.773 0.873 -28.868 0.873 -28.868 0.483 60.773
27005 0.483 60.747 0.872 -28.893 0.872 -28.893 0.483 60.747
27029.958 0.484 60.722 0.872 -28.919 0.872 -28.919 0.484 60.722
27054.917 0.484 60.697 0.872 -28.944 0.872 -28.944 0.484 60.697
27079.875 0.484 60.672 0.872 -28.97 0.872 -28.97 0.484 60.672
27104.833 0.485 60.647 0.872 -28.995 0.872 -28.995 0.485 60.647
27129.792 0.485 60.622 0.871 -29.021 0.871 -29.021 0.485 60.622
27154.75 0.486 60.597 0.871 -29.046 0.871 -29.046 0.486 60.597
27179.708 0.486 60.572 0.871 -29.071 0.871 -29.071 0.486 60.572
27204.667 0.486 60.547 0.871 -29.097 0.871 -29.097 0.486 60.547
27229.625 0.487 60.522 0.871 -29.122 0.871 -29.122 0.487 60.522
27254.583 0.487 60.497 0.87 -29.147 0.87 -29.147 0.487 60.497
27279.542 0.487 60.472 0.87 -29.173 0.87 -29.173 0.487 60.472
27304.5 0.488 60.447 0.87 -29.198 0.87 -29.198 0.488 60.447
27329.458 0.488 60.422 0.87 -29.223 0.87 -29.223 0.488 60.422
27354.417 0.489 60.397 0.869 -29.249 0.869 -29.249 0.489 60.397
27379.375 0.489 60.373 0.869 -29.274 0.869 -29.274 0.489 60.373
27404.333 0.489 60.348 0.869 -29.299 0.869 -29.299 0.489 60.348
27429.292 0.49 60.323 0.869 -29.324 0.869 -29.324 0.49 60.323
27454.25 0.49 60.298 0.869 -29.35 0.869 -29.35 0.49 60.298
27479.208 0.491 60.273 0.868 -29.375 0.868 -29.375 0.491 60.273
27504.167 0.491 60.248 0.868 -29.4 0.868 -29.4 0.491 60.248
27529.125 0.491 60.224 0.868 -29.425 0.868 -29.425 0.491 60.224
27554.083 0.492 60.199 0.868 -29.45 0.868 -29.45 0.492 60.199
27579.042 0.492 60.174 0.868 -29.475 0.868 -29.475 0.492 60.174
27604 0.492 60.149 0.867 -29.501 0.867 -29.501 0.492 60.149
27628.958 0.493 60.124 0.867 -29.526 0.867 -29.526 0.493 60.124
27653.917 0.493 60.1 0.867 -29.551 0.867 -29.551 0.493 60.1
27678.875 0.494 60.075 0.867 -29.576 0.867 -29.576 0.494 60.075
27703.833 0.494 60.05 0.866 -29.601 0.866 -29.601 0.494 60.05
27728.792 0.494 60.026 0.866 -29.626 0.866 -29.626 0.494 60.026
27753.75 0.495 60.001 0.866 -29.651 0.866 -29.651 0.495 60.001
27778.708 0.495 59.976 0.866 -29.676 0.866 -29.676 0.495 59.976
27803.667 0.495 59.952 0.866 -29.701 0.866 -29.701 0.495 59.952
27828.625 0.496 59.927 0.865 -29.726 0.865 -29.726 0.496 59.927
27853.583 0.496 59.902 0.865 -29.751 0.865 -29.751 0.496 59.902
27878.542 0.497 59.878 0.865 -29.776 0.865 -29.776 0.497 59.878
27903.5 0.497 59.853 0.865 -29.801 0.865 -29.801 0.497 59.853
27928.458 0.497 59.829 0.865 -29.826 0.865 -29.826 0.497 59.829
27953.417 0.498 59.804 0.864 -29.851 0.864 -29.851 0.498 59.804
27978.375 0.498 59.78 0.864 -29.876 0.864 -29.876 0.498 59.78
28003.333 0.499 59.755 0.864 -29.9 0.864 -29.9 0.499 59.755
28028.292 0.499 59.73 0.864 -29.925 0.864 -29.925 0.499 59.73
28053.25 0.499 59.706 0.863 -29.95 0.863 -29.95 0.499 59.706
28078.208 0.5 59.681 0.863 -29.975 0.863 -29.975 0.5 59.681
28103.167 0.5 59.657 0.863 -30 0.863 -30 0.5 59.657
28128.125 0.5 59.633 0.863 -30.025 0.863 -30.025 0.5 59.633
28153.083 0.501 59.608 0.863 -30.049 0.863 -30.049 0.501 59.608
28178.042 0.501 59.584 0.862 -30.074 0.862 -30.074 0.501 59.584
28203 0.502 59.559 0.862 -30.099 0.862 -30.099 0.502 59.559
28227.958 0.502 59.535 0.862 -30.124 0.862 -30.124 0.502 59.535
28252.917 0.502 59.51 0.862 -30.148 0.862 -30.148 0.502 59.51
28277.875 0.503 59.486 0.862 -30.173 0.862 -30.173 0.503 59.486
28302.833 0.503 59.462 0.861 -30.198 0.861 -30.198 0.503 59.462
28327.792 0.503 59.437 0.861 -30.222 0.861 -30.222 0.503 59.437
28352.75 0.504 59.413 0.861 -30.247 0.861 -30.247 0.504 59.413
28377.708 0.504 59.389 0.861 -30.272 0.861 -30.272 0.504 59.389
28402.667 0.504 59.364 0.86 -30.296 0.86 -30.296 0.504 59.364
28427.625 0.505 59.34 0.86 -30.321 0.86 -30.321 0.505 59.34
28452.583 0.505 59.316 0.86 -30.346 0.86 -30.346 0.505 59.316
28477.542 0.506 59.292 0.86 -30.37 0.86 -30.37 0.506 59.292
28502.5 0.506 59.267 0.86 -30.395 0.86 -30.395 0.506 59.267
28527.458 0.506 59.243 0.859 -30.419 0.859 -30.419 0.506 59.243
28552.417 0.507 59.219 0.859 -30.444 0.859 -30.444 0.507 59.219
28577.375 0.507 59.195 0.859 -30.469 0.859 -30.469 0.507 59.195
28602.333 0.507 59.17 0.859 -30.493 0.859 -30.493 0.507 59.17
28627.292 0.508 59.146 0.858 -30.518 0.858 -30.518 0.508 59.146
28652.25 0.508 59.122 0.858 -30.542 0.858 -30.542 0.508 59.122
28677.208 0.509 59.098 0.858 -30.567 0.858 -30.567 0.509 59.098
28702.167 0.509 59.074 0.858 -30.591 0.858 -30.591 0.509 59.074
28727.125 0.509 59.05 0.858 -30.615 0.858 -30.615 0.509 59.05
28752.083 0.51 59.026 0.857 -30.64 0.857 -30.64 0.51 59.026
28777.042 0.51 59.001 0.857 -30.664 0.857 -30.664 0.51 59.001
28802 0.51 58.977 0.857 -30.689 0.857 -30.689 0.51 58.977
28826.958 0.511 58.953 0.857 -30.713 0.857 -30.713 0.511 58.953
28851.917 0.511 58.929 0.857 -30.738 0.857 -30.738 0.511 58.929
28876.875 0.511 58.905 0.856 -30.762 0.856 -30.762 0.511 58.905
28901.833 0.512 58.881 0.856 -30.786 0.856 -30.786 0.512 58.881
28926.792 0.512 58.857 0.856 -30.811 0.856 -30.811 0.512 58.857
28951.75 0.513 58.833 0.856 -30.835 0.856 -30.835 0.513 58.833
28976.708 0.513 58.809 0.855 -30.859 0.855 -30.859 0.513 58.809
29001.667 0.513 58.785 0.855 -30.883 0.855 -30.883 0.513 58.785
29026.625 0.514 58.761 0.855 -30.908 0.855 -30.908 0.514 58.761
29051.583 0.514 58.737 0.855 -30.932 0.855 -30.932 0.514 58.737
29076.542 0.514 58.713 0.855 -30.956 0.855 -30.956 0.514 58.713
29101.5 0.515 58.689 0.854 -30.98 0.854 -30.98 0.515 58.689
29126.458 0.515 58.666 0.854 -31.005 0.854 -31.005 0.515 58.666
29151.417 0.515 58.642 0.854 -31.029 0.854 -31.029 0.515 58.642
29176.375 0.516 58.618 0.854 -31.053 0.854 -31.053 0.516 58.618
29201.333 0.516 58.594 0.854 -31.077 0.854 -31.077 0.516 58.594
29226.292 0.517 58.57 0.853 -31.101 0.853 -31.101 0.517 58.57
29251.25 0.517 58.546 0.853 -31.126 0.853 -31.126 0.517 58.546
29276.208 0.517 58.522 0.853 -31.15 0.853 -31.15 0.517 58.522
29301.167 0.518 58.499 0.853 -31.174 0.853 -31.174 0.518 58.499
29326.125 0.518 58.475 0.852 -31.198 0.852 -31.198 0.518 58.475
29351.083 0.518 58.451 0.852 -31.222 0.852 -31.222 0.518 58.451
29376.042 0.519 58.427 0.852 -31.246 0.852 -31.246 0.519 58.427
29401 0.519 58.404 0.852 -31.27 0.852 -31.27 0.519 58.404
29425.958 0.519 58.38 0.852 -31.294 0.852 -31.294 0.519 58.38
29450.917 0.52 58.356 0.851 -31.318 0.851 -31.318 0.52 58.356
29475.875 0.52 58.332 0.851 -31.342 0.851 -31.342 0.52 58.332
29500.833 0.521 58.309 0.851 -31.366 0.851 -31.366 0.521 58.309
29525.792 0.521 58.285 0.851 -31.39 0.851 -31.39 0.521 58.285
29550.75 0.521 58.261 0.85 -31.414 0.85 -31.414 0.521 58.261
29575.708 0.522 58.238 0.85 -31.438 0.85 -31.438 0.522 58.238
29600.667 0.522 58.214 0.85 -31.462 0.85 -31.462 0.522 58.214
29625.625 0.522 58.19 0.85 -31.486 0.85 -31.486 0.522 58.19
29650.583 0.523 58.167 0.85 -31.51 0.85 -31.51 0.523 58.167
29675.542 0.523 58.143 0.849 -31.534 0.849 -31.534 0.523 58.143
29700.5 0.523 58.12 0.849 -31.558 0.849 -31.558 0.523 58.12
29725.458 0.524 58.096 0.849 -31.582 0.849 -31.582 0.524 58.096
29750.417 0.524 58.072 0.849 -31.605 0.849 -31.605 0.524 58.072
29775.375 0.524 58.049 0.849 -31.629 0.849 -31.629 0.524 58.049
29800.333 0.525 58.025 0.848 -31.653 0.848 -31.653 0.525 58.025
29825.292 0.525 58.002 0.848 -31.677 0.848 -31.677 0.525 58.002
29850.25 0.525 57.978 0.848 -31.701 0.848 -31.701 0.525 57.978
29875.208 0.526 57.955 0.848 -31.725 0.848 -31.725 0.526 57.955
29900.167 0.526 57.931 0.847 -31.748 0.847 -31.748 0.526 57.931
29925.125 0.527 57.908 0.847 -31.772 0.847 -31.772 0.527 57.908
29950.083 0.527 57.884 0.847 -31.796 0.847 -31.796 0.527 57.884
29975.042 0.527 57.861 0.847 -31.82 0.847 -31.82 0.527 57.861
30000 0.528 57.838 0.847 -31.843 0.847 -31.843 0.528 57.838
