!	AVX Thin Film Operation 	Date: April 2014		
!	Description: Accu-P® Series, Thin Film  SMD RF Capacitor
!	Part Number: 02011JR55PBSTR					
!								
# MHZ S MA R 50

50 1 -0.99 0.017 89.002 0.017 89.002 1 -0.99
74.958 1 -1.484 0.026 88.504 0.026 88.504 1 -1.484
99.917 0.999 -1.978 0.035 88.006 0.035 88.006 0.999 -1.978
124.875 0.999 -2.471 0.043 87.509 0.043 87.509 0.999 -2.471
149.833 0.999 -2.965 0.052 87.012 0.052 87.012 0.999 -2.965
174.792 0.998 -3.457 0.06 86.515 0.06 86.515 0.998 -3.457
199.75 0.998 -3.95 0.069 86.018 0.069 86.018 0.998 -3.95
224.708 0.997 -4.442 0.077 85.522 0.077 85.522 0.997 -4.442
249.667 0.996 -4.933 0.086 85.027 0.086 85.027 0.996 -4.933
274.625 0.995 -5.424 0.095 84.532 0.095 84.532 0.995 -5.424
299.583 0.995 -5.915 0.103 84.038 0.103 84.038 0.995 -5.915
324.542 0.994 -6.404 0.112 83.544 0.112 83.544 0.994 -6.404
349.5 0.993 -6.893 0.12 83.051 0.12 83.051 0.993 -6.893
374.458 0.992 -7.381 0.128 82.559 0.128 82.559 0.992 -7.381
399.417 0.99 -7.868 0.137 82.068 0.137 82.068 0.99 -7.868
424.375 0.989 -8.354 0.145 81.578 0.145 81.578 0.989 -8.354
449.333 0.988 -8.839 0.154 81.089 0.154 81.089 0.988 -8.839
474.292 0.987 -9.323 0.162 80.601 0.162 80.601 0.987 -9.323
499.25 0.985 -9.806 0.17 80.114 0.17 80.114 0.985 -9.806
524.208 0.984 -10.288 0.179 79.628 0.179 79.628 0.984 -10.288
549.167 0.982 -10.769 0.187 79.143 0.187 79.143 0.982 -10.769
574.125 0.98 -11.249 0.195 78.66 0.195 78.66 0.98 -11.249
599.083 0.979 -11.727 0.203 78.177 0.203 78.177 0.979 -11.727
624.042 0.977 -12.204 0.211 77.697 0.211 77.697 0.977 -12.204
649 0.975 -12.679 0.219 77.217 0.219 77.217 0.975 -12.679
673.958 0.973 -13.153 0.228 76.739 0.228 76.739 0.973 -13.153
698.917 0.971 -13.626 0.236 76.262 0.236 76.262 0.971 -13.626
723.875 0.969 -14.097 0.244 75.787 0.244 75.787 0.969 -14.097
748.833 0.967 -14.566 0.252 75.314 0.252 75.314 0.967 -14.566
773.792 0.965 -15.034 0.259 74.842 0.259 74.842 0.965 -15.034
798.75 0.963 -15.501 0.267 74.372 0.267 74.372 0.963 -15.501
823.708 0.961 -15.965 0.275 73.903 0.275 73.903 0.961 -15.965
848.667 0.959 -16.428 0.283 73.436 0.283 73.436 0.959 -16.428
873.625 0.956 -16.889 0.291 72.971 0.291 72.971 0.956 -16.889
898.583 0.954 -17.348 0.298 72.508 0.298 72.508 0.954 -17.348
923.542 0.951 -17.806 0.306 72.046 0.306 72.046 0.951 -17.806
948.5 0.949 -18.261 0.313 71.586 0.313 71.586 0.949 -18.261
973.458 0.946 -18.715 0.321 71.129 0.321 71.129 0.946 -18.715
998.417 0.944 -19.167 0.328 70.673 0.328 70.673 0.944 -19.167
1023.375 0.941 -19.617 0.336 70.219 0.336 70.219 0.941 -19.617
1048.333 0.938 -20.064 0.343 69.767 0.343 69.767 0.938 -20.064
1073.292 0.936 -20.51 0.35 69.317 0.35 69.317 0.936 -20.51
1098.25 0.933 -20.954 0.358 68.87 0.358 68.87 0.933 -20.954
1123.208 0.93 -21.395 0.365 68.424 0.365 68.424 0.93 -21.395
1148.167 0.927 -21.835 0.372 67.98 0.372 67.98 0.927 -21.835
1173.125 0.924 -22.272 0.379 67.539 0.379 67.539 0.924 -22.272
1198.083 0.921 -22.707 0.386 67.1 0.386 67.1 0.921 -22.707
1223.042 0.918 -23.14 0.393 66.662 0.393 66.662 0.918 -23.14
1248 0.915 -23.571 0.4 66.227 0.4 66.227 0.915 -23.571
1272.958 0.912 -24 0.407 65.795 0.407 65.795 0.912 -24
1297.917 0.909 -24.426 0.414 65.364 0.414 65.364 0.909 -24.426
1322.875 0.906 -24.85 0.42 64.936 0.42 64.936 0.906 -24.85
1347.833 0.903 -25.272 0.427 64.51 0.427 64.51 0.903 -25.272
1372.792 0.899 -25.692 0.434 64.086 0.434 64.086 0.899 -25.692
1397.75 0.896 -26.109 0.44 63.665 0.44 63.665 0.896 -26.109
1422.708 0.893 -26.524 0.447 63.246 0.447 63.246 0.893 -26.524
1447.667 0.89 -26.937 0.453 62.829 0.453 62.829 0.89 -26.937
1472.625 0.886 -27.347 0.459 62.414 0.459 62.414 0.886 -27.347
1497.583 0.883 -27.755 0.466 62.002 0.466 62.002 0.883 -27.755
1522.542 0.88 -28.16 0.472 61.593 0.472 61.593 0.88 -28.16
1547.5 0.876 -28.563 0.478 61.185 0.478 61.185 0.876 -28.563
1572.458 0.873 -28.964 0.484 60.78 0.484 60.78 0.873 -28.964
1597.417 0.869 -29.362 0.49 60.378 0.49 60.378 0.869 -29.362
1622.375 0.866 -29.758 0.496 59.977 0.496 59.977 0.866 -29.758
1647.333 0.862 -30.152 0.502 59.58 0.502 59.58 0.862 -30.152
1672.292 0.859 -30.543 0.508 59.184 0.508 59.184 0.859 -30.543
1697.25 0.855 -30.932 0.514 58.791 0.514 58.791 0.855 -30.932
1722.208 0.852 -31.318 0.52 58.401 0.52 58.401 0.852 -31.318
1747.167 0.848 -31.702 0.526 58.012 0.526 58.012 0.848 -31.702
1772.125 0.845 -32.084 0.531 57.627 0.531 57.627 0.845 -32.084
1797.083 0.841 -32.463 0.537 57.243 0.537 57.243 0.841 -32.463
1822.042 0.837 -32.839 0.542 56.862 0.542 56.862 0.837 -32.839
1847 0.834 -33.214 0.548 56.484 0.548 56.484 0.834 -33.214
1871.958 0.83 -33.586 0.553 56.107 0.553 56.107 0.83 -33.586
1896.917 0.826 -33.955 0.559 55.734 0.559 55.734 0.826 -33.955
1921.875 0.823 -34.322 0.564 55.362 0.564 55.362 0.823 -34.322
1946.833 0.819 -34.686 0.569 54.993 0.569 54.993 0.819 -34.686
1971.792 0.815 -35.049 0.574 54.627 0.574 54.627 0.815 -35.049
1996.75 0.812 -35.408 0.579 54.263 0.579 54.263 0.812 -35.408
2021.708 0.808 -35.766 0.584 53.901 0.584 53.901 0.808 -35.766
2046.667 0.804 -36.121 0.589 53.542 0.589 53.542 0.804 -36.121
2071.625 0.801 -36.473 0.594 53.185 0.594 53.185 0.801 -36.473
2096.583 0.797 -36.823 0.599 52.83 0.599 52.83 0.797 -36.823
2121.542 0.793 -37.171 0.604 52.478 0.604 52.478 0.793 -37.171
2146.5 0.789 -37.517 0.609 52.128 0.609 52.128 0.789 -37.517
2171.458 0.786 -37.86 0.614 51.78 0.614 51.78 0.786 -37.86
2196.417 0.782 -38.2 0.618 51.435 0.618 51.435 0.782 -38.2
2221.375 0.778 -38.539 0.623 51.092 0.623 51.092 0.778 -38.539
2246.333 0.774 -38.875 0.628 50.752 0.628 50.752 0.774 -38.875
2271.292 0.771 -39.208 0.632 50.414 0.632 50.414 0.771 -39.208
2296.25 0.767 -39.54 0.637 50.078 0.637 50.078 0.767 -39.54
2321.208 0.763 -39.869 0.641 49.744 0.641 49.744 0.763 -39.869
2346.167 0.759 -40.196 0.645 49.413 0.645 49.413 0.759 -40.196
2371.125 0.756 -40.52 0.65 49.084 0.65 49.084 0.756 -40.52
2396.083 0.752 -40.842 0.654 48.757 0.654 48.757 0.752 -40.842
2421.042 0.748 -41.162 0.658 48.432 0.658 48.432 0.748 -41.162
2446 0.744 -41.48 0.662 48.11 0.662 48.11 0.744 -41.48
2470.958 0.741 -41.796 0.666 47.79 0.666 47.79 0.741 -41.796
2495.917 0.737 -42.109 0.671 47.472 0.671 47.472 0.737 -42.109
2520.875 0.733 -42.42 0.675 47.156 0.675 47.156 0.733 -42.42
2545.833 0.73 -42.729 0.679 46.843 0.679 46.843 0.73 -42.729
2570.792 0.726 -43.035 0.682 46.532 0.682 46.532 0.726 -43.035
2595.75 0.722 -43.34 0.686 46.222 0.686 46.222 0.722 -43.34
2620.708 0.718 -43.642 0.69 45.916 0.69 45.916 0.718 -43.642
2645.667 0.715 -43.942 0.694 45.611 0.694 45.611 0.715 -43.942
2670.625 0.711 -44.24 0.698 45.308 0.698 45.308 0.711 -44.24
2695.583 0.707 -44.536 0.701 45.007 0.701 45.007 0.707 -44.536
2720.542 0.704 -44.829 0.705 44.709 0.705 44.709 0.704 -44.829
2745.5 0.7 -45.121 0.709 44.412 0.709 44.412 0.7 -45.121
2770.458 0.696 -45.411 0.712 44.118 0.712 44.118 0.696 -45.411
2795.417 0.692 -45.698 0.716 43.826 0.716 43.826 0.692 -45.698
2820.375 0.689 -45.984 0.719 43.535 0.719 43.535 0.689 -45.984
2845.333 0.685 -46.267 0.723 43.247 0.723 43.247 0.685 -46.267
2870.292 0.682 -46.548 0.726 42.961 0.726 42.961 0.682 -46.548
2895.25 0.678 -46.828 0.729 42.677 0.729 42.677 0.678 -46.828
2920.208 0.674 -47.105 0.733 42.395 0.733 42.395 0.674 -47.105
2945.167 0.671 -47.38 0.736 42.114 0.736 42.114 0.671 -47.38
2970.125 0.667 -47.654 0.739 41.836 0.739 41.836 0.667 -47.654
2995.083 0.663 -47.925 0.742 41.559 0.742 41.559 0.663 -47.925
3020.042 0.66 -48.194 0.745 41.285 0.745 41.285 0.66 -48.194
3045 0.656 -48.462 0.749 41.012 0.749 41.012 0.656 -48.462
3069.958 0.653 -48.728 0.752 40.742 0.752 40.742 0.653 -48.728
3094.917 0.649 -48.991 0.755 40.473 0.755 40.473 0.649 -48.991
3119.875 0.646 -49.253 0.758 40.206 0.758 40.206 0.646 -49.253
3144.833 0.642 -49.513 0.761 39.941 0.761 39.941 0.642 -49.513
3169.792 0.638 -49.771 0.764 39.678 0.764 39.678 0.638 -49.771
3194.75 0.635 -50.028 0.766 39.416 0.766 39.416 0.635 -50.028
3219.708 0.631 -50.282 0.769 39.157 0.769 39.157 0.631 -50.282
3244.667 0.628 -50.535 0.772 38.899 0.772 38.899 0.628 -50.535
3269.625 0.624 -50.786 0.775 38.643 0.775 38.643 0.624 -50.786
3294.583 0.621 -51.035 0.778 38.388 0.778 38.388 0.621 -51.035
3319.542 0.618 -51.282 0.78 38.136 0.78 38.136 0.618 -51.282
3344.5 0.614 -51.528 0.783 37.885 0.783 37.885 0.614 -51.528
3369.458 0.611 -51.771 0.786 37.636 0.786 37.636 0.611 -51.771
3394.417 0.607 -52.014 0.788 37.388 0.788 37.388 0.607 -52.014
3419.375 0.604 -52.254 0.791 37.143 0.791 37.143 0.604 -52.254
3444.333 0.6 -52.493 0.793 36.899 0.793 36.899 0.6 -52.493
3469.292 0.597 -52.73 0.796 36.656 0.796 36.656 0.597 -52.73
3494.25 0.594 -52.965 0.798 36.415 0.798 36.415 0.594 -52.965
3519.208 0.59 -53.199 0.801 36.176 0.801 36.176 0.59 -53.199
3544.167 0.587 -53.431 0.803 35.939 0.803 35.939 0.587 -53.431
3569.125 0.584 -53.661 0.806 35.703 0.806 35.703 0.584 -53.661
3594.083 0.58 -53.89 0.808 35.469 0.808 35.469 0.58 -53.89
3619.042 0.577 -54.117 0.81 35.236 0.81 35.236 0.577 -54.117
3644 0.574 -54.343 0.813 35.005 0.813 35.005 0.574 -54.343
3668.958 0.57 -54.567 0.815 34.775 0.815 34.775 0.57 -54.567
3693.917 0.567 -54.789 0.817 34.547 0.817 34.547 0.567 -54.789
3718.875 0.564 -55.01 0.819 34.32 0.819 34.32 0.564 -55.01
3743.833 0.561 -55.23 0.822 34.095 0.822 34.095 0.561 -55.23
3768.792 0.557 -55.448 0.824 33.871 0.824 33.871 0.557 -55.448
3793.75 0.554 -55.664 0.826 33.649 0.826 33.649 0.554 -55.664
3818.708 0.551 -55.879 0.828 33.429 0.828 33.429 0.551 -55.879
3843.667 0.548 -56.093 0.83 33.209 0.83 33.209 0.548 -56.093
3868.625 0.545 -56.305 0.832 32.991 0.832 32.991 0.545 -56.305
3893.583 0.541 -56.515 0.834 32.775 0.834 32.775 0.541 -56.515
3918.542 0.538 -56.724 0.836 32.56 0.836 32.56 0.538 -56.724
3943.5 0.535 -56.932 0.838 32.346 0.838 32.346 0.535 -56.932
3968.458 0.532 -57.138 0.84 32.134 0.84 32.134 0.532 -57.138
3993.417 0.529 -57.343 0.842 31.923 0.842 31.923 0.529 -57.343
4018.375 0.526 -57.546 0.844 31.714 0.844 31.714 0.526 -57.546
4043.333 0.523 -57.749 0.846 31.506 0.846 31.506 0.523 -57.749
4068.292 0.52 -57.949 0.848 31.299 0.848 31.299 0.52 -57.949
4093.25 0.516 -58.149 0.849 31.094 0.849 31.094 0.516 -58.149
4118.208 0.513 -58.347 0.851 30.889 0.851 30.889 0.513 -58.347
4143.167 0.51 -58.543 0.853 30.686 0.853 30.686 0.51 -58.543
4168.125 0.507 -58.739 0.855 30.485 0.855 30.485 0.507 -58.739
4193.083 0.504 -58.933 0.857 30.285 0.857 30.285 0.504 -58.933
4218.042 0.501 -59.126 0.858 30.085 0.858 30.085 0.501 -59.126
4243 0.498 -59.317 0.86 29.888 0.86 29.888 0.498 -59.317
4267.958 0.495 -59.507 0.862 29.691 0.862 29.691 0.495 -59.507
4292.917 0.492 -59.696 0.863 29.496 0.863 29.496 0.492 -59.696
4317.875 0.489 -59.884 0.865 29.302 0.865 29.302 0.489 -59.884
4342.833 0.487 -60.071 0.867 29.109 0.867 29.109 0.487 -60.071
4367.792 0.484 -60.256 0.868 28.917 0.868 28.917 0.484 -60.256
4392.75 0.481 -60.44 0.87 28.726 0.87 28.726 0.481 -60.44
4417.708 0.478 -60.623 0.872 28.537 0.872 28.537 0.478 -60.623
4442.667 0.475 -60.804 0.873 28.349 0.873 28.349 0.475 -60.804
4467.625 0.472 -60.985 0.875 28.162 0.875 28.162 0.472 -60.985
4492.583 0.469 -61.164 0.876 27.976 0.876 27.976 0.469 -61.164
4517.542 0.466 -61.342 0.878 27.791 0.878 27.791 0.466 -61.342
4542.5 0.463 -61.519 0.879 27.607 0.879 27.607 0.463 -61.519
4567.458 0.461 -61.695 0.881 27.424 0.881 27.424 0.461 -61.695
4592.417 0.458 -61.869 0.882 27.243 0.882 27.243 0.458 -61.869
4617.375 0.455 -62.043 0.883 27.062 0.883 27.062 0.455 -62.043
4642.333 0.452 -62.215 0.885 26.883 0.885 26.883 0.452 -62.215
4667.292 0.449 -62.387 0.886 26.705 0.886 26.705 0.449 -62.387
4692.25 0.447 -62.557 0.888 26.528 0.888 26.528 0.447 -62.557
4717.208 0.444 -62.726 0.889 26.351 0.889 26.351 0.444 -62.726
4742.167 0.441 -62.894 0.89 26.176 0.89 26.176 0.441 -62.894
4767.125 0.438 -63.061 0.892 26.002 0.892 26.002 0.438 -63.061
4792.083 0.436 -63.227 0.893 25.829 0.893 25.829 0.436 -63.227
4817.042 0.433 -63.392 0.894 25.657 0.894 25.657 0.433 -63.392
4842 0.43 -63.556 0.895 25.486 0.895 25.486 0.43 -63.556
4866.958 0.428 -63.718 0.897 25.316 0.897 25.316 0.428 -63.718
4891.917 0.425 -63.88 0.898 25.146 0.898 25.146 0.425 -63.88
4916.875 0.422 -64.041 0.899 24.978 0.899 24.978 0.422 -64.041
4941.833 0.42 -64.201 0.9 24.811 0.9 24.811 0.42 -64.201
4966.792 0.417 -64.359 0.902 24.645 0.902 24.645 0.417 -64.359
4991.75 0.414 -64.517 0.903 24.479 0.903 24.479 0.414 -64.517
5016.708 0.412 -64.674 0.904 24.315 0.904 24.315 0.412 -64.674
5041.667 0.409 -64.83 0.905 24.151 0.905 24.151 0.409 -64.83
5066.625 0.407 -64.984 0.906 23.989 0.906 23.989 0.407 -64.984
5091.583 0.404 -65.138 0.907 23.827 0.907 23.827 0.404 -65.138
5116.542 0.401 -65.291 0.909 23.666 0.909 23.666 0.401 -65.291
5141.5 0.399 -65.443 0.91 23.506 0.91 23.506 0.399 -65.443
5166.458 0.396 -65.594 0.911 23.347 0.911 23.347 0.396 -65.594
5191.417 0.394 -65.744 0.912 23.189 0.912 23.189 0.394 -65.744
5216.375 0.391 -65.893 0.913 23.032 0.913 23.032 0.391 -65.893
5241.333 0.389 -66.041 0.914 22.876 0.914 22.876 0.389 -66.041
5266.292 0.386 -66.189 0.915 22.72 0.915 22.72 0.386 -66.189
5291.25 0.384 -66.335 0.916 22.565 0.916 22.565 0.384 -66.335
5316.208 0.381 -66.48 0.917 22.411 0.917 22.411 0.381 -66.48
5341.167 0.379 -66.625 0.918 22.258 0.918 22.258 0.379 -66.625
5366.125 0.376 -66.769 0.919 22.106 0.919 22.106 0.376 -66.769
5391.083 0.374 -66.912 0.92 21.955 0.92 21.955 0.374 -66.912
5416.042 0.372 -67.054 0.921 21.804 0.921 21.804 0.372 -67.054
5441 0.369 -67.195 0.922 21.654 0.922 21.654 0.369 -67.195
5465.958 0.367 -67.335 0.923 21.505 0.923 21.505 0.367 -67.335
5490.917 0.364 -67.474 0.924 21.357 0.924 21.357 0.364 -67.474
5515.875 0.362 -67.613 0.925 21.21 0.925 21.21 0.362 -67.613
5540.833 0.359 -67.751 0.926 21.063 0.926 21.063 0.359 -67.751
5565.792 0.357 -67.887 0.927 20.917 0.927 20.917 0.357 -67.887
5590.75 0.355 -68.024 0.928 20.772 0.928 20.772 0.355 -68.024
5615.708 0.352 -68.159 0.928 20.627 0.928 20.627 0.352 -68.159
5640.667 0.35 -68.293 0.929 20.484 0.929 20.484 0.35 -68.293
5665.625 0.348 -68.427 0.93 20.341 0.93 20.341 0.348 -68.427
5690.583 0.345 -68.56 0.931 20.198 0.931 20.198 0.345 -68.56
5715.542 0.343 -68.692 0.932 20.057 0.932 20.057 0.343 -68.692
5740.5 0.341 -68.823 0.933 19.916 0.933 19.916 0.341 -68.823
5765.458 0.338 -68.953 0.934 19.776 0.934 19.776 0.338 -68.953
5790.417 0.336 -69.083 0.934 19.637 0.934 19.637 0.336 -69.083
5815.375 0.334 -69.212 0.935 19.498 0.935 19.498 0.334 -69.212
5840.333 0.332 -69.34 0.936 19.36 0.936 19.36 0.332 -69.34
5865.292 0.329 -69.467 0.937 19.223 0.937 19.223 0.329 -69.467
5890.25 0.327 -69.594 0.937 19.086 0.937 19.086 0.327 -69.594
5915.208 0.325 -69.719 0.938 18.95 0.938 18.95 0.325 -69.719
5940.167 0.323 -69.844 0.939 18.815 0.939 18.815 0.323 -69.844
5965.125 0.32 -69.969 0.94 18.68 0.94 18.68 0.32 -69.969
5990.083 0.318 -70.092 0.941 18.546 0.941 18.546 0.318 -70.092
6015.042 0.316 -70.215 0.941 18.413 0.941 18.413 0.316 -70.215
6040 0.314 -70.337 0.942 18.28 0.942 18.28 0.314 -70.337
6064.958 0.312 -70.458 0.943 18.148 0.943 18.148 0.312 -70.458
6089.917 0.309 -70.579 0.943 18.016 0.943 18.016 0.309 -70.579
6114.875 0.307 -70.699 0.944 17.886 0.944 17.886 0.307 -70.699
6139.833 0.305 -70.818 0.945 17.755 0.945 17.755 0.305 -70.818
6164.792 0.303 -70.936 0.945 17.626 0.945 17.626 0.303 -70.936
6189.75 0.301 -71.054 0.946 17.497 0.946 17.497 0.301 -71.054
6214.708 0.299 -71.171 0.947 17.368 0.947 17.368 0.299 -71.171
6239.667 0.296 -71.287 0.947 17.241 0.947 17.241 0.296 -71.287
6264.625 0.294 -71.403 0.948 17.113 0.948 17.113 0.294 -71.403
6289.583 0.292 -71.517 0.949 16.987 0.949 16.987 0.292 -71.517
6314.542 0.29 -71.632 0.949 16.861 0.949 16.861 0.29 -71.632
6339.5 0.288 -71.745 0.95 16.735 0.95 16.735 0.288 -71.745
6364.458 0.286 -71.858 0.951 16.611 0.951 16.611 0.286 -71.858
6389.417 0.284 -71.97 0.951 16.486 0.951 16.486 0.284 -71.97
6414.375 0.282 -72.081 0.952 16.363 0.952 16.363 0.282 -72.081
6439.333 0.28 -72.192 0.952 16.239 0.952 16.239 0.28 -72.192
6464.292 0.278 -72.302 0.953 16.117 0.953 16.117 0.278 -72.302
6489.25 0.276 -72.411 0.954 15.995 0.954 15.995 0.276 -72.411
6514.208 0.274 -72.52 0.954 15.873 0.954 15.873 0.274 -72.52
6539.167 0.272 -72.628 0.955 15.752 0.955 15.752 0.272 -72.628
6564.125 0.27 -72.735 0.955 15.632 0.955 15.632 0.27 -72.735
6589.083 0.268 -72.842 0.956 15.512 0.956 15.512 0.268 -72.842
6614.042 0.266 -72.948 0.956 15.392 0.956 15.392 0.266 -72.948
6639 0.264 -73.053 0.957 15.274 0.957 15.274 0.264 -73.053
6663.958 0.262 -73.158 0.958 15.155 0.958 15.155 0.262 -73.158
6688.917 0.26 -73.262 0.958 15.037 0.958 15.037 0.26 -73.262
6713.875 0.258 -73.365 0.959 14.92 0.959 14.92 0.258 -73.365
6738.833 0.256 -73.468 0.959 14.803 0.959 14.803 0.256 -73.468
6763.792 0.254 -73.57 0.96 14.687 0.96 14.687 0.254 -73.57
6788.75 0.252 -73.671 0.96 14.571 0.96 14.571 0.252 -73.671
6813.708 0.25 -73.772 0.961 14.456 0.961 14.456 0.25 -73.772
6838.667 0.248 -73.872 0.961 14.341 0.961 14.341 0.248 -73.872
6863.625 0.246 -73.971 0.962 14.227 0.962 14.227 0.246 -73.971
6888.583 0.244 -74.07 0.962 14.113 0.962 14.113 0.244 -74.07
6913.542 0.242 -74.168 0.963 13.999 0.963 13.999 0.242 -74.168
6938.5 0.24 -74.266 0.963 13.886 0.963 13.886 0.24 -74.266
6963.458 0.238 -74.362 0.963 13.774 0.963 13.774 0.238 -74.362
6988.417 0.236 -74.459 0.964 13.662 0.964 13.662 0.236 -74.459
7013.375 0.234 -74.554 0.964 13.55 0.964 13.55 0.234 -74.554
7038.333 0.233 -74.649 0.965 13.439 0.965 13.439 0.233 -74.649
7063.292 0.231 -74.743 0.965 13.329 0.965 13.329 0.231 -74.743
7088.25 0.229 -74.837 0.966 13.218 0.966 13.218 0.229 -74.837
7113.208 0.227 -74.929 0.966 13.109 0.966 13.109 0.227 -74.929
7138.167 0.225 -75.022 0.967 12.999 0.967 12.999 0.225 -75.022
7163.125 0.223 -75.113 0.967 12.891 0.967 12.891 0.223 -75.113
7188.083 0.221 -75.204 0.967 12.782 0.967 12.782 0.221 -75.204
7213.042 0.22 -75.294 0.968 12.674 0.968 12.674 0.22 -75.294
7238 0.218 -75.384 0.968 12.567 0.968 12.567 0.218 -75.384
7262.958 0.216 -75.473 0.969 12.459 0.969 12.459 0.216 -75.473
7287.917 0.214 -75.561 0.969 12.353 0.969 12.353 0.214 -75.561
7312.875 0.212 -75.649 0.969 12.246 0.969 12.246 0.212 -75.649
7337.833 0.21 -75.736 0.97 12.141 0.97 12.141 0.21 -75.736
7362.792 0.209 -75.822 0.97 12.035 0.97 12.035 0.209 -75.822
7387.75 0.207 -75.908 0.971 11.93 0.971 11.93 0.207 -75.908
7412.708 0.205 -75.993 0.971 11.825 0.971 11.825 0.205 -75.993
7437.667 0.203 -76.077 0.971 11.721 0.971 11.721 0.203 -76.077
7462.625 0.202 -76.161 0.972 11.617 0.972 11.617 0.202 -76.161
7487.583 0.2 -76.244 0.972 11.514 0.972 11.514 0.2 -76.244
7512.542 0.198 -76.326 0.972 11.411 0.972 11.411 0.198 -76.326
7537.5 0.196 -76.408 0.973 11.308 0.973 11.308 0.196 -76.408
7562.458 0.194 -76.488 0.973 11.206 0.973 11.206 0.194 -76.488
7587.417 0.193 -76.569 0.973 11.104 0.973 11.104 0.193 -76.569
7612.375 0.191 -76.648 0.974 11.003 0.974 11.003 0.191 -76.648
7637.333 0.189 -76.727 0.974 10.901 0.974 10.901 0.189 -76.727
7662.292 0.188 -76.805 0.974 10.801 0.974 10.801 0.188 -76.805
7687.25 0.186 -76.883 0.975 10.7 0.975 10.7 0.186 -76.883
7712.208 0.184 -76.959 0.975 10.6 0.975 10.6 0.184 -76.959
7737.167 0.182 -77.035 0.975 10.501 0.975 10.501 0.182 -77.035
7762.125 0.181 -77.111 0.976 10.401 0.976 10.401 0.181 -77.111
7787.083 0.179 -77.185 0.976 10.302 0.976 10.302 0.179 -77.185
7812.042 0.177 -77.259 0.976 10.204 0.976 10.204 0.177 -77.259
7837 0.176 -77.332 0.977 10.106 0.977 10.106 0.176 -77.332
7861.958 0.174 -77.404 0.977 10.008 0.977 10.008 0.174 -77.404
7886.917 0.172 -77.476 0.977 9.91 0.977 9.91 0.172 -77.476
7911.875 0.171 -77.547 0.978 9.813 0.978 9.813 0.171 -77.547
7936.833 0.169 -77.617 0.978 9.716 0.978 9.716 0.169 -77.617
7961.792 0.167 -77.686 0.978 9.62 0.978 9.62 0.167 -77.686
7986.75 0.166 -77.754 0.978 9.524 0.978 9.524 0.166 -77.754
8011.708 0.164 -77.822 0.979 9.428 0.979 9.428 0.164 -77.822
8036.667 0.162 -77.889 0.979 9.332 0.979 9.332 0.162 -77.889
8061.625 0.161 -77.955 0.979 9.237 0.979 9.237 0.161 -77.955
8086.583 0.159 -78.02 0.979 9.142 0.979 9.142 0.159 -78.02
8111.542 0.157 -78.085 0.98 9.048 0.98 9.048 0.157 -78.085
8136.5 0.156 -78.148 0.98 8.954 0.98 8.954 0.156 -78.148
8161.458 0.154 -78.211 0.98 8.86 0.98 8.86 0.154 -78.211
8186.417 0.153 -78.273 0.98 8.766 0.98 8.766 0.153 -78.273
8211.375 0.151 -78.334 0.981 8.673 0.981 8.673 0.151 -78.334
8236.333 0.149 -78.394 0.981 8.58 0.981 8.58 0.149 -78.394
8261.292 0.148 -78.453 0.981 8.488 0.981 8.488 0.148 -78.453
8286.25 0.146 -78.511 0.981 8.396 0.981 8.396 0.146 -78.511
8311.208 0.145 -78.568 0.982 8.304 0.982 8.304 0.145 -78.568
8336.167 0.143 -78.624 0.982 8.212 0.982 8.212 0.143 -78.624
8361.125 0.141 -78.68 0.982 8.121 0.982 8.121 0.141 -78.68
8386.083 0.14 -78.734 0.982 8.03 0.982 8.03 0.14 -78.734
8411.042 0.138 -78.788 0.983 7.939 0.983 7.939 0.138 -78.788
8436 0.137 -78.84 0.983 7.848 0.983 7.848 0.137 -78.84
8460.958 0.135 -78.891 0.983 7.758 0.983 7.758 0.135 -78.891
8485.917 0.134 -78.941 0.983 7.668 0.983 7.668 0.134 -78.941
8510.875 0.132 -78.99 0.983 7.579 0.983 7.579 0.132 -78.99
8535.833 0.131 -79.038 0.984 7.49 0.984 7.49 0.131 -79.038
8560.792 0.129 -79.085 0.984 7.401 0.984 7.401 0.129 -79.085
8585.75 0.128 -79.131 0.984 7.312 0.984 7.312 0.128 -79.131
8610.708 0.126 -79.175 0.984 7.224 0.984 7.224 0.126 -79.175
8635.667 0.124 -79.219 0.984 7.135 0.984 7.135 0.124 -79.219
8660.625 0.123 -79.261 0.985 7.048 0.985 7.048 0.123 -79.261
8685.583 0.121 -79.302 0.985 6.96 0.985 6.96 0.121 -79.302
8710.542 0.12 -79.341 0.985 6.873 0.985 6.873 0.12 -79.341
8735.5 0.118 -79.379 0.985 6.786 0.985 6.786 0.118 -79.379
8760.458 0.117 -79.416 0.985 6.699 0.985 6.699 0.117 -79.416
8785.417 0.115 -79.451 0.985 6.612 0.985 6.612 0.115 -79.451
8810.375 0.114 -79.485 0.986 6.526 0.986 6.526 0.114 -79.485
8835.333 0.112 -79.518 0.986 6.44 0.986 6.44 0.112 -79.518
8860.292 0.111 -79.549 0.986 6.355 0.986 6.355 0.111 -79.549
8885.25 0.109 -79.578 0.986 6.269 0.986 6.269 0.109 -79.578
8910.208 0.108 -79.606 0.986 6.184 0.986 6.184 0.108 -79.606
8935.167 0.107 -79.632 0.986 6.099 0.986 6.099 0.107 -79.632
8960.125 0.105 -79.656 0.987 6.015 0.987 6.015 0.105 -79.656
8985.083 0.104 -79.679 0.987 5.93 0.987 5.93 0.104 -79.679
9010.042 0.102 -79.699 0.987 5.846 0.987 5.846 0.102 -79.699
9035 0.101 -79.718 0.987 5.762 0.987 5.762 0.101 -79.718
9059.958 0.099 -79.735 0.987 5.679 0.987 5.679 0.099 -79.735
9084.917 0.098 -79.75 0.987 5.595 0.987 5.595 0.098 -79.75
9109.875 0.096 -79.763 0.987 5.512 0.987 5.512 0.096 -79.763
9134.833 0.095 -79.774 0.988 5.429 0.988 5.429 0.095 -79.774
9159.792 0.094 -79.782 0.988 5.347 0.988 5.347 0.094 -79.782
9184.75 0.092 -79.788 0.988 5.264 0.988 5.264 0.092 -79.788
9209.708 0.091 -79.792 0.988 5.182 0.988 5.182 0.091 -79.792
9234.667 0.089 -79.793 0.988 5.1 0.988 5.1 0.089 -79.793
9259.625 0.088 -79.791 0.988 5.018 0.988 5.018 0.088 -79.791
9284.583 0.086 -79.787 0.988 4.937 0.988 4.937 0.086 -79.787
9309.542 0.085 -79.78 0.988 4.856 0.988 4.856 0.085 -79.78
9334.5 0.084 -79.77 0.989 4.775 0.989 4.775 0.084 -79.77
9359.458 0.082 -79.757 0.989 4.694 0.989 4.694 0.082 -79.757
9384.417 0.081 -79.741 0.989 4.613 0.989 4.613 0.081 -79.741
9409.375 0.079 -79.722 0.989 4.533 0.989 4.533 0.079 -79.722
9434.333 0.078 -79.699 0.989 4.453 0.989 4.453 0.078 -79.699
9459.292 0.077 -79.672 0.989 4.373 0.989 4.373 0.077 -79.672
9484.25 0.075 -79.642 0.989 4.294 0.989 4.294 0.075 -79.642
9509.208 0.074 -79.608 0.989 4.214 0.989 4.214 0.074 -79.608
9534.167 0.073 -79.569 0.989 4.135 0.989 4.135 0.073 -79.569
9559.125 0.071 -79.526 0.99 4.056 0.99 4.056 0.071 -79.526
9584.083 0.07 -79.478 0.99 3.977 0.99 3.977 0.07 -79.478
9609.042 0.068 -79.426 0.99 3.899 0.99 3.899 0.068 -79.426
9634 0.067 -79.368 0.99 3.821 0.99 3.821 0.067 -79.368
9658.958 0.066 -79.305 0.99 3.742 0.99 3.742 0.066 -79.305
9683.917 0.064 -79.236 0.99 3.665 0.99 3.665 0.064 -79.236
9708.875 0.063 -79.161 0.99 3.587 0.99 3.587 0.063 -79.161
9733.833 0.062 -79.08 0.99 3.509 0.99 3.509 0.062 -79.08
9758.792 0.06 -78.992 0.99 3.432 0.99 3.432 0.06 -78.992
9783.75 0.059 -78.897 0.99 3.355 0.99 3.355 0.059 -78.897
9808.708 0.058 -78.794 0.99 3.278 0.99 3.278 0.058 -78.794
9833.667 0.056 -78.683 0.99 3.202 0.99 3.202 0.056 -78.683
9858.625 0.055 -78.563 0.991 3.125 0.991 3.125 0.055 -78.563
9883.583 0.054 -78.434 0.991 3.049 0.991 3.049 0.054 -78.434
9908.542 0.052 -78.296 0.991 2.973 0.991 2.973 0.052 -78.296
9933.5 0.051 -78.146 0.991 2.897 0.991 2.897 0.051 -78.146
9958.458 0.05 -77.985 0.991 2.822 0.991 2.822 0.05 -77.985
9983.417 0.049 -77.812 0.991 2.746 0.991 2.746 0.049 -77.812
10008.375 0.047 -77.626 0.991 2.671 0.991 2.671 0.047 -77.626
10033.333 0.046 -77.426 0.991 2.596 0.991 2.596 0.046 -77.426
10058.292 0.045 -77.21 0.991 2.521 0.991 2.521 0.045 -77.21
10083.25 0.043 -76.978 0.991 2.446 0.991 2.446 0.043 -76.978
10108.208 0.042 -76.728 0.991 2.372 0.991 2.372 0.042 -76.728
10133.167 0.041 -76.459 0.991 2.298 0.991 2.298 0.041 -76.459
10158.125 0.04 -76.168 0.991 2.224 0.991 2.224 0.04 -76.168
10183.083 0.038 -75.854 0.991 2.15 0.991 2.15 0.038 -75.854
10208.042 0.037 -75.514 0.991 2.076 0.991 2.076 0.037 -75.514
10233 0.036 -75.146 0.991 2.002 0.991 2.002 0.036 -75.146
10257.958 0.035 -74.748 0.991 1.929 0.991 1.929 0.035 -74.748
10282.917 0.033 -74.315 0.992 1.856 0.992 1.856 0.033 -74.315
10307.875 0.032 -73.845 0.992 1.783 0.992 1.783 0.032 -73.845
10332.833 0.031 -73.333 0.992 1.71 0.992 1.71 0.031 -73.333
10357.792 0.03 -72.773 0.992 1.638 0.992 1.638 0.03 -72.773
10382.75 0.028 -72.161 0.992 1.565 0.992 1.565 0.028 -72.161
10407.708 0.027 -71.49 0.992 1.493 0.992 1.493 0.027 -71.49
10432.667 0.026 -70.752 0.992 1.421 0.992 1.421 0.026 -70.752
10457.625 0.025 -69.938 0.992 1.349 0.992 1.349 0.025 -69.938
10482.583 0.024 -69.037 0.992 1.277 0.992 1.277 0.024 -69.037
10507.542 0.023 -68.038 0.992 1.206 0.992 1.206 0.023 -68.038
10532.5 0.021 -66.923 0.992 1.134 0.992 1.134 0.021 -66.923
10557.458 0.02 -65.676 0.992 1.063 0.992 1.063 0.02 -65.676
10582.417 0.019 -64.275 0.992 0.992 0.992 0.992 0.019 -64.275
10607.375 0.018 -62.694 0.992 0.921 0.992 0.921 0.018 -62.694
10632.333 0.017 -60.899 0.992 0.85 0.992 0.85 0.017 -60.899
10657.292 0.016 -58.853 0.992 0.78 0.992 0.78 0.016 -58.853
10682.25 0.015 -56.508 0.992 0.71 0.992 0.71 0.015 -56.508
10707.208 0.014 -53.805 0.992 0.639 0.992 0.639 0.014 -53.805
10732.167 0.013 -50.678 0.992 0.569 0.992 0.569 0.013 -50.678
10757.125 0.012 -47.043 0.992 0.499 0.992 0.499 0.012 -47.043
10782.083 0.011 -42.811 0.992 0.43 0.992 0.43 0.011 -42.811
10807.042 0.01 -37.886 0.992 0.36 0.992 0.36 0.01 -37.886
10832 9.455e-3 -32.183 0.992 0.291 0.992 0.291 9.455e-3 -32.183
10856.958 8.865e-3 -25.649 0.992 0.222 0.992 0.222 8.865e-3 -25.649
10881.917 8.409e-3 -18.308 0.992 0.153 0.992 0.153 8.409e-3 -18.308
10906.875 8.109e-3 -10.29 0.992 0.084 0.992 0.084 8.109e-3 -10.29
10931.833 7.981e-3 -1.855 0.992 0.015 0.992 0.015 7.981e-3 -1.855
10956.792 8.031e-3 6.644 0.992 -0.054 0.992 -0.054 8.031e-3 6.644
10981.75 8.256e-3 14.837 0.992 -0.122 0.992 -0.122 8.256e-3 14.837
11006.708 8.641e-3 22.425 0.992 -0.19 0.992 -0.19 8.641e-3 22.425
11031.667 9.164e-3 29.236 0.992 -0.259 0.992 -0.259 9.164e-3 29.236
11056.625 9.802e-3 35.214 0.992 -0.326 0.992 -0.326 9.802e-3 35.214
11081.583 0.011 40.392 0.992 -0.394 0.992 -0.394 0.011 40.392
11106.542 0.011 44.847 0.992 -0.462 0.992 -0.462 0.011 44.847
11131.5 0.012 48.672 0.992 -0.529 0.992 -0.529 0.012 48.672
11156.458 0.013 51.962 0.992 -0.597 0.992 -0.597 0.013 51.962
11181.417 0.014 54.801 0.992 -0.664 0.992 -0.664 0.014 54.801
11206.375 0.015 57.261 0.992 -0.731 0.992 -0.731 0.015 57.261
11231.333 0.016 59.405 0.992 -0.798 0.992 -0.798 0.016 59.405
11256.292 0.017 61.283 0.992 -0.865 0.992 -0.865 0.017 61.283
11281.25 0.018 62.936 0.992 -0.931 0.992 -0.931 0.018 62.936
11306.208 0.019 64.398 0.992 -0.998 0.992 -0.998 0.019 64.398
11331.167 0.02 65.698 0.992 -1.064 0.992 -1.064 0.02 65.698
11356.125 0.021 66.86 0.992 -1.13 0.992 -1.13 0.021 66.86
11381.083 0.022 67.902 0.992 -1.197 0.992 -1.197 0.022 67.902
11406.042 0.023 68.839 0.992 -1.262 0.992 -1.262 0.023 68.839
11431 0.025 69.687 0.992 -1.328 0.992 -1.328 0.025 69.687
11455.958 0.026 70.456 0.992 -1.394 0.992 -1.394 0.026 70.456
11480.917 0.027 71.155 0.992 -1.459 0.992 -1.459 0.027 71.155
11505.875 0.028 71.793 0.992 -1.525 0.992 -1.525 0.028 71.793
11530.833 0.029 72.376 0.992 -1.59 0.992 -1.59 0.029 72.376
11555.792 0.03 72.911 0.992 -1.655 0.992 -1.655 0.03 72.911
11580.75 0.031 73.403 0.992 -1.72 0.992 -1.72 0.031 73.403
11605.708 0.032 73.856 0.992 -1.785 0.992 -1.785 0.032 73.856
11630.667 0.033 74.274 0.992 -1.849 0.992 -1.849 0.033 74.274
11655.625 0.034 74.661 0.991 -1.914 0.991 -1.914 0.034 74.661
11680.583 0.035 75.018 0.991 -1.978 0.991 -1.978 0.035 75.018
11705.542 0.037 75.35 0.991 -2.042 0.991 -2.042 0.037 75.35
11730.5 0.038 75.659 0.991 -2.107 0.991 -2.107 0.038 75.659
11755.458 0.039 75.945 0.991 -2.171 0.991 -2.171 0.039 75.945
11780.417 0.04 76.212 0.991 -2.234 0.991 -2.234 0.04 76.212
11805.375 0.041 76.461 0.991 -2.298 0.991 -2.298 0.041 76.461
11830.333 0.042 76.693 0.991 -2.362 0.991 -2.362 0.042 76.693
11855.292 0.043 76.909 0.991 -2.425 0.991 -2.425 0.043 76.909
11880.25 0.044 77.112 0.991 -2.489 0.991 -2.489 0.044 77.112
11905.208 0.045 77.301 0.991 -2.552 0.991 -2.552 0.045 77.301
11930.167 0.046 77.478 0.991 -2.615 0.991 -2.615 0.046 77.478
11955.125 0.047 77.644 0.991 -2.678 0.991 -2.678 0.047 77.644
11980.083 0.048 77.8 0.991 -2.741 0.991 -2.741 0.048 77.8
12005.042 0.05 77.945 0.991 -2.803 0.991 -2.803 0.05 77.945
12030 0.051 78.081 0.991 -2.866 0.991 -2.866 0.051 78.081
12054.958 0.052 78.209 0.991 -2.929 0.991 -2.929 0.052 78.209
12079.917 0.053 78.329 0.991 -2.991 0.991 -2.991 0.053 78.329
12104.875 0.054 78.441 0.991 -3.053 0.991 -3.053 0.054 78.441
12129.833 0.055 78.547 0.991 -3.115 0.991 -3.115 0.055 78.547
12154.792 0.056 78.646 0.99 -3.177 0.99 -3.177 0.056 78.646
12179.75 0.057 78.738 0.99 -3.239 0.99 -3.239 0.057 78.738
12204.708 0.058 78.825 0.99 -3.301 0.99 -3.301 0.058 78.825
12229.667 0.059 78.906 0.99 -3.362 0.99 -3.362 0.059 78.906
12254.625 0.06 78.982 0.99 -3.424 0.99 -3.424 0.06 78.982
12279.583 0.061 79.053 0.99 -3.485 0.99 -3.485 0.061 79.053
12304.542 0.062 79.12 0.99 -3.546 0.99 -3.546 0.062 79.12
12329.5 0.063 79.182 0.99 -3.608 0.99 -3.608 0.063 79.182
12354.458 0.064 79.24 0.99 -3.669 0.99 -3.669 0.064 79.24
12379.417 0.066 79.294 0.99 -3.73 0.99 -3.73 0.066 79.294
12404.375 0.067 79.344 0.99 -3.79 0.99 -3.79 0.067 79.344
12429.333 0.068 79.391 0.99 -3.851 0.99 -3.851 0.068 79.391
12454.292 0.069 79.435 0.99 -3.912 0.99 -3.912 0.069 79.435
12479.25 0.07 79.475 0.99 -3.972 0.99 -3.972 0.07 79.475
12504.208 0.071 79.512 0.99 -4.032 0.99 -4.032 0.071 79.512
12529.167 0.072 79.546 0.989 -4.093 0.989 -4.093 0.072 79.546
12554.125 0.073 79.578 0.989 -4.153 0.989 -4.153 0.073 79.578
12579.083 0.074 79.607 0.989 -4.213 0.989 -4.213 0.074 79.607
12604.042 0.075 79.633 0.989 -4.272 0.989 -4.272 0.075 79.633
12629 0.076 79.657 0.989 -4.332 0.989 -4.332 0.076 79.657
12653.958 0.077 79.679 0.989 -4.392 0.989 -4.392 0.077 79.679
12678.917 0.078 79.698 0.989 -4.451 0.989 -4.451 0.078 79.698
12703.875 0.079 79.716 0.989 -4.511 0.989 -4.511 0.079 79.716
12728.833 0.08 79.731 0.989 -4.57 0.989 -4.57 0.08 79.731
12753.792 0.081 79.745 0.989 -4.629 0.989 -4.629 0.081 79.745
12778.75 0.082 79.757 0.989 -4.689 0.989 -4.689 0.082 79.757
12803.708 0.083 79.766 0.989 -4.748 0.989 -4.748 0.083 79.766
12828.667 0.084 79.775 0.989 -4.806 0.989 -4.806 0.084 79.775
12853.625 0.085 79.781 0.988 -4.865 0.988 -4.865 0.085 79.781
12878.583 0.086 79.786 0.988 -4.924 0.988 -4.924 0.086 79.786
12903.542 0.087 79.79 0.988 -4.982 0.988 -4.982 0.087 79.79
12928.5 0.088 79.792 0.988 -5.041 0.988 -5.041 0.088 79.792
12953.458 0.089 79.793 0.988 -5.099 0.988 -5.099 0.089 79.793
12978.417 0.09 79.792 0.988 -5.158 0.988 -5.158 0.09 79.792
13003.375 0.091 79.79 0.988 -5.216 0.988 -5.216 0.091 79.79
13028.333 0.092 79.787 0.988 -5.274 0.988 -5.274 0.092 79.787
13053.292 0.093 79.783 0.988 -5.332 0.988 -5.332 0.093 79.783
13078.25 0.094 79.778 0.988 -5.39 0.988 -5.39 0.094 79.778
13103.208 0.095 79.771 0.988 -5.447 0.988 -5.447 0.095 79.771
13128.167 0.096 79.764 0.987 -5.505 0.987 -5.505 0.096 79.764
13153.125 0.097 79.755 0.987 -5.563 0.987 -5.563 0.097 79.755
13178.083 0.098 79.746 0.987 -5.62 0.987 -5.62 0.098 79.746
13203.042 0.099 79.735 0.987 -5.677 0.987 -5.677 0.099 79.735
13228 0.1 79.724 0.987 -5.735 0.987 -5.735 0.1 79.724
13252.958 0.101 79.712 0.987 -5.792 0.987 -5.792 0.101 79.712
13277.917 0.102 79.699 0.987 -5.849 0.987 -5.849 0.102 79.699
13302.875 0.103 79.685 0.987 -5.906 0.987 -5.906 0.103 79.685
13327.833 0.104 79.67 0.987 -5.963 0.987 -5.963 0.104 79.67
13352.792 0.105 79.655 0.987 -6.019 0.987 -6.019 0.105 79.655
13377.75 0.106 79.639 0.986 -6.076 0.986 -6.076 0.106 79.639
13402.708 0.107 79.622 0.986 -6.133 0.986 -6.133 0.107 79.622
13427.667 0.108 79.604 0.986 -6.189 0.986 -6.189 0.108 79.604
13452.625 0.109 79.586 0.986 -6.245 0.986 -6.245 0.109 79.586
13477.583 0.11 79.567 0.986 -6.302 0.986 -6.302 0.11 79.567
13502.542 0.111 79.547 0.986 -6.358 0.986 -6.358 0.111 79.547
13527.5 0.112 79.527 0.986 -6.414 0.986 -6.414 0.112 79.527
13552.458 0.113 79.507 0.986 -6.47 0.986 -6.47 0.113 79.507
13577.417 0.114 79.485 0.986 -6.526 0.986 -6.526 0.114 79.485
13602.375 0.115 79.464 0.985 -6.582 0.985 -6.582 0.115 79.464
13627.333 0.116 79.441 0.985 -6.637 0.985 -6.637 0.116 79.441
13652.292 0.117 79.418 0.985 -6.693 0.985 -6.693 0.117 79.418
13677.25 0.118 79.395 0.985 -6.749 0.985 -6.749 0.118 79.395
13702.208 0.119 79.371 0.985 -6.804 0.985 -6.804 0.119 79.371
13727.167 0.12 79.347 0.985 -6.859 0.985 -6.859 0.12 79.347
13752.125 0.121 79.322 0.985 -6.915 0.985 -6.915 0.121 79.322
13777.083 0.122 79.297 0.985 -6.97 0.985 -6.97 0.122 79.297
13802.042 0.123 79.272 0.985 -7.025 0.985 -7.025 0.123 79.272
13827 0.124 79.246 0.984 -7.08 0.984 -7.08 0.124 79.246
13851.958 0.124 79.219 0.984 -7.135 0.984 -7.135 0.124 79.219
13876.917 0.125 79.192 0.984 -7.19 0.984 -7.19 0.125 79.192
13901.875 0.126 79.165 0.984 -7.244 0.984 -7.244 0.126 79.165
13926.833 0.127 79.138 0.984 -7.299 0.984 -7.299 0.127 79.138
13951.792 0.128 79.11 0.984 -7.353 0.984 -7.353 0.128 79.11
13976.75 0.129 79.081 0.984 -7.408 0.984 -7.408 0.129 79.081
14001.708 0.13 79.053 0.984 -7.462 0.984 -7.462 0.13 79.053
14026.667 0.131 79.024 0.983 -7.517 0.983 -7.517 0.131 79.024
14051.625 0.132 78.995 0.983 -7.571 0.983 -7.571 0.132 78.995
14076.583 0.133 78.965 0.983 -7.625 0.983 -7.625 0.133 78.965
14101.542 0.134 78.936 0.983 -7.679 0.983 -7.679 0.134 78.936
14126.5 0.135 78.905 0.983 -7.733 0.983 -7.733 0.135 78.905
14151.458 0.136 78.875 0.983 -7.787 0.983 -7.787 0.136 78.875
14176.417 0.137 78.844 0.983 -7.84 0.983 -7.84 0.137 78.844
14201.375 0.138 78.814 0.983 -7.894 0.983 -7.894 0.138 78.814
14226.333 0.138 78.782 0.982 -7.948 0.982 -7.948 0.138 78.782
14251.292 0.139 78.751 0.982 -8.001 0.982 -8.001 0.139 78.751
14276.25 0.14 78.719 0.982 -8.055 0.982 -8.055 0.14 78.719
14301.208 0.141 78.687 0.982 -8.108 0.982 -8.108 0.141 78.687
14326.167 0.142 78.655 0.982 -8.161 0.982 -8.161 0.142 78.655
14351.125 0.143 78.623 0.982 -8.214 0.982 -8.214 0.143 78.623
14376.083 0.144 78.59 0.982 -8.268 0.982 -8.268 0.144 78.59
14401.042 0.145 78.558 0.982 -8.321 0.982 -8.321 0.145 78.558
14426 0.146 78.525 0.981 -8.373 0.981 -8.373 0.146 78.525
14450.958 0.147 78.492 0.981 -8.426 0.981 -8.426 0.147 78.492
14475.917 0.148 78.458 0.981 -8.479 0.981 -8.479 0.148 78.458
14500.875 0.149 78.425 0.981 -8.532 0.981 -8.532 0.149 78.425
14525.833 0.149 78.391 0.981 -8.584 0.981 -8.584 0.149 78.391
14550.792 0.15 78.357 0.981 -8.637 0.981 -8.637 0.15 78.357
14575.75 0.151 78.323 0.981 -8.689 0.981 -8.689 0.151 78.323
14600.708 0.152 78.289 0.98 -8.742 0.98 -8.742 0.152 78.289
14625.667 0.153 78.254 0.98 -8.794 0.98 -8.794 0.153 78.254
14650.625 0.154 78.22 0.98 -8.846 0.98 -8.846 0.154 78.22
14675.583 0.155 78.185 0.98 -8.898 0.98 -8.898 0.155 78.185
14700.542 0.156 78.15 0.98 -8.95 0.98 -8.95 0.156 78.15
14725.5 0.157 78.115 0.98 -9.002 0.98 -9.002 0.157 78.115
14750.458 0.158 78.08 0.98 -9.054 0.98 -9.054 0.158 78.08
14775.417 0.158 78.045 0.98 -9.106 0.98 -9.106 0.158 78.045
14800.375 0.159 78.009 0.979 -9.158 0.979 -9.158 0.159 78.009
14825.333 0.16 77.974 0.979 -9.21 0.979 -9.21 0.16 77.974
14850.292 0.161 77.938 0.979 -9.261 0.979 -9.261 0.161 77.938
14875.25 0.162 77.903 0.979 -9.313 0.979 -9.313 0.162 77.903
14900.208 0.163 77.867 0.979 -9.364 0.979 -9.364 0.163 77.867
14925.167 0.164 77.831 0.979 -9.416 0.979 -9.416 0.164 77.831
14950.125 0.165 77.794 0.979 -9.467 0.979 -9.467 0.165 77.794
14975.083 0.166 77.758 0.978 -9.518 0.978 -9.518 0.166 77.758
15000.042 0.166 77.722 0.978 -9.569 0.978 -9.569 0.166 77.722
15025 0.167 77.685 0.978 -9.62 0.978 -9.62 0.167 77.685
15049.958 0.168 77.649 0.978 -9.671 0.978 -9.671 0.168 77.649
15074.917 0.169 77.612 0.978 -9.722 0.978 -9.722 0.169 77.612
15099.875 0.17 77.576 0.978 -9.773 0.978 -9.773 0.17 77.576
15124.833 0.171 77.539 0.977 -9.824 0.977 -9.824 0.171 77.539
15149.792 0.172 77.502 0.977 -9.875 0.977 -9.875 0.172 77.502
15174.75 0.173 77.465 0.977 -9.925 0.977 -9.925 0.173 77.465
15199.708 0.173 77.428 0.977 -9.976 0.977 -9.976 0.173 77.428
15224.667 0.174 77.391 0.977 -10.026 0.977 -10.026 0.174 77.391
15249.625 0.175 77.353 0.977 -10.077 0.977 -10.077 0.175 77.353
15274.583 0.176 77.316 0.977 -10.127 0.977 -10.127 0.176 77.316
15299.542 0.177 77.279 0.976 -10.177 0.976 -10.177 0.177 77.279
15324.5 0.178 77.241 0.976 -10.227 0.976 -10.227 0.178 77.241
15349.458 0.179 77.204 0.976 -10.278 0.976 -10.278 0.179 77.204
15374.417 0.179 77.166 0.976 -10.328 0.976 -10.328 0.179 77.166
15399.375 0.18 77.128 0.976 -10.378 0.976 -10.378 0.18 77.128
15424.333 0.181 77.091 0.976 -10.428 0.976 -10.428 0.181 77.091
15449.292 0.182 77.053 0.975 -10.477 0.975 -10.477 0.182 77.053
15474.25 0.183 77.015 0.975 -10.527 0.975 -10.527 0.183 77.015
15499.208 0.184 76.977 0.975 -10.577 0.975 -10.577 0.184 76.977
15524.167 0.185 76.939 0.975 -10.627 0.975 -10.627 0.185 76.939
15549.125 0.185 76.901 0.975 -10.676 0.975 -10.676 0.185 76.901
15574.083 0.186 76.863 0.975 -10.726 0.975 -10.726 0.186 76.863
15599.042 0.187 76.825 0.975 -10.775 0.975 -10.775 0.187 76.825
15624 0.188 76.787 0.974 -10.824 0.974 -10.824 0.188 76.787
15648.958 0.189 76.749 0.974 -10.874 0.974 -10.874 0.189 76.749
15673.917 0.19 76.71 0.974 -10.923 0.974 -10.923 0.19 76.71
15698.875 0.19 76.672 0.974 -10.972 0.974 -10.972 0.19 76.672
15723.833 0.191 76.634 0.974 -11.021 0.974 -11.021 0.191 76.634
15748.792 0.192 76.595 0.974 -11.07 0.974 -11.07 0.192 76.595
15773.75 0.193 76.557 0.973 -11.119 0.973 -11.119 0.193 76.557
15798.708 0.194 76.518 0.973 -11.168 0.973 -11.168 0.194 76.518
15823.667 0.195 76.48 0.973 -11.217 0.973 -11.217 0.195 76.48
15848.625 0.196 76.441 0.973 -11.266 0.973 -11.266 0.196 76.441
15873.583 0.196 76.403 0.973 -11.314 0.973 -11.314 0.196 76.403
15898.542 0.197 76.364 0.973 -11.363 0.973 -11.363 0.197 76.364
15923.5 0.198 76.325 0.972 -11.411 0.972 -11.411 0.198 76.325
15948.458 0.199 76.287 0.972 -11.46 0.972 -11.46 0.199 76.287
15973.417 0.2 76.248 0.972 -11.508 0.972 -11.508 0.2 76.248
15998.375 0.2 76.209 0.972 -11.557 0.972 -11.557 0.2 76.209
16023.333 0.201 76.171 0.972 -11.605 0.972 -11.605 0.201 76.171
16048.292 0.202 76.132 0.972 -11.653 0.972 -11.653 0.202 76.132
16073.25 0.203 76.093 0.971 -11.701 0.971 -11.701 0.203 76.093
16098.208 0.204 76.054 0.971 -11.75 0.971 -11.75 0.204 76.054
16123.167 0.205 76.015 0.971 -11.798 0.971 -11.798 0.205 76.015
16148.125 0.205 75.976 0.971 -11.846 0.971 -11.846 0.205 75.976
16173.083 0.206 75.938 0.971 -11.894 0.971 -11.894 0.206 75.938
16198.042 0.207 75.899 0.971 -11.941 0.971 -11.941 0.207 75.899
16223 0.208 75.86 0.97 -11.989 0.97 -11.989 0.208 75.86
16247.958 0.209 75.821 0.97 -12.037 0.97 -12.037 0.209 75.821
16272.917 0.21 75.782 0.97 -12.085 0.97 -12.085 0.21 75.782
16297.875 0.21 75.743 0.97 -12.132 0.97 -12.132 0.21 75.743
16322.833 0.211 75.704 0.97 -12.18 0.97 -12.18 0.211 75.704
16347.792 0.212 75.665 0.97 -12.227 0.97 -12.227 0.212 75.665
16372.75 0.213 75.626 0.969 -12.275 0.969 -12.275 0.213 75.626
16397.708 0.214 75.587 0.969 -12.322 0.969 -12.322 0.214 75.587
16422.667 0.214 75.548 0.969 -12.369 0.969 -12.369 0.214 75.548
16447.625 0.215 75.509 0.969 -12.417 0.969 -12.417 0.215 75.509
16472.583 0.216 75.47 0.969 -12.464 0.969 -12.464 0.216 75.47
16497.542 0.217 75.43 0.968 -12.511 0.968 -12.511 0.217 75.43
16522.5 0.218 75.391 0.968 -12.558 0.968 -12.558 0.218 75.391
16547.458 0.218 75.352 0.968 -12.605 0.968 -12.605 0.218 75.352
16572.417 0.219 75.313 0.968 -12.652 0.968 -12.652 0.219 75.313
16597.375 0.22 75.274 0.968 -12.699 0.968 -12.699 0.22 75.274
16622.333 0.221 75.235 0.968 -12.745 0.968 -12.745 0.221 75.235
16647.292 0.222 75.196 0.967 -12.792 0.967 -12.792 0.222 75.196
16672.25 0.222 75.157 0.967 -12.839 0.967 -12.839 0.222 75.157
16697.208 0.223 75.118 0.967 -12.886 0.967 -12.886 0.223 75.118
16722.167 0.224 75.078 0.967 -12.932 0.967 -12.932 0.224 75.078
16747.125 0.225 75.039 0.967 -12.979 0.967 -12.979 0.225 75.039
16772.083 0.226 75 0.967 -13.025 0.967 -13.025 0.226 75
16797.042 0.226 74.961 0.966 -13.071 0.966 -13.071 0.226 74.961
16822 0.227 74.922 0.966 -13.118 0.966 -13.118 0.227 74.922
16846.958 0.228 74.883 0.966 -13.164 0.966 -13.164 0.228 74.883
16871.917 0.229 74.844 0.966 -13.21 0.966 -13.21 0.229 74.844
16896.875 0.229 74.804 0.966 -13.256 0.966 -13.256 0.229 74.804
16921.833 0.23 74.765 0.965 -13.303 0.965 -13.303 0.23 74.765
16946.792 0.231 74.726 0.965 -13.349 0.965 -13.349 0.231 74.726
16971.75 0.232 74.687 0.965 -13.395 0.965 -13.395 0.232 74.687
16996.708 0.233 74.648 0.965 -13.441 0.965 -13.441 0.233 74.648
17021.667 0.233 74.609 0.965 -13.486 0.965 -13.486 0.233 74.609
17046.625 0.234 74.57 0.964 -13.532 0.964 -13.532 0.234 74.57
17071.583 0.235 74.53 0.964 -13.578 0.964 -13.578 0.235 74.53
17096.542 0.236 74.491 0.964 -13.624 0.964 -13.624 0.236 74.491
17121.5 0.236 74.452 0.964 -13.669 0.964 -13.669 0.236 74.452
17146.458 0.237 74.413 0.964 -13.715 0.964 -13.715 0.237 74.413
17171.417 0.238 74.374 0.964 -13.76 0.964 -13.76 0.238 74.374
17196.375 0.239 74.335 0.963 -13.806 0.963 -13.806 0.239 74.335
17221.333 0.24 74.296 0.963 -13.851 0.963 -13.851 0.24 74.296
17246.292 0.24 74.257 0.963 -13.897 0.963 -13.897 0.24 74.257
17271.25 0.241 74.218 0.963 -13.942 0.963 -13.942 0.241 74.218
17296.208 0.242 74.179 0.963 -13.987 0.963 -13.987 0.242 74.179
17321.167 0.243 74.14 0.962 -14.033 0.962 -14.033 0.243 74.14
17346.125 0.243 74.1 0.962 -14.078 0.962 -14.078 0.243 74.1
17371.083 0.244 74.061 0.962 -14.123 0.962 -14.123 0.244 74.061
17396.042 0.245 74.022 0.962 -14.168 0.962 -14.168 0.245 74.022
17421 0.246 73.983 0.962 -14.213 0.962 -14.213 0.246 73.983
17445.958 0.246 73.944 0.961 -14.258 0.961 -14.258 0.246 73.944
17470.917 0.247 73.905 0.961 -14.303 0.961 -14.303 0.247 73.905
17495.875 0.248 73.866 0.961 -14.347 0.961 -14.347 0.248 73.866
17520.833 0.249 73.827 0.961 -14.392 0.961 -14.392 0.249 73.827
17545.792 0.249 73.788 0.961 -14.437 0.961 -14.437 0.249 73.788
17570.75 0.25 73.749 0.961 -14.482 0.961 -14.482 0.25 73.749
17595.708 0.251 73.711 0.96 -14.526 0.96 -14.526 0.251 73.711
17620.667 0.252 73.672 0.96 -14.571 0.96 -14.571 0.252 73.672
17645.625 0.252 73.633 0.96 -14.615 0.96 -14.615 0.252 73.633
17670.583 0.253 73.594 0.96 -14.66 0.96 -14.66 0.253 73.594
17695.542 0.254 73.555 0.96 -14.704 0.96 -14.704 0.254 73.555
17720.5 0.255 73.516 0.959 -14.748 0.959 -14.748 0.255 73.516
17745.458 0.255 73.477 0.959 -14.793 0.959 -14.793 0.255 73.477
17770.417 0.256 73.438 0.959 -14.837 0.959 -14.837 0.256 73.438
17795.375 0.257 73.399 0.959 -14.881 0.959 -14.881 0.257 73.399
17820.333 0.258 73.361 0.959 -14.925 0.959 -14.925 0.258 73.361
17845.292 0.258 73.322 0.958 -14.969 0.958 -14.969 0.258 73.322
17870.25 0.259 73.283 0.958 -15.013 0.958 -15.013 0.259 73.283
17895.208 0.26 73.244 0.958 -15.057 0.958 -15.057 0.26 73.244
17920.167 0.261 73.206 0.958 -15.101 0.958 -15.101 0.261 73.206
17945.125 0.261 73.167 0.958 -15.145 0.958 -15.145 0.261 73.167
17970.083 0.262 73.128 0.957 -15.189 0.957 -15.189 0.262 73.128
17995.042 0.263 73.089 0.957 -15.233 0.957 -15.233 0.263 73.089
18020 0.264 73.051 0.957 -15.277 0.957 -15.277 0.264 73.051
18044.958 0.264 73.012 0.957 -15.32 0.957 -15.32 0.264 73.012
18069.917 0.265 72.973 0.957 -15.364 0.957 -15.364 0.265 72.973
18094.875 0.266 72.935 0.956 -15.407 0.956 -15.407 0.266 72.935
18119.833 0.267 72.896 0.956 -15.451 0.956 -15.451 0.267 72.896
18144.792 0.267 72.858 0.956 -15.494 0.956 -15.494 0.267 72.858
18169.75 0.268 72.819 0.956 -15.538 0.956 -15.538 0.268 72.819
18194.708 0.269 72.78 0.956 -15.581 0.956 -15.581 0.269 72.78
18219.667 0.269 72.742 0.955 -15.624 0.955 -15.624 0.269 72.742
18244.625 0.27 72.703 0.955 -15.668 0.955 -15.668 0.27 72.703
18269.583 0.271 72.665 0.955 -15.711 0.955 -15.711 0.271 72.665
18294.542 0.272 72.626 0.955 -15.754 0.955 -15.754 0.272 72.626
18319.5 0.272 72.588 0.955 -15.797 0.955 -15.797 0.272 72.588
18344.458 0.273 72.549 0.954 -15.84 0.954 -15.84 0.273 72.549
18369.417 0.274 72.511 0.954 -15.883 0.954 -15.883 0.274 72.511
18394.375 0.275 72.473 0.954 -15.926 0.954 -15.926 0.275 72.473
18419.333 0.275 72.434 0.954 -15.969 0.954 -15.969 0.275 72.434
18444.292 0.276 72.396 0.954 -16.012 0.954 -16.012 0.276 72.396
18469.25 0.277 72.357 0.953 -16.055 0.953 -16.055 0.277 72.357
18494.208 0.277 72.319 0.953 -16.098 0.953 -16.098 0.277 72.319
18519.167 0.278 72.281 0.953 -16.14 0.953 -16.14 0.278 72.281
18544.125 0.279 72.242 0.953 -16.183 0.953 -16.183 0.279 72.242
18569.083 0.28 72.204 0.953 -16.226 0.953 -16.226 0.28 72.204
18594.042 0.28 72.166 0.952 -16.268 0.952 -16.268 0.28 72.166
18619 0.281 72.128 0.952 -16.311 0.952 -16.311 0.281 72.128
18643.958 0.282 72.089 0.952 -16.353 0.952 -16.353 0.282 72.089
18668.917 0.282 72.051 0.952 -16.396 0.952 -16.396 0.282 72.051
18693.875 0.283 72.013 0.951 -16.438 0.951 -16.438 0.283 72.013
18718.833 0.284 71.975 0.951 -16.481 0.951 -16.481 0.284 71.975
18743.792 0.285 71.937 0.951 -16.523 0.951 -16.523 0.285 71.937
18768.75 0.285 71.899 0.951 -16.565 0.951 -16.565 0.285 71.899
18793.708 0.286 71.861 0.951 -16.607 0.951 -16.607 0.286 71.861
18818.667 0.287 71.823 0.95 -16.65 0.95 -16.65 0.287 71.823
18843.625 0.287 71.785 0.95 -16.692 0.95 -16.692 0.287 71.785
18868.583 0.288 71.747 0.95 -16.734 0.95 -16.734 0.288 71.747
18893.542 0.289 71.709 0.95 -16.776 0.95 -16.776 0.289 71.709
18918.5 0.289 71.671 0.95 -16.818 0.95 -16.818 0.289 71.671
18943.458 0.29 71.633 0.949 -16.86 0.949 -16.86 0.29 71.633
18968.417 0.291 71.595 0.949 -16.902 0.949 -16.902 0.291 71.595
18993.375 0.292 71.557 0.949 -16.943 0.949 -16.943 0.292 71.557
19018.333 0.292 71.519 0.949 -16.985 0.949 -16.985 0.292 71.519
19043.292 0.293 71.481 0.949 -17.027 0.949 -17.027 0.293 71.481
19068.25 0.294 71.443 0.948 -17.069 0.948 -17.069 0.294 71.443
19093.208 0.294 71.405 0.948 -17.11 0.948 -17.11 0.294 71.405
19118.167 0.295 71.368 0.948 -17.152 0.948 -17.152 0.295 71.368
19143.125 0.296 71.33 0.948 -17.193 0.948 -17.193 0.296 71.33
19168.083 0.296 71.292 0.947 -17.235 0.947 -17.235 0.296 71.292
19193.042 0.297 71.254 0.947 -17.276 0.947 -17.276 0.297 71.254
19218 0.298 71.217 0.947 -17.318 0.947 -17.318 0.298 71.217
19242.958 0.298 71.179 0.947 -17.359 0.947 -17.359 0.298 71.179
19267.917 0.299 71.141 0.947 -17.401 0.947 -17.401 0.299 71.141
19292.875 0.3 71.104 0.946 -17.442 0.946 -17.442 0.3 71.104
19317.833 0.301 71.066 0.946 -17.483 0.946 -17.483 0.301 71.066
19342.792 0.301 71.029 0.946 -17.524 0.946 -17.524 0.301 71.029
19367.75 0.302 70.991 0.946 -17.566 0.946 -17.566 0.302 70.991
19392.708 0.303 70.954 0.946 -17.607 0.946 -17.607 0.303 70.954
19417.667 0.303 70.916 0.945 -17.648 0.945 -17.648 0.303 70.916
19442.625 0.304 70.879 0.945 -17.689 0.945 -17.689 0.304 70.879
19467.583 0.305 70.841 0.945 -17.73 0.945 -17.73 0.305 70.841
19492.542 0.305 70.804 0.945 -17.771 0.945 -17.771 0.305 70.804
19517.5 0.306 70.766 0.944 -17.812 0.944 -17.812 0.306 70.766
19542.458 0.307 70.729 0.944 -17.852 0.944 -17.852 0.307 70.729
19567.417 0.307 70.692 0.944 -17.893 0.944 -17.893 0.307 70.692
19592.375 0.308 70.654 0.944 -17.934 0.944 -17.934 0.308 70.654
19617.333 0.309 70.617 0.944 -17.975 0.944 -17.975 0.309 70.617
19642.292 0.309 70.58 0.943 -18.015 0.943 -18.015 0.309 70.58
19667.25 0.31 70.542 0.943 -18.056 0.943 -18.056 0.31 70.542
19692.208 0.311 70.505 0.943 -18.097 0.943 -18.097 0.311 70.505
19717.167 0.311 70.468 0.943 -18.137 0.943 -18.137 0.311 70.468
19742.125 0.312 70.431 0.943 -18.178 0.943 -18.178 0.312 70.431
19767.083 0.313 70.394 0.942 -18.218 0.942 -18.218 0.313 70.394
19792.042 0.313 70.356 0.942 -18.259 0.942 -18.259 0.313 70.356
19817 0.314 70.319 0.942 -18.299 0.942 -18.299 0.314 70.319
19841.958 0.315 70.282 0.942 -18.339 0.942 -18.339 0.315 70.282
19866.917 0.315 70.245 0.941 -18.38 0.941 -18.38 0.315 70.245
19891.875 0.316 70.208 0.941 -18.42 0.941 -18.42 0.316 70.208
19916.833 0.317 70.171 0.941 -18.46 0.941 -18.46 0.317 70.171
19941.792 0.317 70.134 0.941 -18.5 0.941 -18.5 0.317 70.134
19966.75 0.318 70.097 0.941 -18.54 0.941 -18.54 0.318 70.097
19991.708 0.319 70.06 0.94 -18.58 0.94 -18.58 0.319 70.06
20016.667 0.319 70.023 0.94 -18.62 0.94 -18.62 0.319 70.023
20041.625 0.32 69.987 0.94 -18.66 0.94 -18.66 0.32 69.987
20066.583 0.321 69.95 0.94 -18.7 0.94 -18.7 0.321 69.95
20091.542 0.321 69.913 0.939 -18.74 0.939 -18.74 0.321 69.913
20116.5 0.322 69.876 0.939 -18.78 0.939 -18.78 0.322 69.876
20141.458 0.323 69.839 0.939 -18.82 0.939 -18.82 0.323 69.839
20166.417 0.323 69.803 0.939 -18.86 0.939 -18.86 0.323 69.803
20191.375 0.324 69.766 0.939 -18.9 0.939 -18.9 0.324 69.766
20216.333 0.325 69.729 0.938 -18.939 0.938 -18.939 0.325 69.729
20241.292 0.325 69.692 0.938 -18.979 0.938 -18.979 0.325 69.692
20266.25 0.326 69.656 0.938 -19.019 0.938 -19.019 0.326 69.656
20291.208 0.327 69.619 0.938 -19.058 0.938 -19.058 0.327 69.619
20316.167 0.327 69.583 0.937 -19.098 0.937 -19.098 0.327 69.583
20341.125 0.328 69.546 0.937 -19.137 0.937 -19.137 0.328 69.546
20366.083 0.329 69.51 0.937 -19.177 0.937 -19.177 0.329 69.51
20391.042 0.329 69.473 0.937 -19.216 0.937 -19.216 0.329 69.473
20416 0.33 69.437 0.937 -19.255 0.937 -19.255 0.33 69.437
20440.958 0.331 69.4 0.936 -19.295 0.936 -19.295 0.331 69.4
20465.917 0.331 69.364 0.936 -19.334 0.936 -19.334 0.331 69.364
20490.875 0.332 69.327 0.936 -19.373 0.936 -19.373 0.332 69.327
20515.833 0.332 69.291 0.936 -19.413 0.936 -19.413 0.332 69.291
20540.792 0.333 69.254 0.935 -19.452 0.935 -19.452 0.333 69.254
20565.75 0.334 69.218 0.935 -19.491 0.935 -19.491 0.334 69.218
20590.708 0.334 69.182 0.935 -19.53 0.935 -19.53 0.334 69.182
20615.667 0.335 69.146 0.935 -19.569 0.935 -19.569 0.335 69.146
20640.625 0.336 69.109 0.934 -19.608 0.934 -19.608 0.336 69.109
20665.583 0.336 69.073 0.934 -19.647 0.934 -19.647 0.336 69.073
20690.542 0.337 69.037 0.934 -19.686 0.934 -19.686 0.337 69.037
20715.5 0.338 69.001 0.934 -19.725 0.934 -19.725 0.338 69.001
20740.458 0.338 68.965 0.934 -19.764 0.934 -19.764 0.338 68.965
20765.417 0.339 68.928 0.933 -19.803 0.933 -19.803 0.339 68.928
20790.375 0.339 68.892 0.933 -19.841 0.933 -19.841 0.339 68.892
20815.333 0.34 68.856 0.933 -19.88 0.933 -19.88 0.34 68.856
20840.292 0.341 68.82 0.933 -19.919 0.933 -19.919 0.341 68.82
20865.25 0.341 68.784 0.932 -19.957 0.932 -19.957 0.341 68.784
20890.208 0.342 68.748 0.932 -19.996 0.932 -19.996 0.342 68.748
20915.167 0.343 68.712 0.932 -20.035 0.932 -20.035 0.343 68.712
20940.125 0.343 68.676 0.932 -20.073 0.932 -20.073 0.343 68.676
20965.083 0.344 68.64 0.932 -20.112 0.932 -20.112 0.344 68.64
20990.042 0.345 68.604 0.931 -20.15 0.931 -20.15 0.345 68.604
21015 0.345 68.569 0.931 -20.189 0.931 -20.189 0.345 68.569
21039.958 0.346 68.533 0.931 -20.227 0.931 -20.227 0.346 68.533
21064.917 0.346 68.497 0.931 -20.265 0.931 -20.265 0.346 68.497
21089.875 0.347 68.461 0.93 -20.304 0.93 -20.304 0.347 68.461
21114.833 0.348 68.425 0.93 -20.342 0.93 -20.342 0.348 68.425
21139.792 0.348 68.39 0.93 -20.38 0.93 -20.38 0.348 68.39
21164.75 0.349 68.354 0.93 -20.418 0.93 -20.418 0.349 68.354
21189.708 0.35 68.318 0.929 -20.457 0.929 -20.457 0.35 68.318
21214.667 0.35 68.283 0.929 -20.495 0.929 -20.495 0.35 68.283
21239.625 0.351 68.247 0.929 -20.533 0.929 -20.533 0.351 68.247
21264.583 0.351 68.211 0.929 -20.571 0.929 -20.571 0.351 68.211
21289.542 0.352 68.176 0.929 -20.609 0.929 -20.609 0.352 68.176
21314.5 0.353 68.14 0.928 -20.647 0.928 -20.647 0.353 68.14
21339.458 0.353 68.105 0.928 -20.685 0.928 -20.685 0.353 68.105
21364.417 0.354 68.069 0.928 -20.723 0.928 -20.723 0.354 68.069
21389.375 0.355 68.034 0.928 -20.761 0.928 -20.761 0.355 68.034
21414.333 0.355 67.998 0.927 -20.798 0.927 -20.798 0.355 67.998
21439.292 0.356 67.963 0.927 -20.836 0.927 -20.836 0.356 67.963
21464.25 0.356 67.928 0.927 -20.874 0.927 -20.874 0.356 67.928
21489.208 0.357 67.892 0.927 -20.912 0.927 -20.912 0.357 67.892
21514.167 0.358 67.857 0.926 -20.949 0.926 -20.949 0.358 67.857
21539.125 0.358 67.822 0.926 -20.987 0.926 -20.987 0.358 67.822
21564.083 0.359 67.786 0.926 -21.025 0.926 -21.025 0.359 67.786
21589.042 0.359 67.751 0.926 -21.062 0.926 -21.062 0.359 67.751
21614 0.36 67.716 0.926 -21.1 0.926 -21.1 0.36 67.716
21638.958 0.361 67.681 0.925 -21.137 0.925 -21.137 0.361 67.681
21663.917 0.361 67.646 0.925 -21.175 0.925 -21.175 0.361 67.646
21688.875 0.362 67.61 0.925 -21.212 0.925 -21.212 0.362 67.61
21713.833 0.363 67.575 0.925 -21.25 0.925 -21.25 0.363 67.575
21738.792 0.363 67.54 0.924 -21.287 0.924 -21.287 0.363 67.54
21763.75 0.364 67.505 0.924 -21.324 0.924 -21.324 0.364 67.505
21788.708 0.364 67.47 0.924 -21.362 0.924 -21.362 0.364 67.47
21813.667 0.365 67.435 0.924 -21.399 0.924 -21.399 0.365 67.435
21838.625 0.366 67.4 0.923 -21.436 0.923 -21.436 0.366 67.4
21863.583 0.366 67.365 0.923 -21.473 0.923 -21.473 0.366 67.365
21888.542 0.367 67.33 0.923 -21.51 0.923 -21.51 0.367 67.33
21913.5 0.367 67.295 0.923 -21.547 0.923 -21.547 0.367 67.295
21938.458 0.368 67.26 0.922 -21.584 0.922 -21.584 0.368 67.26
21963.417 0.369 67.226 0.922 -21.621 0.922 -21.621 0.369 67.226
21988.375 0.369 67.191 0.922 -21.658 0.922 -21.658 0.369 67.191
22013.333 0.37 67.156 0.922 -21.695 0.922 -21.695 0.37 67.156
22038.292 0.37 67.121 0.922 -21.732 0.922 -21.732 0.37 67.121
22063.25 0.371 67.086 0.921 -21.769 0.921 -21.769 0.371 67.086
22088.208 0.372 67.052 0.921 -21.806 0.921 -21.806 0.372 67.052
22113.167 0.372 67.017 0.921 -21.843 0.921 -21.843 0.372 67.017
22138.125 0.373 66.982 0.921 -21.88 0.921 -21.88 0.373 66.982
22163.083 0.373 66.948 0.92 -21.916 0.92 -21.916 0.373 66.948
22188.042 0.374 66.913 0.92 -21.953 0.92 -21.953 0.374 66.913
22213 0.375 66.879 0.92 -21.99 0.92 -21.99 0.375 66.879
22237.958 0.375 66.844 0.92 -22.026 0.92 -22.026 0.375 66.844
22262.917 0.376 66.809 0.919 -22.063 0.919 -22.063 0.376 66.809
22287.875 0.376 66.775 0.919 -22.1 0.919 -22.1 0.376 66.775
22312.833 0.377 66.74 0.919 -22.136 0.919 -22.136 0.377 66.74
22337.792 0.377 66.706 0.919 -22.173 0.919 -22.173 0.377 66.706
22362.75 0.378 66.672 0.918 -22.209 0.918 -22.209 0.378 66.672
22387.708 0.379 66.637 0.918 -22.246 0.918 -22.246 0.379 66.637
22412.667 0.379 66.603 0.918 -22.282 0.918 -22.282 0.379 66.603
22437.625 0.38 66.568 0.918 -22.318 0.918 -22.318 0.38 66.568
22462.583 0.38 66.534 0.917 -22.355 0.917 -22.355 0.38 66.534
22487.542 0.381 66.5 0.917 -22.391 0.917 -22.391 0.381 66.5
22512.5 0.382 66.466 0.917 -22.427 0.917 -22.427 0.382 66.466
22537.458 0.382 66.431 0.917 -22.463 0.917 -22.463 0.382 66.431
22562.417 0.383 66.397 0.917 -22.5 0.917 -22.5 0.383 66.397
22587.375 0.383 66.363 0.916 -22.536 0.916 -22.536 0.383 66.363
22612.333 0.384 66.329 0.916 -22.572 0.916 -22.572 0.384 66.329
22637.292 0.384 66.295 0.916 -22.608 0.916 -22.608 0.384 66.295
22662.25 0.385 66.261 0.916 -22.644 0.916 -22.644 0.385 66.261
22687.208 0.386 66.226 0.915 -22.68 0.915 -22.68 0.386 66.226
22712.167 0.386 66.192 0.915 -22.716 0.915 -22.716 0.386 66.192
22737.125 0.387 66.158 0.915 -22.752 0.915 -22.752 0.387 66.158
22762.083 0.387 66.124 0.915 -22.788 0.915 -22.788 0.387 66.124
22787.042 0.388 66.09 0.914 -22.824 0.914 -22.824 0.388 66.09
22812 0.389 66.056 0.914 -22.86 0.914 -22.86 0.389 66.056
22836.958 0.389 66.022 0.914 -22.895 0.914 -22.895 0.389 66.022
22861.917 0.39 65.989 0.914 -22.931 0.914 -22.931 0.39 65.989
22886.875 0.39 65.955 0.913 -22.967 0.913 -22.967 0.39 65.955
22911.833 0.391 65.921 0.913 -23.003 0.913 -23.003 0.391 65.921
22936.792 0.391 65.887 0.913 -23.038 0.913 -23.038 0.391 65.887
22961.75 0.392 65.853 0.913 -23.074 0.913 -23.074 0.392 65.853
22986.708 0.393 65.819 0.912 -23.11 0.912 -23.11 0.393 65.819
23011.667 0.393 65.786 0.912 -23.145 0.912 -23.145 0.393 65.786
23036.625 0.394 65.752 0.912 -23.181 0.912 -23.181 0.394 65.752
23061.583 0.394 65.718 0.912 -23.216 0.912 -23.216 0.394 65.718
23086.542 0.395 65.685 0.911 -23.252 0.911 -23.252 0.395 65.685
23111.5 0.395 65.651 0.911 -23.287 0.911 -23.287 0.395 65.651
23136.458 0.396 65.617 0.911 -23.323 0.911 -23.323 0.396 65.617
23161.417 0.397 65.584 0.911 -23.358 0.911 -23.358 0.397 65.584
23186.375 0.397 65.55 0.91 -23.393 0.91 -23.393 0.397 65.55
23211.333 0.398 65.517 0.91 -23.429 0.91 -23.429 0.398 65.517
23236.292 0.398 65.483 0.91 -23.464 0.91 -23.464 0.398 65.483
23261.25 0.399 65.45 0.91 -23.499 0.91 -23.499 0.399 65.45
23286.208 0.399 65.416 0.91 -23.535 0.91 -23.535 0.399 65.416
23311.167 0.4 65.383 0.909 -23.57 0.909 -23.57 0.4 65.383
23336.125 0.4 65.349 0.909 -23.605 0.909 -23.605 0.4 65.349
23361.083 0.401 65.316 0.909 -23.64 0.909 -23.64 0.401 65.316
23386.042 0.402 65.283 0.909 -23.675 0.909 -23.675 0.402 65.283
23411 0.402 65.249 0.908 -23.71 0.908 -23.71 0.402 65.249
23435.958 0.403 65.216 0.908 -23.745 0.908 -23.745 0.403 65.216
23460.917 0.403 65.183 0.908 -23.78 0.908 -23.78 0.403 65.183
23485.875 0.404 65.149 0.908 -23.815 0.908 -23.815 0.404 65.149
23510.833 0.404 65.116 0.907 -23.85 0.907 -23.85 0.404 65.116
23535.792 0.405 65.083 0.907 -23.885 0.907 -23.885 0.405 65.083
23560.75 0.406 65.05 0.907 -23.92 0.907 -23.92 0.406 65.05
23585.708 0.406 65.017 0.907 -23.955 0.907 -23.955 0.406 65.017
23610.667 0.407 64.984 0.906 -23.99 0.906 -23.99 0.407 64.984
23635.625 0.407 64.95 0.906 -24.024 0.906 -24.024 0.407 64.95
23660.583 0.408 64.917 0.906 -24.059 0.906 -24.059 0.408 64.917
23685.542 0.408 64.884 0.906 -24.094 0.906 -24.094 0.408 64.884
23710.5 0.409 64.851 0.905 -24.128 0.905 -24.128 0.409 64.851
23735.458 0.409 64.818 0.905 -24.163 0.905 -24.163 0.409 64.818
23760.417 0.41 64.785 0.905 -24.198 0.905 -24.198 0.41 64.785
23785.375 0.411 64.752 0.905 -24.232 0.905 -24.232 0.411 64.752
23810.333 0.411 64.719 0.904 -24.267 0.904 -24.267 0.411 64.719
23835.292 0.412 64.687 0.904 -24.301 0.904 -24.301 0.412 64.687
23860.25 0.412 64.654 0.904 -24.336 0.904 -24.336 0.412 64.654
23885.208 0.413 64.621 0.904 -24.37 0.904 -24.37 0.413 64.621
23910.167 0.413 64.588 0.903 -24.405 0.903 -24.405 0.413 64.588
23935.125 0.414 64.555 0.903 -24.439 0.903 -24.439 0.414 64.555
23960.083 0.414 64.523 0.903 -24.474 0.903 -24.474 0.414 64.523
23985.042 0.415 64.49 0.903 -24.508 0.903 -24.508 0.415 64.49
24010 0.415 64.457 0.902 -24.542 0.902 -24.542 0.415 64.457
24034.958 0.416 64.424 0.902 -24.576 0.902 -24.576 0.416 64.424
24059.917 0.417 64.392 0.902 -24.611 0.902 -24.611 0.417 64.392
24084.875 0.417 64.359 0.902 -24.645 0.902 -24.645 0.417 64.359
24109.833 0.418 64.326 0.901 -24.679 0.901 -24.679 0.418 64.326
24134.792 0.418 64.294 0.901 -24.713 0.901 -24.713 0.418 64.294
24159.75 0.419 64.261 0.901 -24.747 0.901 -24.747 0.419 64.261
24184.708 0.419 64.229 0.901 -24.781 0.901 -24.781 0.419 64.229
24209.667 0.42 64.196 0.9 -24.815 0.9 -24.815 0.42 64.196
24234.625 0.42 64.164 0.9 -24.849 0.9 -24.849 0.42 64.164
24259.583 0.421 64.131 0.9 -24.883 0.9 -24.883 0.421 64.131
24284.542 0.421 64.099 0.9 -24.917 0.9 -24.917 0.421 64.099
24309.5 0.422 64.066 0.899 -24.951 0.899 -24.951 0.422 64.066
24334.458 0.422 64.034 0.899 -24.985 0.899 -24.985 0.422 64.034
24359.417 0.423 64.002 0.899 -25.019 0.899 -25.019 0.423 64.002
24384.375 0.424 63.969 0.899 -25.053 0.899 -25.053 0.424 63.969
24409.333 0.424 63.937 0.898 -25.087 0.898 -25.087 0.424 63.937
24434.292 0.425 63.905 0.898 -25.121 0.898 -25.121 0.425 63.905
24459.25 0.425 63.872 0.898 -25.154 0.898 -25.154 0.425 63.872
24484.208 0.426 63.84 0.898 -25.188 0.898 -25.188 0.426 63.84
24509.167 0.426 63.808 0.897 -25.222 0.897 -25.222 0.426 63.808
24534.125 0.427 63.776 0.897 -25.255 0.897 -25.255 0.427 63.776
24559.083 0.427 63.744 0.897 -25.289 0.897 -25.289 0.427 63.744
24584.042 0.428 63.712 0.897 -25.323 0.897 -25.323 0.428 63.712
24609 0.428 63.679 0.896 -25.356 0.896 -25.356 0.428 63.679
24633.958 0.429 63.647 0.896 -25.39 0.896 -25.39 0.429 63.647
24658.917 0.429 63.615 0.896 -25.423 0.896 -25.423 0.429 63.615
24683.875 0.43 63.583 0.896 -25.457 0.896 -25.457 0.43 63.583
24708.833 0.43 63.551 0.895 -25.49 0.895 -25.49 0.43 63.551
24733.792 0.431 63.519 0.895 -25.524 0.895 -25.524 0.431 63.519
24758.75 0.431 63.487 0.895 -25.557 0.895 -25.557 0.431 63.487
24783.708 0.432 63.455 0.895 -25.59 0.895 -25.59 0.432 63.455
24808.667 0.433 63.423 0.894 -25.624 0.894 -25.624 0.433 63.423
24833.625 0.433 63.392 0.894 -25.657 0.894 -25.657 0.433 63.392
24858.583 0.434 63.36 0.894 -25.69 0.894 -25.69 0.434 63.36
24883.542 0.434 63.328 0.894 -25.724 0.894 -25.724 0.434 63.328
24908.5 0.435 63.296 0.893 -25.757 0.893 -25.757 0.435 63.296
24933.458 0.435 63.264 0.893 -25.79 0.893 -25.79 0.435 63.264
24958.417 0.436 63.232 0.893 -25.823 0.893 -25.823 0.436 63.232
24983.375 0.436 63.201 0.893 -25.856 0.893 -25.856 0.436 63.201
25008.333 0.437 63.169 0.892 -25.889 0.892 -25.889 0.437 63.169
25033.292 0.437 63.137 0.892 -25.922 0.892 -25.922 0.437 63.137
25058.25 0.438 63.106 0.892 -25.956 0.892 -25.956 0.438 63.106
25083.208 0.438 63.074 0.892 -25.989 0.892 -25.989 0.438 63.074
25108.167 0.439 63.042 0.891 -26.022 0.891 -26.022 0.439 63.042
25133.125 0.439 63.011 0.891 -26.054 0.891 -26.054 0.439 63.011
25158.083 0.44 62.979 0.891 -26.087 0.891 -26.087 0.44 62.979
25183.042 0.44 62.948 0.891 -26.12 0.891 -26.12 0.44 62.948
25208 0.441 62.916 0.89 -26.153 0.89 -26.153 0.441 62.916
25232.958 0.441 62.885 0.89 -26.186 0.89 -26.186 0.441 62.885
25257.917 0.442 62.853 0.89 -26.219 0.89 -26.219 0.442 62.853
25282.875 0.442 62.822 0.89 -26.252 0.89 -26.252 0.442 62.822
25307.833 0.443 62.79 0.889 -26.284 0.889 -26.284 0.443 62.79
25332.792 0.443 62.759 0.889 -26.317 0.889 -26.317 0.443 62.759
25357.75 0.444 62.728 0.889 -26.35 0.889 -26.35 0.444 62.728
25382.708 0.444 62.696 0.889 -26.382 0.889 -26.382 0.444 62.696
25407.667 0.445 62.665 0.888 -26.415 0.888 -26.415 0.445 62.665
25432.625 0.445 62.634 0.888 -26.448 0.888 -26.448 0.445 62.634
25457.583 0.446 62.602 0.888 -26.48 0.888 -26.48 0.446 62.602
25482.542 0.446 62.571 0.888 -26.513 0.888 -26.513 0.446 62.571
25507.5 0.447 62.54 0.887 -26.545 0.887 -26.545 0.447 62.54
25532.458 0.447 62.509 0.887 -26.578 0.887 -26.578 0.447 62.509
25557.417 0.448 62.478 0.887 -26.61 0.887 -26.61 0.448 62.478
25582.375 0.448 62.446 0.887 -26.643 0.887 -26.643 0.448 62.446
25607.333 0.449 62.415 0.886 -26.675 0.886 -26.675 0.449 62.415
25632.292 0.449 62.384 0.886 -26.708 0.886 -26.708 0.449 62.384
25657.25 0.45 62.353 0.886 -26.74 0.886 -26.74 0.45 62.353
25682.208 0.451 62.322 0.886 -26.772 0.886 -26.772 0.451 62.322
25707.167 0.451 62.291 0.885 -26.805 0.885 -26.805 0.451 62.291
25732.125 0.452 62.26 0.885 -26.837 0.885 -26.837 0.452 62.26
25757.083 0.452 62.229 0.885 -26.869 0.885 -26.869 0.452 62.229
25782.042 0.453 62.198 0.885 -26.901 0.885 -26.901 0.453 62.198
25807 0.453 62.167 0.884 -26.933 0.884 -26.933 0.453 62.167
25831.958 0.454 62.136 0.884 -26.966 0.884 -26.966 0.454 62.136
25856.917 0.454 62.105 0.884 -26.998 0.884 -26.998 0.454 62.105
25881.875 0.455 62.074 0.884 -27.03 0.884 -27.03 0.455 62.074
25906.833 0.455 62.044 0.883 -27.062 0.883 -27.062 0.455 62.044
25931.792 0.456 62.013 0.883 -27.094 0.883 -27.094 0.456 62.013
25956.75 0.456 61.982 0.883 -27.126 0.883 -27.126 0.456 61.982
25981.708 0.457 61.951 0.883 -27.158 0.883 -27.158 0.457 61.951
26006.667 0.457 61.92 0.882 -27.19 0.882 -27.19 0.457 61.92
26031.625 0.457 61.89 0.882 -27.222 0.882 -27.222 0.457 61.89
26056.583 0.458 61.859 0.882 -27.254 0.882 -27.254 0.458 61.859
26081.542 0.458 61.828 0.882 -27.286 0.882 -27.286 0.458 61.828
26106.5 0.459 61.798 0.881 -27.318 0.881 -27.318 0.459 61.798
26131.458 0.459 61.767 0.881 -27.349 0.881 -27.349 0.459 61.767
26156.417 0.46 61.736 0.881 -27.381 0.881 -27.381 0.46 61.736
26181.375 0.46 61.706 0.881 -27.413 0.881 -27.413 0.46 61.706
26206.333 0.461 61.675 0.88 -27.445 0.88 -27.445 0.461 61.675
26231.292 0.461 61.645 0.88 -27.476 0.88 -27.476 0.461 61.645
26256.25 0.462 61.614 0.88 -27.508 0.88 -27.508 0.462 61.614
26281.208 0.462 61.584 0.88 -27.54 0.88 -27.54 0.462 61.584
26306.167 0.463 61.553 0.879 -27.571 0.879 -27.571 0.463 61.553
26331.125 0.463 61.523 0.879 -27.603 0.879 -27.603 0.463 61.523
26356.083 0.464 61.493 0.879 -27.635 0.879 -27.635 0.464 61.493
26381.042 0.464 61.462 0.879 -27.666 0.879 -27.666 0.464 61.462
26406 0.465 61.432 0.878 -27.698 0.878 -27.698 0.465 61.432
26430.958 0.465 61.401 0.878 -27.729 0.878 -27.729 0.465 61.401
26455.917 0.466 61.371 0.878 -27.761 0.878 -27.761 0.466 61.371
26480.875 0.466 61.341 0.878 -27.792 0.878 -27.792 0.466 61.341
26505.833 0.467 61.311 0.877 -27.824 0.877 -27.824 0.467 61.311
26530.792 0.467 61.28 0.877 -27.855 0.877 -27.855 0.467 61.28
26555.75 0.468 61.25 0.877 -27.886 0.877 -27.886 0.468 61.25
26580.708 0.468 61.22 0.877 -27.918 0.877 -27.918 0.468 61.22
26605.667 0.469 61.19 0.876 -27.949 0.876 -27.949 0.469 61.19
26630.625 0.469 61.16 0.876 -27.98 0.876 -27.98 0.469 61.16
26655.583 0.47 61.129 0.876 -28.012 0.876 -28.012 0.47 61.129
26680.542 0.47 61.099 0.876 -28.043 0.876 -28.043 0.47 61.099
26705.5 0.471 61.069 0.875 -28.074 0.875 -28.074 0.471 61.069
26730.458 0.471 61.039 0.875 -28.105 0.875 -28.105 0.471 61.039
26755.417 0.472 61.009 0.875 -28.136 0.875 -28.136 0.472 61.009
26780.375 0.472 60.979 0.875 -28.167 0.875 -28.167 0.472 60.979
26805.333 0.473 60.949 0.874 -28.199 0.874 -28.199 0.473 60.949
26830.292 0.473 60.919 0.874 -28.23 0.874 -28.23 0.473 60.919
26855.25 0.474 60.889 0.874 -28.261 0.874 -28.261 0.474 60.889
26880.208 0.474 60.859 0.874 -28.292 0.874 -28.292 0.474 60.859
26905.167 0.474 60.829 0.873 -28.323 0.873 -28.323 0.474 60.829
26930.125 0.475 60.799 0.873 -28.354 0.873 -28.354 0.475 60.799
26955.083 0.475 60.77 0.873 -28.385 0.873 -28.385 0.475 60.77
26980.042 0.476 60.74 0.873 -28.416 0.873 -28.416 0.476 60.74
27005 0.476 60.71 0.872 -28.446 0.872 -28.446 0.476 60.71
27029.958 0.477 60.68 0.872 -28.477 0.872 -28.477 0.477 60.68
27054.917 0.477 60.65 0.872 -28.508 0.872 -28.508 0.477 60.65
27079.875 0.478 60.621 0.871 -28.539 0.871 -28.539 0.478 60.621
27104.833 0.478 60.591 0.871 -28.57 0.871 -28.57 0.478 60.591
27129.792 0.479 60.561 0.871 -28.601 0.871 -28.601 0.479 60.561
27154.75 0.479 60.532 0.871 -28.631 0.871 -28.631 0.479 60.532
27179.708 0.48 60.502 0.87 -28.662 0.87 -28.662 0.48 60.502
27204.667 0.48 60.472 0.87 -28.693 0.87 -28.693 0.48 60.472
27229.625 0.481 60.443 0.87 -28.723 0.87 -28.723 0.481 60.443
27254.583 0.481 60.413 0.87 -28.754 0.87 -28.754 0.481 60.413
27279.542 0.482 60.384 0.869 -28.785 0.869 -28.785 0.482 60.384
27304.5 0.482 60.354 0.869 -28.815 0.869 -28.815 0.482 60.354
27329.458 0.483 60.325 0.869 -28.846 0.869 -28.846 0.483 60.325
27354.417 0.483 60.295 0.869 -28.876 0.869 -28.876 0.483 60.295
27379.375 0.483 60.266 0.868 -28.907 0.868 -28.907 0.483 60.266
27404.333 0.484 60.236 0.868 -28.937 0.868 -28.937 0.484 60.236
27429.292 0.484 60.207 0.868 -28.968 0.868 -28.968 0.484 60.207
27454.25 0.485 60.177 0.868 -28.998 0.868 -28.998 0.485 60.177
27479.208 0.485 60.148 0.867 -29.029 0.867 -29.029 0.485 60.148
27504.167 0.486 60.119 0.867 -29.059 0.867 -29.059 0.486 60.119
27529.125 0.486 60.089 0.867 -29.089 0.867 -29.089 0.486 60.089
27554.083 0.487 60.06 0.867 -29.12 0.867 -29.12 0.487 60.06
27579.042 0.487 60.031 0.866 -29.15 0.866 -29.15 0.487 60.031
27604 0.488 60.001 0.866 -29.18 0.866 -29.18 0.488 60.001
27628.958 0.488 59.972 0.866 -29.21 0.866 -29.21 0.488 59.972
27653.917 0.489 59.943 0.866 -29.241 0.866 -29.241 0.489 59.943
27678.875 0.489 59.914 0.865 -29.271 0.865 -29.271 0.489 59.914
27703.833 0.489 59.885 0.865 -29.301 0.865 -29.301 0.489 59.885
27728.792 0.49 59.855 0.865 -29.331 0.865 -29.331 0.49 59.855
27753.75 0.49 59.826 0.865 -29.361 0.865 -29.361 0.49 59.826
27778.708 0.491 59.797 0.864 -29.391 0.864 -29.391 0.491 59.797
27803.667 0.491 59.768 0.864 -29.422 0.864 -29.422 0.491 59.768
27828.625 0.492 59.739 0.864 -29.452 0.864 -29.452 0.492 59.739
27853.583 0.492 59.71 0.864 -29.482 0.864 -29.482 0.492 59.71
27878.542 0.493 59.681 0.863 -29.512 0.863 -29.512 0.493 59.681
27903.5 0.493 59.652 0.863 -29.542 0.863 -29.542 0.493 59.652
27928.458 0.494 59.623 0.863 -29.572 0.863 -29.572 0.494 59.623
27953.417 0.494 59.594 0.863 -29.601 0.863 -29.601 0.494 59.594
27978.375 0.494 59.565 0.862 -29.631 0.862 -29.631 0.494 59.565
28003.333 0.495 59.536 0.862 -29.661 0.862 -29.661 0.495 59.536
28028.292 0.495 59.507 0.862 -29.691 0.862 -29.691 0.495 59.507
28053.25 0.496 59.479 0.862 -29.721 0.862 -29.721 0.496 59.479
28078.208 0.496 59.45 0.861 -29.751 0.861 -29.751 0.496 59.45
28103.167 0.497 59.421 0.861 -29.781 0.861 -29.781 0.497 59.421
28128.125 0.497 59.392 0.861 -29.81 0.861 -29.81 0.497 59.392
28153.083 0.498 59.363 0.86 -29.84 0.86 -29.84 0.498 59.363
28178.042 0.498 59.335 0.86 -29.87 0.86 -29.87 0.498 59.335
28203 0.499 59.306 0.86 -29.899 0.86 -29.899 0.499 59.306
28227.958 0.499 59.277 0.86 -29.929 0.86 -29.929 0.499 59.277
28252.917 0.499 59.248 0.859 -29.959 0.859 -29.959 0.499 59.248
28277.875 0.5 59.22 0.859 -29.988 0.859 -29.988 0.5 59.22
28302.833 0.5 59.191 0.859 -30.018 0.859 -30.018 0.5 59.191
28327.792 0.501 59.163 0.859 -30.047 0.859 -30.047 0.501 59.163
28352.75 0.501 59.134 0.858 -30.077 0.858 -30.077 0.501 59.134
28377.708 0.502 59.105 0.858 -30.106 0.858 -30.106 0.502 59.105
28402.667 0.502 59.077 0.858 -30.136 0.858 -30.136 0.502 59.077
28427.625 0.503 59.048 0.858 -30.165 0.858 -30.165 0.503 59.048
28452.583 0.503 59.02 0.857 -30.195 0.857 -30.195 0.503 59.02
28477.542 0.503 58.991 0.857 -30.224 0.857 -30.224 0.503 58.991
28502.5 0.504 58.963 0.857 -30.254 0.857 -30.254 0.504 58.963
28527.458 0.504 58.934 0.857 -30.283 0.857 -30.283 0.504 58.934
28552.417 0.505 58.906 0.856 -30.312 0.856 -30.312 0.505 58.906
28577.375 0.505 58.878 0.856 -30.342 0.856 -30.342 0.505 58.878
28602.333 0.506 58.849 0.856 -30.371 0.856 -30.371 0.506 58.849
28627.292 0.506 58.821 0.856 -30.4 0.856 -30.4 0.506 58.821
28652.25 0.507 58.793 0.855 -30.429 0.855 -30.429 0.507 58.793
28677.208 0.507 58.764 0.855 -30.459 0.855 -30.459 0.507 58.764
28702.167 0.507 58.736 0.855 -30.488 0.855 -30.488 0.507 58.736
28727.125 0.508 58.708 0.855 -30.517 0.855 -30.517 0.508 58.708
28752.083 0.508 58.679 0.854 -30.546 0.854 -30.546 0.508 58.679
28777.042 0.509 58.651 0.854 -30.575 0.854 -30.575 0.509 58.651
28802 0.509 58.623 0.854 -30.604 0.854 -30.604 0.509 58.623
28826.958 0.51 58.595 0.854 -30.633 0.854 -30.633 0.51 58.595
28851.917 0.51 58.567 0.853 -30.663 0.853 -30.663 0.51 58.567
28876.875 0.51 58.538 0.853 -30.692 0.853 -30.692 0.51 58.538
28901.833 0.511 58.51 0.853 -30.721 0.853 -30.721 0.511 58.51
28926.792 0.511 58.482 0.853 -30.75 0.853 -30.75 0.511 58.482
28951.75 0.512 58.454 0.852 -30.779 0.852 -30.779 0.512 58.454
28976.708 0.512 58.426 0.852 -30.807 0.852 -30.807 0.512 58.426
29001.667 0.513 58.398 0.852 -30.836 0.852 -30.836 0.513 58.398
29026.625 0.513 58.37 0.852 -30.865 0.852 -30.865 0.513 58.37
29051.583 0.513 58.342 0.851 -30.894 0.851 -30.894 0.513 58.342
29076.542 0.514 58.314 0.851 -30.923 0.851 -30.923 0.514 58.314
29101.5 0.514 58.286 0.851 -30.952 0.851 -30.952 0.514 58.286
29126.458 0.515 58.258 0.851 -30.981 0.851 -30.981 0.515 58.258
29151.417 0.515 58.23 0.85 -31.009 0.85 -31.009 0.515 58.23
29176.375 0.516 58.203 0.85 -31.038 0.85 -31.038 0.516 58.203
29201.333 0.516 58.175 0.85 -31.067 0.85 -31.067 0.516 58.175
29226.292 0.517 58.147 0.849 -31.095 0.849 -31.095 0.517 58.147
29251.25 0.517 58.119 0.849 -31.124 0.849 -31.124 0.517 58.119
29276.208 0.517 58.091 0.849 -31.153 0.849 -31.153 0.517 58.091
29301.167 0.518 58.063 0.849 -31.181 0.849 -31.181 0.518 58.063
29326.125 0.518 58.036 0.848 -31.21 0.848 -31.21 0.518 58.036
29351.083 0.519 58.008 0.848 -31.239 0.848 -31.239 0.519 58.008
29376.042 0.519 57.98 0.848 -31.267 0.848 -31.267 0.519 57.98
29401 0.519 57.953 0.848 -31.296 0.848 -31.296 0.519 57.953
29425.958 0.52 57.925 0.847 -31.324 0.847 -31.324 0.52 57.925
29450.917 0.52 57.897 0.847 -31.353 0.847 -31.353 0.52 57.897
29475.875 0.521 57.87 0.847 -31.381 0.847 -31.381 0.521 57.87
29500.833 0.521 57.842 0.847 -31.41 0.847 -31.41 0.521 57.842
29525.792 0.522 57.814 0.846 -31.438 0.846 -31.438 0.522 57.814
29550.75 0.522 57.787 0.846 -31.466 0.846 -31.466 0.522 57.787
29575.708 0.522 57.759 0.846 -31.495 0.846 -31.495 0.522 57.759
29600.667 0.523 57.732 0.846 -31.523 0.846 -31.523 0.523 57.732
29625.625 0.523 57.704 0.845 -31.551 0.845 -31.551 0.523 57.704
29650.583 0.524 57.677 0.845 -31.58 0.845 -31.58 0.524 57.677
29675.542 0.524 57.649 0.845 -31.608 0.845 -31.608 0.524 57.649
29700.5 0.525 57.622 0.845 -31.636 0.845 -31.636 0.525 57.622
29725.458 0.525 57.594 0.844 -31.665 0.844 -31.665 0.525 57.594
29750.417 0.525 57.567 0.844 -31.693 0.844 -31.693 0.525 57.567
29775.375 0.526 57.54 0.844 -31.721 0.844 -31.721 0.526 57.54
29800.333 0.526 57.512 0.844 -31.749 0.844 -31.749 0.526 57.512
29825.292 0.527 57.485 0.843 -31.777 0.843 -31.777 0.527 57.485
29850.25 0.527 57.458 0.843 -31.805 0.843 -31.805 0.527 57.458
29875.208 0.527 57.43 0.843 -31.834 0.843 -31.834 0.527 57.43
29900.167 0.528 57.403 0.843 -31.862 0.843 -31.862 0.528 57.403
29925.125 0.528 57.376 0.842 -31.89 0.842 -31.89 0.528 57.376
29950.083 0.529 57.349 0.842 -31.918 0.842 -31.918 0.529 57.349
29975.042 0.529 57.321 0.842 -31.946 0.842 -31.946 0.529 57.321
30000 0.53 57.294 0.842 -31.974 0.842 -31.974 0.53 57.294
