!	AVX Thin Film Operation 	Date: April 2014		
!	Description: Accu-P® Series, Thin Film  SMD RF Capacitor
!	Part Number: 02015J0R8PBSTR					
!								
# MHZ S MA R 50

50 1 -1.44 0.025 88.551 0.025 88.551 1 -1.44
74.958 0.999 -2.158 0.038 87.828 0.038 87.828 0.999 -2.158
99.917 0.999 -2.875 0.05 87.106 0.05 87.106 0.999 -2.875
124.875 0.998 -3.592 0.063 86.385 0.063 86.385 0.998 -3.592
149.833 0.997 -4.308 0.075 85.664 0.075 85.664 0.997 -4.308
174.792 0.996 -5.023 0.088 84.945 0.088 84.945 0.996 -5.023
199.75 0.995 -5.736 0.1 84.227 0.1 84.227 0.995 -5.736
224.708 0.994 -6.448 0.112 83.511 0.112 83.511 0.994 -6.448
249.667 0.992 -7.158 0.125 82.797 0.125 82.797 0.992 -7.158
274.625 0.99 -7.866 0.137 82.084 0.137 82.084 0.99 -7.866
299.583 0.989 -8.571 0.149 81.374 0.149 81.374 0.989 -8.571
324.542 0.987 -9.275 0.161 80.665 0.161 80.665 0.987 -9.275
349.5 0.985 -9.976 0.173 79.96 0.173 79.96 0.985 -9.976
374.458 0.982 -10.675 0.185 79.257 0.185 79.257 0.982 -10.675
399.417 0.98 -11.37 0.197 78.556 0.197 78.556 0.98 -11.37
424.375 0.978 -12.063 0.209 77.859 0.209 77.859 0.978 -12.063
449.333 0.975 -12.753 0.221 77.165 0.221 77.165 0.975 -12.753
474.292 0.972 -13.439 0.232 76.474 0.232 76.474 0.972 -13.439
499.25 0.969 -14.122 0.244 75.786 0.244 75.786 0.969 -14.122
524.208 0.966 -14.802 0.255 75.102 0.255 75.102 0.966 -14.802
549.167 0.963 -15.477 0.267 74.422 0.267 74.422 0.963 -15.477
574.125 0.96 -16.149 0.278 73.745 0.278 73.745 0.96 -16.149
599.083 0.957 -16.817 0.289 73.073 0.289 73.073 0.957 -16.817
624.042 0.953 -17.481 0.3 72.404 0.3 72.404 0.953 -17.481
649 0.95 -18.141 0.311 71.74 0.311 71.74 0.95 -18.141
673.958 0.946 -18.796 0.322 71.08 0.322 71.08 0.946 -18.796
698.917 0.942 -19.447 0.333 70.424 0.333 70.424 0.942 -19.447
723.875 0.938 -20.094 0.344 69.773 0.344 69.773 0.938 -20.094
748.833 0.934 -20.736 0.354 69.127 0.354 69.127 0.934 -20.736
773.792 0.93 -21.373 0.364 68.485 0.364 68.485 0.93 -21.373
798.75 0.926 -22.005 0.375 67.847 0.375 67.847 0.926 -22.005
823.708 0.922 -22.633 0.385 67.215 0.385 67.215 0.922 -22.633
848.667 0.918 -23.256 0.395 66.588 0.395 66.588 0.918 -23.256
873.625 0.913 -23.874 0.405 65.965 0.405 65.965 0.913 -23.874
898.583 0.909 -24.486 0.414 65.348 0.414 65.348 0.909 -24.486
923.542 0.904 -25.094 0.424 64.735 0.424 64.735 0.904 -25.094
948.5 0.9 -25.697 0.434 64.128 0.434 64.128 0.9 -25.697
973.458 0.895 -26.294 0.443 63.526 0.443 63.526 0.895 -26.294
998.417 0.89 -26.886 0.452 62.929 0.452 62.929 0.89 -26.886
1023.375 0.886 -27.473 0.461 62.337 0.461 62.337 0.886 -27.473
1048.333 0.881 -28.055 0.47 61.751 0.47 61.751 0.881 -28.055
1073.292 0.876 -28.631 0.479 61.17 0.479 61.17 0.876 -28.631
1098.25 0.871 -29.202 0.488 60.594 0.488 60.594 0.871 -29.202
1123.208 0.866 -29.768 0.496 60.023 0.496 60.023 0.866 -29.768
1148.167 0.861 -30.328 0.505 59.458 0.505 59.458 0.861 -30.328
1173.125 0.856 -30.883 0.513 58.899 0.513 58.899 0.856 -30.883
1198.083 0.851 -31.433 0.522 58.344 0.522 58.344 0.851 -31.433
1223.042 0.846 -31.977 0.53 57.795 0.53 57.795 0.846 -31.977
1248 0.841 -32.516 0.538 57.252 0.538 57.252 0.841 -32.516
1272.958 0.836 -33.049 0.545 56.713 0.545 56.713 0.836 -33.049
1297.917 0.831 -33.577 0.553 56.18 0.553 56.18 0.831 -33.577
1322.875 0.826 -34.1 0.561 55.653 0.561 55.653 0.826 -34.1
1347.833 0.82 -34.617 0.568 55.131 0.568 55.131 0.82 -34.617
1372.792 0.815 -35.129 0.575 54.614 0.575 54.614 0.815 -35.129
1397.75 0.81 -35.636 0.583 54.102 0.583 54.102 0.81 -35.636
1422.708 0.805 -36.138 0.59 53.596 0.59 53.596 0.805 -36.138
1447.667 0.8 -36.634 0.597 53.095 0.597 53.095 0.8 -36.634
1472.625 0.794 -37.125 0.604 52.599 0.604 52.599 0.794 -37.125
1497.583 0.789 -37.611 0.61 52.108 0.61 52.108 0.789 -37.611
1522.542 0.784 -38.091 0.617 51.622 0.617 51.622 0.784 -38.091
1547.5 0.779 -38.567 0.623 51.142 0.623 51.142 0.779 -38.567
1572.458 0.773 -39.037 0.63 50.667 0.63 50.667 0.773 -39.037
1597.417 0.768 -39.502 0.636 50.196 0.636 50.196 0.768 -39.502
1622.375 0.763 -39.962 0.642 49.731 0.642 49.731 0.763 -39.962
1647.333 0.758 -40.418 0.648 49.271 0.648 49.271 0.758 -40.418
1672.292 0.753 -40.868 0.654 48.816 0.654 48.816 0.753 -40.868
1697.25 0.747 -41.313 0.66 48.365 0.66 48.365 0.747 -41.313
1722.208 0.742 -41.754 0.666 47.92 0.666 47.92 0.742 -41.754
1747.167 0.737 -42.189 0.672 47.479 0.672 47.479 0.737 -42.189
1772.125 0.732 -42.62 0.677 47.043 0.677 47.043 0.732 -42.62
1797.083 0.727 -43.046 0.683 46.612 0.683 46.612 0.727 -43.046
1822.042 0.722 -43.468 0.688 46.185 0.688 46.185 0.722 -43.468
1847 0.716 -43.885 0.693 45.763 0.693 45.763 0.716 -43.885
1871.958 0.711 -44.297 0.698 45.346 0.698 45.346 0.711 -44.297
1896.917 0.706 -44.704 0.703 44.933 0.703 44.933 0.706 -44.704
1921.875 0.701 -45.107 0.708 44.525 0.708 44.525 0.701 -45.107
1946.833 0.696 -45.506 0.713 44.121 0.713 44.121 0.696 -45.506
1971.792 0.691 -45.9 0.718 43.722 0.718 43.722 0.691 -45.9
1996.75 0.686 -46.29 0.723 43.326 0.723 43.326 0.686 -46.29
2021.708 0.681 -46.676 0.727 42.936 0.727 42.936 0.681 -46.676
2046.667 0.676 -47.057 0.732 42.549 0.732 42.549 0.676 -47.057
2071.625 0.671 -47.434 0.737 42.167 0.737 42.167 0.671 -47.434
2096.583 0.666 -47.807 0.741 41.788 0.741 41.788 0.666 -47.807
2121.542 0.662 -48.176 0.745 41.414 0.745 41.414 0.662 -48.176
2146.5 0.657 -48.541 0.749 41.044 0.749 41.044 0.657 -48.541
2171.458 0.652 -48.901 0.754 40.678 0.754 40.678 0.652 -48.901
2196.417 0.647 -49.258 0.758 40.316 0.758 40.316 0.647 -49.258
2221.375 0.642 -49.611 0.762 39.958 0.762 39.958 0.642 -49.611
2246.333 0.637 -49.96 0.766 39.603 0.766 39.603 0.637 -49.96
2271.292 0.633 -50.305 0.769 39.253 0.769 39.253 0.633 -50.305
2296.25 0.628 -50.646 0.773 38.906 0.773 38.906 0.628 -50.646
2321.208 0.623 -50.984 0.777 38.563 0.777 38.563 0.623 -50.984
2346.167 0.619 -51.318 0.781 38.223 0.781 38.223 0.619 -51.318
2371.125 0.614 -51.648 0.784 37.887 0.784 37.887 0.614 -51.648
2396.083 0.61 -51.975 0.788 37.555 0.788 37.555 0.61 -51.975
2421.042 0.605 -52.298 0.791 37.226 0.791 37.226 0.605 -52.298
2446 0.6 -52.617 0.795 36.901 0.795 36.901 0.6 -52.617
2470.958 0.596 -52.934 0.798 36.579 0.798 36.579 0.596 -52.934
2495.917 0.591 -53.247 0.801 36.261 0.801 36.261 0.591 -53.247
2520.875 0.587 -53.556 0.804 35.945 0.804 35.945 0.587 -53.556
2545.833 0.583 -53.862 0.808 35.633 0.808 35.633 0.583 -53.862
2570.792 0.578 -54.165 0.811 35.325 0.811 35.325 0.578 -54.165
2595.75 0.574 -54.465 0.814 35.019 0.814 35.019 0.574 -54.465
2620.708 0.57 -54.761 0.817 34.717 0.817 34.717 0.57 -54.761
2645.667 0.565 -55.054 0.82 34.418 0.82 34.418 0.565 -55.054
2670.625 0.561 -55.345 0.823 34.122 0.823 34.122 0.561 -55.345
2695.583 0.557 -55.632 0.825 33.829 0.825 33.829 0.557 -55.632
2720.542 0.553 -55.916 0.828 33.538 0.828 33.538 0.553 -55.916
2745.5 0.548 -56.197 0.831 33.251 0.831 33.251 0.548 -56.197
2770.458 0.544 -56.476 0.834 32.967 0.834 32.967 0.544 -56.476
2795.417 0.54 -56.751 0.836 32.685 0.836 32.685 0.54 -56.751
2820.375 0.536 -57.024 0.839 32.407 0.839 32.407 0.536 -57.024
2845.333 0.532 -57.293 0.841 32.131 0.841 32.131 0.532 -57.293
2870.292 0.528 -57.56 0.844 31.858 0.844 31.858 0.528 -57.56
2895.25 0.524 -57.824 0.846 31.588 0.846 31.588 0.524 -57.824
2920.208 0.52 -58.086 0.849 31.32 0.849 31.32 0.52 -58.086
2945.167 0.516 -58.345 0.851 31.055 0.851 31.055 0.516 -58.345
2970.125 0.512 -58.601 0.854 30.792 0.854 30.792 0.512 -58.601
2995.083 0.508 -58.855 0.856 30.532 0.856 30.532 0.508 -58.855
3020.042 0.504 -59.106 0.858 30.275 0.858 30.275 0.504 -59.106
3045 0.5 -59.354 0.86 30.02 0.86 30.02 0.5 -59.354
3069.958 0.497 -59.6 0.863 29.767 0.863 29.767 0.497 -59.6
3094.917 0.493 -59.844 0.865 29.517 0.865 29.517 0.493 -59.844
3119.875 0.489 -60.085 0.867 29.27 0.867 29.27 0.489 -60.085
3144.833 0.485 -60.324 0.869 29.024 0.869 29.024 0.485 -60.324
3169.792 0.481 -60.561 0.871 28.781 0.871 28.781 0.481 -60.561
3194.75 0.478 -60.795 0.873 28.54 0.873 28.54 0.478 -60.795
3219.708 0.474 -61.027 0.875 28.302 0.875 28.302 0.474 -61.027
3244.667 0.471 -61.256 0.877 28.066 0.877 28.066 0.471 -61.256
3269.625 0.467 -61.484 0.879 27.832 0.879 27.832 0.467 -61.484
3294.583 0.463 -61.709 0.881 27.6 0.881 27.6 0.463 -61.709
3319.542 0.46 -61.932 0.882 27.37 0.882 27.37 0.46 -61.932
3344.5 0.456 -62.153 0.884 27.142 0.884 27.142 0.456 -62.153
3369.458 0.453 -62.371 0.886 26.916 0.886 26.916 0.453 -62.371
3394.417 0.449 -62.588 0.888 26.693 0.888 26.693 0.449 -62.588
3419.375 0.446 -62.803 0.89 26.471 0.89 26.471 0.446 -62.803
3444.333 0.442 -63.015 0.891 26.251 0.891 26.251 0.442 -63.015
3469.292 0.439 -63.226 0.893 26.034 0.893 26.034 0.439 -63.226
3494.25 0.436 -63.435 0.895 25.818 0.895 25.818 0.436 -63.435
3519.208 0.432 -63.641 0.896 25.604 0.896 25.604 0.432 -63.641
3544.167 0.429 -63.846 0.898 25.392 0.898 25.392 0.429 -63.846
3569.125 0.426 -64.049 0.899 25.182 0.899 25.182 0.426 -64.049
3594.083 0.422 -64.25 0.901 24.974 0.901 24.974 0.422 -64.25
3619.042 0.419 -64.449 0.902 24.767 0.902 24.767 0.419 -64.449
3644 0.416 -64.646 0.904 24.563 0.904 24.563 0.416 -64.646
3668.958 0.413 -64.842 0.905 24.36 0.905 24.36 0.413 -64.842
3693.917 0.409 -65.036 0.907 24.158 0.907 24.158 0.409 -65.036
3718.875 0.406 -65.228 0.908 23.959 0.908 23.959 0.406 -65.228
3743.833 0.403 -65.418 0.909 23.761 0.909 23.761 0.403 -65.418
3768.792 0.4 -65.606 0.911 23.565 0.911 23.565 0.4 -65.606
3793.75 0.397 -65.793 0.912 23.37 0.912 23.37 0.397 -65.793
3818.708 0.394 -65.978 0.913 23.177 0.913 23.177 0.394 -65.978
3843.667 0.391 -66.162 0.915 22.986 0.915 22.986 0.391 -66.162
3868.625 0.387 -66.344 0.916 22.796 0.916 22.796 0.387 -66.344
3893.583 0.384 -66.524 0.917 22.608 0.917 22.608 0.384 -66.524
3918.542 0.381 -66.703 0.919 22.421 0.919 22.421 0.381 -66.703
3943.5 0.378 -66.88 0.92 22.236 0.92 22.236 0.378 -66.88
3968.458 0.375 -67.055 0.921 22.052 0.921 22.052 0.375 -67.055
3993.417 0.373 -67.23 0.922 21.87 0.922 21.87 0.373 -67.23
4018.375 0.37 -67.402 0.923 21.689 0.923 21.689 0.37 -67.402
4043.333 0.367 -67.573 0.924 21.51 0.924 21.51 0.367 -67.573
4068.292 0.364 -67.743 0.926 21.332 0.926 21.332 0.364 -67.743
4093.25 0.361 -67.911 0.927 21.155 0.927 21.155 0.361 -67.911
4118.208 0.358 -68.077 0.928 20.98 0.928 20.98 0.358 -68.077
4143.167 0.355 -68.243 0.929 20.806 0.929 20.806 0.355 -68.243
4168.125 0.352 -68.407 0.93 20.633 0.93 20.633 0.352 -68.407
4193.083 0.35 -68.569 0.931 20.462 0.931 20.462 0.35 -68.569
4218.042 0.347 -68.73 0.932 20.292 0.932 20.292 0.347 -68.73
4243 0.344 -68.89 0.933 20.123 0.933 20.123 0.344 -68.89
4267.958 0.341 -69.048 0.934 19.956 0.934 19.956 0.341 -69.048
4292.917 0.339 -69.205 0.935 19.79 0.935 19.79 0.339 -69.205
4317.875 0.336 -69.361 0.936 19.625 0.936 19.625 0.336 -69.361
4342.833 0.333 -69.515 0.937 19.461 0.937 19.461 0.333 -69.515
4367.792 0.331 -69.669 0.938 19.299 0.938 19.299 0.331 -69.669
4392.75 0.328 -69.821 0.939 19.138 0.939 19.138 0.328 -69.821
4417.708 0.325 -69.971 0.94 18.978 0.94 18.978 0.325 -69.971
4442.667 0.323 -70.121 0.941 18.819 0.941 18.819 0.323 -70.121
4467.625 0.32 -70.269 0.941 18.661 0.941 18.661 0.32 -70.269
4492.583 0.317 -70.416 0.942 18.504 0.942 18.504 0.317 -70.416
4517.542 0.315 -70.561 0.943 18.349 0.943 18.349 0.315 -70.561
4542.5 0.312 -70.706 0.944 18.194 0.944 18.194 0.312 -70.706
4567.458 0.31 -70.849 0.945 18.041 0.945 18.041 0.31 -70.849
4592.417 0.307 -70.992 0.946 17.888 0.946 17.888 0.307 -70.992
4617.375 0.305 -71.133 0.946 17.737 0.946 17.737 0.305 -71.133
4642.333 0.302 -71.272 0.947 17.587 0.947 17.587 0.302 -71.272
4667.292 0.3 -71.411 0.948 17.438 0.948 17.438 0.3 -71.411
4692.25 0.297 -71.549 0.949 17.29 0.949 17.29 0.297 -71.549
4717.208 0.295 -71.685 0.95 17.143 0.95 17.143 0.295 -71.685
4742.167 0.292 -71.821 0.95 16.996 0.95 16.996 0.292 -71.821
4767.125 0.29 -71.955 0.951 16.851 0.951 16.851 0.29 -71.955
4792.083 0.288 -72.088 0.952 16.707 0.952 16.707 0.288 -72.088
4817.042 0.285 -72.221 0.952 16.564 0.952 16.564 0.285 -72.221
4842 0.283 -72.352 0.953 16.422 0.953 16.422 0.283 -72.352
4866.958 0.28 -72.482 0.954 16.28 0.954 16.28 0.28 -72.482
4891.917 0.278 -72.611 0.955 16.14 0.955 16.14 0.278 -72.611
4916.875 0.276 -72.739 0.955 16 0.955 16 0.276 -72.739
4941.833 0.273 -72.866 0.956 15.862 0.956 15.862 0.273 -72.866
4966.792 0.271 -72.992 0.957 15.724 0.957 15.724 0.271 -72.992
4991.75 0.269 -73.117 0.957 15.587 0.957 15.587 0.269 -73.117
5016.708 0.266 -73.241 0.958 15.451 0.958 15.451 0.266 -73.241
5041.667 0.264 -73.364 0.958 15.316 0.958 15.316 0.264 -73.364
5066.625 0.262 -73.486 0.959 15.182 0.959 15.182 0.262 -73.486
5091.583 0.26 -73.607 0.96 15.049 0.96 15.049 0.26 -73.607
5116.542 0.257 -73.727 0.96 14.916 0.96 14.916 0.257 -73.727
5141.5 0.255 -73.846 0.961 14.784 0.961 14.784 0.255 -73.846
5166.458 0.253 -73.964 0.961 14.653 0.961 14.653 0.253 -73.964
5191.417 0.251 -74.081 0.962 14.523 0.962 14.523 0.251 -74.081
5216.375 0.249 -74.197 0.962 14.394 0.962 14.394 0.249 -74.197
5241.333 0.246 -74.313 0.963 14.265 0.963 14.265 0.246 -74.313
5266.292 0.244 -74.427 0.964 14.138 0.964 14.138 0.244 -74.427
5291.25 0.242 -74.541 0.964 14.011 0.964 14.011 0.242 -74.541
5316.208 0.24 -74.653 0.965 13.884 0.965 13.884 0.24 -74.653
5341.167 0.238 -74.765 0.965 13.759 0.965 13.759 0.238 -74.765
5366.125 0.236 -74.876 0.966 13.634 0.966 13.634 0.236 -74.876
5391.083 0.234 -74.985 0.966 13.51 0.966 13.51 0.234 -74.985
5416.042 0.232 -75.094 0.967 13.387 0.967 13.387 0.232 -75.094
5441 0.23 -75.202 0.967 13.264 0.967 13.264 0.23 -75.202
5465.958 0.227 -75.309 0.968 13.142 0.968 13.142 0.227 -75.309
5490.917 0.225 -75.416 0.968 13.021 0.968 13.021 0.225 -75.416
5515.875 0.223 -75.521 0.969 12.901 0.969 12.901 0.223 -75.521
5540.833 0.221 -75.626 0.969 12.781 0.969 12.781 0.221 -75.626
5565.792 0.219 -75.729 0.97 12.662 0.97 12.662 0.219 -75.729
5590.75 0.217 -75.832 0.97 12.543 0.97 12.543 0.217 -75.832
5615.708 0.215 -75.934 0.97 12.426 0.97 12.426 0.215 -75.934
5640.667 0.213 -76.035 0.971 12.308 0.971 12.308 0.213 -76.035
5665.625 0.211 -76.135 0.971 12.192 0.971 12.192 0.211 -76.135
5690.583 0.209 -76.234 0.972 12.076 0.972 12.076 0.209 -76.234
5715.542 0.207 -76.333 0.972 11.961 0.972 11.961 0.207 -76.333
5740.5 0.205 -76.431 0.973 11.846 0.973 11.846 0.205 -76.431
5765.458 0.203 -76.527 0.973 11.732 0.973 11.732 0.203 -76.527
5790.417 0.201 -76.623 0.973 11.619 0.973 11.619 0.201 -76.623
5815.375 0.2 -76.718 0.974 11.506 0.974 11.506 0.2 -76.718
5840.333 0.198 -76.813 0.974 11.394 0.974 11.394 0.198 -76.813
5865.292 0.196 -76.906 0.974 11.282 0.974 11.282 0.196 -76.906
5890.25 0.194 -76.998 0.975 11.171 0.975 11.171 0.194 -76.998
5915.208 0.192 -77.09 0.975 11.061 0.975 11.061 0.192 -77.09
5940.167 0.19 -77.181 0.976 10.951 0.976 10.951 0.19 -77.181
5965.125 0.188 -77.271 0.976 10.842 0.976 10.842 0.188 -77.271
5990.083 0.186 -77.36 0.976 10.733 0.976 10.733 0.186 -77.36
6015.042 0.184 -77.448 0.977 10.625 0.977 10.625 0.184 -77.448
6040 0.183 -77.536 0.977 10.517 0.977 10.517 0.183 -77.536
6064.958 0.181 -77.622 0.977 10.41 0.977 10.41 0.181 -77.622
6089.917 0.179 -77.708 0.978 10.304 0.978 10.304 0.179 -77.708
6114.875 0.177 -77.793 0.978 10.198 0.978 10.198 0.177 -77.793
6139.833 0.175 -77.877 0.978 10.092 0.978 10.092 0.175 -77.877
6164.792 0.174 -77.96 0.979 9.987 0.979 9.987 0.174 -77.96
6189.75 0.172 -78.043 0.979 9.883 0.979 9.883 0.172 -78.043
6214.708 0.17 -78.124 0.979 9.779 0.979 9.779 0.17 -78.124
6239.667 0.168 -78.205 0.98 9.676 0.98 9.676 0.168 -78.205
6264.625 0.166 -78.284 0.98 9.573 0.98 9.573 0.166 -78.284
6289.583 0.165 -78.363 0.98 9.47 0.98 9.47 0.165 -78.363
6314.542 0.163 -78.441 0.98 9.368 0.98 9.368 0.163 -78.441
6339.5 0.161 -78.518 0.981 9.267 0.981 9.267 0.161 -78.518
6364.458 0.159 -78.594 0.981 9.166 0.981 9.166 0.159 -78.594
6389.417 0.158 -78.67 0.981 9.066 0.981 9.066 0.158 -78.67
6414.375 0.156 -78.744 0.982 8.966 0.982 8.966 0.156 -78.744
6439.333 0.154 -78.817 0.982 8.866 0.982 8.866 0.154 -78.817
6464.292 0.153 -78.89 0.982 8.767 0.982 8.767 0.153 -78.89
6489.25 0.151 -78.961 0.982 8.668 0.982 8.668 0.151 -78.961
6514.208 0.149 -79.032 0.983 8.57 0.983 8.57 0.149 -79.032
6539.167 0.147 -79.102 0.983 8.473 0.983 8.473 0.147 -79.102
6564.125 0.146 -79.17 0.983 8.375 0.983 8.375 0.146 -79.17
6589.083 0.144 -79.238 0.983 8.279 0.983 8.279 0.144 -79.238
6614.042 0.142 -79.305 0.984 8.182 0.984 8.182 0.142 -79.305
6639 0.141 -79.371 0.984 8.086 0.984 8.086 0.141 -79.371
6663.958 0.139 -79.435 0.984 7.991 0.984 7.991 0.139 -79.435
6688.917 0.138 -79.499 0.984 7.896 0.984 7.896 0.138 -79.499
6713.875 0.136 -79.562 0.984 7.801 0.984 7.801 0.136 -79.562
6738.833 0.134 -79.624 0.985 7.707 0.985 7.707 0.134 -79.624
6763.792 0.133 -79.684 0.985 7.613 0.985 7.613 0.133 -79.684
6788.75 0.131 -79.744 0.985 7.519 0.985 7.519 0.131 -79.744
6813.708 0.129 -79.802 0.985 7.426 0.985 7.426 0.129 -79.802
6838.667 0.128 -79.859 0.986 7.334 0.986 7.334 0.128 -79.859
6863.625 0.126 -79.915 0.986 7.241 0.986 7.241 0.126 -79.915
6888.583 0.125 -79.971 0.986 7.149 0.986 7.149 0.125 -79.971
6913.542 0.123 -80.024 0.986 7.058 0.986 7.058 0.123 -80.024
6938.5 0.121 -80.077 0.986 6.967 0.986 6.967 0.121 -80.077
6963.458 0.12 -80.128 0.987 6.876 0.987 6.876 0.12 -80.128
6988.417 0.118 -80.178 0.987 6.786 0.987 6.786 0.118 -80.178
7013.375 0.117 -80.227 0.987 6.696 0.987 6.696 0.117 -80.227
7038.333 0.115 -80.275 0.987 6.606 0.987 6.606 0.115 -80.275
7063.292 0.114 -80.321 0.987 6.517 0.987 6.517 0.114 -80.321
7088.25 0.112 -80.366 0.987 6.428 0.987 6.428 0.112 -80.366
7113.208 0.111 -80.41 0.988 6.34 0.988 6.34 0.111 -80.41
7138.167 0.109 -80.452 0.988 6.252 0.988 6.252 0.109 -80.452
7163.125 0.108 -80.492 0.988 6.164 0.988 6.164 0.108 -80.492
7188.083 0.106 -80.531 0.988 6.076 0.988 6.076 0.106 -80.531
7213.042 0.105 -80.569 0.988 5.989 0.988 5.989 0.105 -80.569
7238 0.103 -80.605 0.988 5.903 0.988 5.903 0.103 -80.605
7262.958 0.102 -80.639 0.989 5.816 0.989 5.816 0.102 -80.639
7287.917 0.1 -80.671 0.989 5.73 0.989 5.73 0.1 -80.671
7312.875 0.099 -80.702 0.989 5.644 0.989 5.644 0.099 -80.702
7337.833 0.097 -80.731 0.989 5.559 0.989 5.559 0.097 -80.731
7362.792 0.096 -80.759 0.989 5.474 0.989 5.474 0.096 -80.759
7387.75 0.094 -80.784 0.989 5.389 0.989 5.389 0.094 -80.784
7412.708 0.093 -80.807 0.989 5.305 0.989 5.305 0.093 -80.807
7437.667 0.091 -80.829 0.99 5.221 0.99 5.221 0.091 -80.829
7462.625 0.09 -80.848 0.99 5.137 0.99 5.137 0.09 -80.848
7487.583 0.088 -80.865 0.99 5.053 0.99 5.053 0.088 -80.865
7512.542 0.087 -80.88 0.99 4.97 0.99 4.97 0.087 -80.88
7537.5 0.085 -80.892 0.99 4.887 0.99 4.887 0.085 -80.892
7562.458 0.084 -80.902 0.99 4.805 0.99 4.805 0.084 -80.902
7587.417 0.083 -80.909 0.99 4.723 0.99 4.723 0.083 -80.909
7612.375 0.081 -80.914 0.99 4.641 0.99 4.641 0.081 -80.914
7637.333 0.08 -80.916 0.991 4.559 0.991 4.559 0.08 -80.916
7662.292 0.078 -80.915 0.991 4.478 0.991 4.478 0.078 -80.915
7687.25 0.077 -80.911 0.991 4.397 0.991 4.397 0.077 -80.911
7712.208 0.076 -80.904 0.991 4.316 0.991 4.316 0.076 -80.904
7737.167 0.074 -80.894 0.991 4.235 0.991 4.235 0.074 -80.894
7762.125 0.073 -80.881 0.991 4.155 0.991 4.155 0.073 -80.881
7787.083 0.071 -80.863 0.991 4.075 0.991 4.075 0.071 -80.863
7812.042 0.07 -80.842 0.991 3.996 0.991 3.996 0.07 -80.842
7837 0.069 -80.817 0.991 3.916 0.991 3.916 0.069 -80.817
7861.958 0.067 -80.788 0.991 3.837 0.991 3.837 0.067 -80.788
7886.917 0.066 -80.755 0.992 3.759 0.992 3.759 0.066 -80.755
7911.875 0.064 -80.716 0.992 3.68 0.992 3.68 0.064 -80.716
7936.833 0.063 -80.673 0.992 3.602 0.992 3.602 0.063 -80.673
7961.792 0.062 -80.625 0.992 3.524 0.992 3.524 0.062 -80.625
7986.75 0.06 -80.572 0.992 3.446 0.992 3.446 0.06 -80.572
8011.708 0.059 -80.512 0.992 3.369 0.992 3.369 0.059 -80.512
8036.667 0.058 -80.447 0.992 3.292 0.992 3.292 0.058 -80.447
8061.625 0.056 -80.375 0.992 3.215 0.992 3.215 0.056 -80.375
8086.583 0.055 -80.296 0.992 3.138 0.992 3.138 0.055 -80.296
8111.542 0.054 -80.21 0.992 3.062 0.992 3.062 0.054 -80.21
8136.5 0.052 -80.115 0.992 2.985 0.992 2.985 0.052 -80.115
8161.458 0.051 -80.013 0.992 2.91 0.992 2.91 0.051 -80.013
8186.417 0.05 -79.901 0.992 2.834 0.992 2.834 0.05 -79.901
8211.375 0.049 -79.78 0.993 2.758 0.993 2.758 0.049 -79.78
8236.333 0.047 -79.648 0.993 2.683 0.993 2.683 0.047 -79.648
8261.292 0.046 -79.505 0.993 2.608 0.993 2.608 0.046 -79.505
8286.25 0.045 -79.35 0.993 2.534 0.993 2.534 0.045 -79.35
8311.208 0.043 -79.182 0.993 2.459 0.993 2.459 0.043 -79.182
8336.167 0.042 -79 0.993 2.385 0.993 2.385 0.042 -79
8361.125 0.041 -78.802 0.993 2.311 0.993 2.311 0.041 -78.802
8386.083 0.04 -78.588 0.993 2.237 0.993 2.237 0.04 -78.588
8411.042 0.038 -78.355 0.993 2.164 0.993 2.164 0.038 -78.355
8436 0.037 -78.102 0.993 2.091 0.993 2.091 0.037 -78.102
8460.958 0.036 -77.827 0.993 2.018 0.993 2.018 0.036 -77.827
8485.917 0.035 -77.527 0.993 1.945 0.993 1.945 0.035 -77.527
8510.875 0.033 -77.201 0.993 1.872 0.993 1.872 0.033 -77.201
8535.833 0.032 -76.845 0.993 1.8 0.993 1.8 0.032 -76.845
8560.792 0.031 -76.455 0.993 1.728 0.993 1.728 0.031 -76.455
8585.75 0.03 -76.029 0.993 1.656 0.993 1.656 0.03 -76.029
8610.708 0.028 -75.561 0.993 1.584 0.993 1.584 0.028 -75.561
8635.667 0.027 -75.046 0.993 1.512 0.993 1.512 0.027 -75.046
8660.625 0.026 -74.478 0.993 1.441 0.993 1.441 0.026 -74.478
8685.583 0.025 -73.849 0.993 1.37 0.993 1.37 0.025 -73.849
8710.542 0.024 -73.152 0.993 1.299 0.993 1.299 0.024 -73.152
8735.5 0.022 -72.375 0.993 1.229 0.993 1.229 0.022 -72.375
8760.458 0.021 -71.506 0.993 1.158 0.993 1.158 0.021 -71.506
8785.417 0.02 -70.53 0.994 1.088 0.994 1.088 0.02 -70.53
8810.375 0.019 -69.428 0.994 1.018 0.994 1.018 0.019 -69.428
8835.333 0.018 -68.177 0.994 0.948 0.994 0.948 0.018 -68.177
8860.292 0.017 -66.75 0.994 0.878 0.994 0.878 0.017 -66.75
8885.25 0.015 -65.11 0.994 0.809 0.994 0.809 0.015 -65.11
8910.208 0.014 -63.213 0.994 0.74 0.994 0.74 0.014 -63.213
8935.167 0.013 -61.001 0.994 0.671 0.994 0.671 0.013 -61.001
8960.125 0.012 -58.403 0.994 0.602 0.994 0.602 0.012 -58.403
8985.083 0.011 -55.326 0.994 0.533 0.994 0.533 0.011 -55.326
9010.042 0.01 -51.654 0.994 0.465 0.994 0.465 0.01 -51.654
9035 9.365e-3 -47.242 0.994 0.396 0.994 0.396 9.365e-3 -47.242
9059.958 8.525e-3 -41.921 0.994 0.328 0.994 0.328 8.525e-3 -41.921
9084.917 7.778e-3 -35.515 0.994 0.261 0.994 0.261 7.778e-3 -35.515
9109.875 7.152e-3 -27.881 0.994 0.193 0.994 0.193 7.152e-3 -27.881
9134.833 6.679e-3 -18.993 0.994 0.125 0.994 0.125 6.679e-3 -18.993
9159.792 6.391e-3 -9.057 0.994 0.058 0.994 0.058 6.391e-3 -9.057
9184.75 6.312e-3 1.437 0.994 -9.126e-3 0.994 -9.126e-3 6.312e-3 1.437
9209.708 6.449e-3 11.807 0.994 -0.076 0.994 -0.076 6.449e-3 11.807
9234.667 6.785e-3 21.417 0.994 -0.143 0.994 -0.143 6.785e-3 21.417
9259.625 7.293e-3 29.875 0.994 -0.209 0.994 -0.209 7.293e-3 29.875
9284.583 7.937e-3 37.068 0.994 -0.276 0.994 -0.276 7.937e-3 37.068
9309.542 8.687e-3 43.075 0.994 -0.342 0.994 -0.342 8.687e-3 43.075
9334.5 9.517e-3 48.058 0.994 -0.408 0.994 -0.408 9.517e-3 48.058
9359.458 0.01 52.195 0.994 -0.474 0.994 -0.474 0.01 52.195
9384.417 0.011 55.646 0.994 -0.54 0.994 -0.54 0.011 55.646
9409.375 0.012 58.546 0.994 -0.605 0.994 -0.605 0.012 58.546
9434.333 0.013 61.002 0.994 -0.671 0.994 -0.671 0.013 61.002
9459.292 0.014 63.1 0.994 -0.736 0.994 -0.736 0.014 63.1
9484.25 0.015 64.905 0.994 -0.801 0.994 -0.801 0.015 64.905
9509.208 0.016 66.47 0.994 -0.866 0.994 -0.866 0.016 66.47
9534.167 0.017 67.837 0.994 -0.93 0.994 -0.93 0.017 67.837
9559.125 0.018 69.038 0.994 -0.995 0.994 -0.995 0.018 69.038
9584.083 0.02 70.099 0.994 -1.059 0.994 -1.059 0.02 70.099
9609.042 0.021 71.041 0.993 -1.124 0.993 -1.124 0.021 71.041
9634 0.022 71.883 0.993 -1.188 0.993 -1.188 0.022 71.883
9658.958 0.023 72.638 0.993 -1.252 0.993 -1.252 0.023 72.638
9683.917 0.024 73.317 0.993 -1.315 0.993 -1.315 0.024 73.317
9708.875 0.025 73.931 0.993 -1.379 0.993 -1.379 0.025 73.931
9733.833 0.026 74.487 0.993 -1.442 0.993 -1.442 0.026 74.487
9758.792 0.027 74.993 0.993 -1.506 0.993 -1.506 0.027 74.993
9783.75 0.028 75.455 0.993 -1.569 0.993 -1.569 0.028 75.455
9808.708 0.029 75.877 0.993 -1.632 0.993 -1.632 0.029 75.877
9833.667 0.03 76.263 0.993 -1.694 0.993 -1.694 0.03 76.263
9858.625 0.031 76.618 0.993 -1.757 0.993 -1.757 0.031 76.618
9883.583 0.032 76.945 0.993 -1.819 0.993 -1.819 0.032 76.945
9908.542 0.033 77.246 0.993 -1.882 0.993 -1.882 0.033 77.246
9933.5 0.035 77.524 0.993 -1.944 0.993 -1.944 0.035 77.524
9958.458 0.036 77.781 0.993 -2.006 0.993 -2.006 0.036 77.781
9983.417 0.037 78.019 0.993 -2.068 0.993 -2.068 0.037 78.019
10008.375 0.038 78.239 0.993 -2.13 0.993 -2.13 0.038 78.239
10033.333 0.039 78.444 0.993 -2.191 0.993 -2.191 0.039 78.444
10058.292 0.04 78.634 0.993 -2.253 0.993 -2.253 0.04 78.634
10083.25 0.041 78.81 0.993 -2.314 0.993 -2.314 0.041 78.81
10108.208 0.042 78.974 0.993 -2.375 0.993 -2.375 0.042 78.974
10133.167 0.043 79.127 0.993 -2.436 0.993 -2.436 0.043 79.127
10158.125 0.044 79.269 0.993 -2.497 0.993 -2.497 0.044 79.269
10183.083 0.045 79.402 0.993 -2.558 0.993 -2.558 0.045 79.402
10208.042 0.046 79.525 0.993 -2.618 0.993 -2.618 0.046 79.525
10233 0.047 79.64 0.993 -2.679 0.993 -2.679 0.047 79.64
10257.958 0.048 79.747 0.993 -2.739 0.993 -2.739 0.048 79.747
10282.917 0.049 79.847 0.993 -2.799 0.993 -2.799 0.049 79.847
10307.875 0.05 79.94 0.992 -2.86 0.992 -2.86 0.05 79.94
10332.833 0.051 80.027 0.992 -2.919 0.992 -2.919 0.051 80.027
10357.792 0.052 80.107 0.992 -2.979 0.992 -2.979 0.052 80.107
10382.75 0.053 80.182 0.992 -3.039 0.992 -3.039 0.053 80.182
10407.708 0.054 80.252 0.992 -3.098 0.992 -3.098 0.054 80.252
10432.667 0.055 80.317 0.992 -3.158 0.992 -3.158 0.055 80.317
10457.625 0.056 80.377 0.992 -3.217 0.992 -3.217 0.056 80.377
10482.583 0.057 80.433 0.992 -3.276 0.992 -3.276 0.057 80.433
10507.542 0.059 80.485 0.992 -3.335 0.992 -3.335 0.059 80.485
10532.5 0.06 80.532 0.992 -3.394 0.992 -3.394 0.06 80.532
10557.458 0.061 80.577 0.992 -3.453 0.992 -3.453 0.061 80.577
10582.417 0.062 80.617 0.992 -3.511 0.992 -3.511 0.062 80.617
10607.375 0.063 80.654 0.992 -3.57 0.992 -3.57 0.063 80.654
10632.333 0.064 80.689 0.992 -3.628 0.992 -3.628 0.064 80.689
10657.292 0.065 80.72 0.992 -3.687 0.992 -3.687 0.065 80.72
10682.25 0.066 80.748 0.992 -3.745 0.992 -3.745 0.066 80.748
10707.208 0.067 80.774 0.992 -3.803 0.992 -3.803 0.067 80.774
10732.167 0.068 80.797 0.991 -3.861 0.991 -3.861 0.068 80.797
10757.125 0.069 80.818 0.991 -3.918 0.991 -3.918 0.069 80.818
10782.083 0.07 80.836 0.991 -3.976 0.991 -3.976 0.07 80.836
10807.042 0.071 80.853 0.991 -4.033 0.991 -4.033 0.071 80.853
10832 0.072 80.867 0.991 -4.091 0.991 -4.091 0.072 80.867
10856.958 0.073 80.879 0.991 -4.148 0.991 -4.148 0.073 80.879
10881.917 0.074 80.889 0.991 -4.205 0.991 -4.205 0.074 80.889
10906.875 0.075 80.898 0.991 -4.262 0.991 -4.262 0.075 80.898
10931.833 0.076 80.905 0.991 -4.319 0.991 -4.319 0.076 80.905
10956.792 0.077 80.91 0.991 -4.376 0.991 -4.376 0.077 80.91
10981.75 0.078 80.914 0.991 -4.433 0.991 -4.433 0.078 80.914
11006.708 0.079 80.916 0.991 -4.489 0.991 -4.489 0.079 80.916
11031.667 0.08 80.916 0.991 -4.546 0.991 -4.546 0.08 80.916
11056.625 0.08 80.915 0.99 -4.602 0.99 -4.602 0.08 80.915
11081.583 0.081 80.913 0.99 -4.658 0.99 -4.658 0.081 80.913
11106.542 0.082 80.91 0.99 -4.715 0.99 -4.715 0.082 80.91
11131.5 0.083 80.905 0.99 -4.771 0.99 -4.771 0.083 80.905
11156.458 0.084 80.9 0.99 -4.826 0.99 -4.826 0.084 80.9
11181.417 0.085 80.893 0.99 -4.882 0.99 -4.882 0.085 80.893
11206.375 0.086 80.885 0.99 -4.938 0.99 -4.938 0.086 80.885
11231.333 0.087 80.876 0.99 -4.994 0.99 -4.994 0.087 80.876
11256.292 0.088 80.866 0.99 -5.049 0.99 -5.049 0.088 80.866
11281.25 0.089 80.855 0.99 -5.104 0.99 -5.104 0.089 80.855
11306.208 0.09 80.843 0.99 -5.16 0.99 -5.16 0.09 80.843
11331.167 0.091 80.83 0.99 -5.215 0.99 -5.215 0.091 80.83
11356.125 0.092 80.816 0.989 -5.27 0.989 -5.27 0.092 80.816
11381.083 0.093 80.802 0.989 -5.325 0.989 -5.325 0.093 80.802
11406.042 0.094 80.787 0.989 -5.38 0.989 -5.38 0.094 80.787
11431 0.095 80.771 0.989 -5.434 0.989 -5.434 0.095 80.771
11455.958 0.096 80.754 0.989 -5.489 0.989 -5.489 0.096 80.754
11480.917 0.097 80.736 0.989 -5.543 0.989 -5.543 0.097 80.736
11505.875 0.098 80.718 0.989 -5.598 0.989 -5.598 0.098 80.718
11530.833 0.099 80.7 0.989 -5.652 0.989 -5.652 0.099 80.7
11555.792 0.1 80.68 0.989 -5.706 0.989 -5.706 0.1 80.68
11580.75 0.101 80.66 0.989 -5.76 0.989 -5.76 0.101 80.66
11605.708 0.102 80.639 0.989 -5.815 0.989 -5.815 0.102 80.639
11630.667 0.102 80.618 0.988 -5.868 0.988 -5.868 0.102 80.618
11655.625 0.103 80.597 0.988 -5.922 0.988 -5.922 0.103 80.597
11680.583 0.104 80.574 0.988 -5.976 0.988 -5.976 0.104 80.574
11705.542 0.105 80.551 0.988 -6.03 0.988 -6.03 0.105 80.551
11730.5 0.106 80.528 0.988 -6.083 0.988 -6.083 0.106 80.528
11755.458 0.107 80.504 0.988 -6.137 0.988 -6.137 0.107 80.504
11780.417 0.108 80.48 0.988 -6.19 0.988 -6.19 0.108 80.48
11805.375 0.109 80.456 0.988 -6.243 0.988 -6.243 0.109 80.456
11830.333 0.11 80.43 0.988 -6.296 0.988 -6.296 0.11 80.43
11855.292 0.111 80.405 0.988 -6.349 0.988 -6.349 0.111 80.405
11880.25 0.112 80.379 0.987 -6.402 0.987 -6.402 0.112 80.379
11905.208 0.113 80.353 0.987 -6.455 0.987 -6.455 0.113 80.353
11930.167 0.114 80.326 0.987 -6.508 0.987 -6.508 0.114 80.326
11955.125 0.114 80.299 0.987 -6.56 0.987 -6.56 0.114 80.299
11980.083 0.115 80.271 0.987 -6.613 0.987 -6.613 0.115 80.271
12005.042 0.116 80.244 0.987 -6.666 0.987 -6.666 0.116 80.244
12030 0.117 80.216 0.987 -6.718 0.987 -6.718 0.117 80.216
12054.958 0.118 80.187 0.987 -6.77 0.987 -6.77 0.118 80.187
12079.917 0.119 80.158 0.987 -6.822 0.987 -6.822 0.119 80.158
12104.875 0.12 80.129 0.987 -6.875 0.987 -6.875 0.12 80.129
12129.833 0.121 80.1 0.986 -6.927 0.986 -6.927 0.121 80.1
12154.792 0.122 80.07 0.986 -6.979 0.986 -6.979 0.122 80.07
12179.75 0.123 80.04 0.986 -7.03 0.986 -7.03 0.123 80.04
12204.708 0.123 80.01 0.986 -7.082 0.986 -7.082 0.123 80.01
12229.667 0.124 79.98 0.986 -7.134 0.986 -7.134 0.124 79.98
12254.625 0.125 79.949 0.986 -7.185 0.986 -7.185 0.125 79.949
12279.583 0.126 79.918 0.986 -7.237 0.986 -7.237 0.126 79.918
12304.542 0.127 79.887 0.986 -7.288 0.986 -7.288 0.127 79.887
12329.5 0.128 79.856 0.986 -7.34 0.986 -7.34 0.128 79.856
12354.458 0.129 79.824 0.985 -7.391 0.985 -7.391 0.129 79.824
12379.417 0.13 79.792 0.985 -7.442 0.985 -7.442 0.13 79.792
12404.375 0.131 79.76 0.985 -7.493 0.985 -7.493 0.131 79.76
12429.333 0.131 79.728 0.985 -7.544 0.985 -7.544 0.131 79.728
12454.292 0.132 79.696 0.985 -7.595 0.985 -7.595 0.132 79.696
12479.25 0.133 79.663 0.985 -7.646 0.985 -7.646 0.133 79.663
12504.208 0.134 79.63 0.985 -7.696 0.985 -7.696 0.134 79.63
12529.167 0.135 79.597 0.985 -7.747 0.985 -7.747 0.135 79.597
12554.125 0.136 79.564 0.985 -7.798 0.985 -7.798 0.136 79.564
12579.083 0.137 79.531 0.984 -7.848 0.984 -7.848 0.137 79.531
12604.042 0.138 79.497 0.984 -7.899 0.984 -7.899 0.138 79.497
12629 0.138 79.463 0.984 -7.949 0.984 -7.949 0.138 79.463
12653.958 0.139 79.43 0.984 -7.999 0.984 -7.999 0.139 79.43
12678.917 0.14 79.396 0.984 -8.049 0.984 -8.049 0.14 79.396
12703.875 0.141 79.362 0.984 -8.099 0.984 -8.099 0.141 79.362
12728.833 0.142 79.327 0.984 -8.149 0.984 -8.149 0.142 79.327
12753.792 0.143 79.293 0.984 -8.199 0.984 -8.199 0.143 79.293
12778.75 0.144 79.259 0.983 -8.249 0.983 -8.249 0.144 79.259
12803.708 0.144 79.224 0.983 -8.299 0.983 -8.299 0.144 79.224
12828.667 0.145 79.189 0.983 -8.349 0.983 -8.349 0.145 79.189
12853.625 0.146 79.154 0.983 -8.398 0.983 -8.398 0.146 79.154
12878.583 0.147 79.119 0.983 -8.448 0.983 -8.448 0.147 79.119
12903.542 0.148 79.084 0.983 -8.497 0.983 -8.497 0.148 79.084
12928.5 0.149 79.049 0.983 -8.547 0.983 -8.547 0.149 79.049
12953.458 0.15 79.014 0.983 -8.596 0.983 -8.596 0.15 79.014
12978.417 0.15 78.978 0.982 -8.645 0.982 -8.645 0.15 78.978
13003.375 0.151 78.943 0.982 -8.694 0.982 -8.694 0.151 78.943
13028.333 0.152 78.907 0.982 -8.743 0.982 -8.743 0.152 78.907
13053.292 0.153 78.871 0.982 -8.792 0.982 -8.792 0.153 78.871
13078.25 0.154 78.836 0.982 -8.841 0.982 -8.841 0.154 78.836
13103.208 0.155 78.8 0.982 -8.89 0.982 -8.89 0.155 78.8
13128.167 0.156 78.764 0.982 -8.939 0.982 -8.939 0.156 78.764
13153.125 0.156 78.728 0.981 -8.987 0.981 -8.987 0.156 78.728
13178.083 0.157 78.692 0.981 -9.036 0.981 -9.036 0.157 78.692
13203.042 0.158 78.655 0.981 -9.085 0.981 -9.085 0.158 78.655
13228 0.159 78.619 0.981 -9.133 0.981 -9.133 0.159 78.619
13252.958 0.16 78.583 0.981 -9.182 0.981 -9.182 0.16 78.583
13277.917 0.161 78.546 0.981 -9.23 0.981 -9.23 0.161 78.546
13302.875 0.161 78.51 0.981 -9.278 0.981 -9.278 0.161 78.51
13327.833 0.162 78.473 0.981 -9.326 0.981 -9.326 0.162 78.473
13352.792 0.163 78.437 0.98 -9.374 0.98 -9.374 0.163 78.437
13377.75 0.164 78.4 0.98 -9.422 0.98 -9.422 0.164 78.4
13402.708 0.165 78.363 0.98 -9.47 0.98 -9.47 0.165 78.363
13427.667 0.165 78.326 0.98 -9.518 0.98 -9.518 0.165 78.326
13452.625 0.166 78.289 0.98 -9.566 0.98 -9.566 0.166 78.289
13477.583 0.167 78.253 0.98 -9.614 0.98 -9.614 0.167 78.253
13502.542 0.168 78.216 0.98 -9.662 0.98 -9.662 0.168 78.216
13527.5 0.169 78.179 0.979 -9.709 0.979 -9.709 0.169 78.179
13552.458 0.17 78.141 0.979 -9.757 0.979 -9.757 0.17 78.141
13577.417 0.17 78.104 0.979 -9.804 0.979 -9.804 0.17 78.104
13602.375 0.171 78.067 0.979 -9.852 0.979 -9.852 0.171 78.067
13627.333 0.172 78.03 0.979 -9.899 0.979 -9.899 0.172 78.03
13652.292 0.173 77.993 0.979 -9.946 0.979 -9.946 0.173 77.993
13677.25 0.174 77.955 0.979 -9.994 0.979 -9.994 0.174 77.955
13702.208 0.174 77.918 0.978 -10.041 0.978 -10.041 0.174 77.918
13727.167 0.175 77.881 0.978 -10.088 0.978 -10.088 0.175 77.881
13752.125 0.176 77.843 0.978 -10.135 0.978 -10.135 0.176 77.843
13777.083 0.177 77.806 0.978 -10.182 0.978 -10.182 0.177 77.806
13802.042 0.178 77.768 0.978 -10.229 0.978 -10.229 0.178 77.768
13827 0.178 77.731 0.978 -10.275 0.978 -10.275 0.178 77.731
13851.958 0.179 77.693 0.978 -10.322 0.978 -10.322 0.179 77.693
13876.917 0.18 77.656 0.977 -10.369 0.977 -10.369 0.18 77.656
13901.875 0.181 77.618 0.977 -10.416 0.977 -10.416 0.181 77.618
13926.833 0.182 77.581 0.977 -10.462 0.977 -10.462 0.182 77.581
13951.792 0.182 77.543 0.977 -10.509 0.977 -10.509 0.182 77.543
13976.75 0.183 77.505 0.977 -10.555 0.977 -10.555 0.183 77.505
14001.708 0.184 77.468 0.977 -10.601 0.977 -10.601 0.184 77.468
14026.667 0.185 77.43 0.977 -10.648 0.977 -10.648 0.185 77.43
14051.625 0.186 77.392 0.976 -10.694 0.976 -10.694 0.186 77.392
14076.583 0.186 77.354 0.976 -10.74 0.976 -10.74 0.186 77.354
14101.542 0.187 77.317 0.976 -10.786 0.976 -10.786 0.187 77.317
14126.5 0.188 77.279 0.976 -10.832 0.976 -10.832 0.188 77.279
14151.458 0.189 77.241 0.976 -10.878 0.976 -10.878 0.189 77.241
14176.417 0.19 77.203 0.976 -10.924 0.976 -10.924 0.19 77.203
14201.375 0.19 77.165 0.976 -10.97 0.976 -10.97 0.19 77.165
14226.333 0.191 77.127 0.975 -11.016 0.975 -11.016 0.191 77.127
14251.292 0.192 77.09 0.975 -11.062 0.975 -11.062 0.192 77.09
14276.25 0.193 77.052 0.975 -11.107 0.975 -11.107 0.193 77.052
14301.208 0.194 77.014 0.975 -11.153 0.975 -11.153 0.194 77.014
14326.167 0.194 76.976 0.975 -11.198 0.975 -11.198 0.194 76.976
14351.125 0.195 76.938 0.975 -11.244 0.975 -11.244 0.195 76.938
14376.083 0.196 76.9 0.974 -11.289 0.974 -11.289 0.196 76.9
14401.042 0.197 76.862 0.974 -11.335 0.974 -11.335 0.197 76.862
14426 0.197 76.824 0.974 -11.38 0.974 -11.38 0.197 76.824
14450.958 0.198 76.786 0.974 -11.425 0.974 -11.425 0.198 76.786
14475.917 0.199 76.748 0.974 -11.47 0.974 -11.47 0.199 76.748
14500.875 0.2 76.71 0.974 -11.516 0.974 -11.516 0.2 76.71
14525.833 0.201 76.672 0.974 -11.561 0.974 -11.561 0.201 76.672
14550.792 0.201 76.634 0.973 -11.606 0.973 -11.606 0.201 76.634
14575.75 0.202 76.596 0.973 -11.651 0.973 -11.651 0.202 76.596
14600.708 0.203 76.558 0.973 -11.696 0.973 -11.696 0.203 76.558
14625.667 0.204 76.52 0.973 -11.74 0.973 -11.74 0.204 76.52
14650.625 0.204 76.482 0.973 -11.785 0.973 -11.785 0.204 76.482
14675.583 0.205 76.444 0.973 -11.83 0.973 -11.83 0.205 76.444
14700.542 0.206 76.406 0.972 -11.875 0.972 -11.875 0.206 76.406
14725.5 0.207 76.368 0.972 -11.919 0.972 -11.919 0.207 76.368
14750.458 0.207 76.33 0.972 -11.964 0.972 -11.964 0.207 76.33
14775.417 0.208 76.292 0.972 -12.008 0.972 -12.008 0.208 76.292
14800.375 0.209 76.254 0.972 -12.053 0.972 -12.053 0.209 76.254
14825.333 0.21 76.216 0.972 -12.097 0.972 -12.097 0.21 76.216
14850.292 0.21 76.178 0.971 -12.141 0.971 -12.141 0.21 76.178
14875.25 0.211 76.14 0.971 -12.186 0.971 -12.186 0.211 76.14
14900.208 0.212 76.102 0.971 -12.23 0.971 -12.23 0.212 76.102
14925.167 0.213 76.064 0.971 -12.274 0.971 -12.274 0.213 76.064
14950.125 0.213 76.027 0.971 -12.318 0.971 -12.318 0.213 76.027
14975.083 0.214 75.989 0.971 -12.362 0.971 -12.362 0.214 75.989
15000.042 0.215 75.951 0.97 -12.406 0.97 -12.406 0.215 75.951
15025 0.216 75.913 0.97 -12.45 0.97 -12.45 0.216 75.913
15049.958 0.216 75.875 0.97 -12.494 0.97 -12.494 0.216 75.875
15074.917 0.217 75.837 0.97 -12.538 0.97 -12.538 0.217 75.837
15099.875 0.218 75.799 0.97 -12.582 0.97 -12.582 0.218 75.799
15124.833 0.219 75.761 0.97 -12.625 0.97 -12.625 0.219 75.761
15149.792 0.219 75.723 0.969 -12.669 0.969 -12.669 0.219 75.723
15174.75 0.22 75.685 0.969 -12.713 0.969 -12.713 0.22 75.685
15199.708 0.221 75.647 0.969 -12.756 0.969 -12.756 0.221 75.647
15224.667 0.222 75.609 0.969 -12.8 0.969 -12.8 0.222 75.609
15249.625 0.222 75.571 0.969 -12.843 0.969 -12.843 0.222 75.571
15274.583 0.223 75.533 0.969 -12.887 0.969 -12.887 0.223 75.533
15299.542 0.224 75.495 0.968 -12.93 0.968 -12.93 0.224 75.495
15324.5 0.225 75.458 0.968 -12.973 0.968 -12.973 0.225 75.458
15349.458 0.225 75.42 0.968 -13.017 0.968 -13.017 0.225 75.42
15374.417 0.226 75.382 0.968 -13.06 0.968 -13.06 0.226 75.382
15399.375 0.227 75.344 0.968 -13.103 0.968 -13.103 0.227 75.344
15424.333 0.228 75.306 0.968 -13.146 0.968 -13.146 0.228 75.306
15449.292 0.228 75.268 0.967 -13.189 0.967 -13.189 0.228 75.268
15474.25 0.229 75.231 0.967 -13.232 0.967 -13.232 0.229 75.231
15499.208 0.23 75.193 0.967 -13.275 0.967 -13.275 0.23 75.193
15524.167 0.23 75.155 0.967 -13.318 0.967 -13.318 0.23 75.155
15549.125 0.231 75.117 0.967 -13.361 0.967 -13.361 0.231 75.117
15574.083 0.232 75.08 0.967 -13.404 0.967 -13.404 0.232 75.08
15599.042 0.233 75.042 0.966 -13.446 0.966 -13.446 0.233 75.042
15624 0.233 75.004 0.966 -13.489 0.966 -13.489 0.233 75.004
15648.958 0.234 74.966 0.966 -13.532 0.966 -13.532 0.234 74.966
15673.917 0.235 74.929 0.966 -13.574 0.966 -13.574 0.235 74.929
15698.875 0.236 74.891 0.966 -13.617 0.966 -13.617 0.236 74.891
15723.833 0.236 74.853 0.966 -13.659 0.966 -13.659 0.236 74.853
15748.792 0.237 74.816 0.965 -13.702 0.965 -13.702 0.237 74.816
15773.75 0.238 74.778 0.965 -13.744 0.965 -13.744 0.238 74.778
15798.708 0.238 74.74 0.965 -13.786 0.965 -13.786 0.238 74.74
15823.667 0.239 74.703 0.965 -13.829 0.965 -13.829 0.239 74.703
15848.625 0.24 74.665 0.965 -13.871 0.965 -13.871 0.24 74.665
15873.583 0.241 74.628 0.965 -13.913 0.965 -13.913 0.241 74.628
15898.542 0.241 74.59 0.964 -13.955 0.964 -13.955 0.241 74.59
15923.5 0.242 74.553 0.964 -13.997 0.964 -13.997 0.242 74.553
15948.458 0.243 74.515 0.964 -14.039 0.964 -14.039 0.243 74.515
15973.417 0.243 74.478 0.964 -14.081 0.964 -14.081 0.243 74.478
15998.375 0.244 74.44 0.964 -14.123 0.964 -14.123 0.244 74.44
16023.333 0.245 74.403 0.963 -14.165 0.963 -14.165 0.245 74.403
16048.292 0.246 74.365 0.963 -14.207 0.963 -14.207 0.246 74.365
16073.25 0.246 74.328 0.963 -14.249 0.963 -14.249 0.246 74.328
16098.208 0.247 74.29 0.963 -14.291 0.963 -14.291 0.247 74.29
16123.167 0.248 74.253 0.963 -14.332 0.963 -14.332 0.248 74.253
16148.125 0.248 74.215 0.963 -14.374 0.963 -14.374 0.248 74.215
16173.083 0.249 74.178 0.962 -14.416 0.962 -14.416 0.249 74.178
16198.042 0.25 74.141 0.962 -14.457 0.962 -14.457 0.25 74.141
16223 0.25 74.103 0.962 -14.499 0.962 -14.499 0.25 74.103
16247.958 0.251 74.066 0.962 -14.54 0.962 -14.54 0.251 74.066
16272.917 0.252 74.029 0.962 -14.582 0.962 -14.582 0.252 74.029
16297.875 0.253 73.991 0.962 -14.623 0.962 -14.623 0.253 73.991
16322.833 0.253 73.954 0.961 -14.664 0.961 -14.664 0.253 73.954
16347.792 0.254 73.917 0.961 -14.706 0.961 -14.706 0.254 73.917
16372.75 0.255 73.88 0.961 -14.747 0.961 -14.747 0.255 73.88
16397.708 0.255 73.843 0.961 -14.788 0.961 -14.788 0.255 73.843
16422.667 0.256 73.805 0.961 -14.829 0.961 -14.829 0.256 73.805
16447.625 0.257 73.768 0.96 -14.87 0.96 -14.87 0.257 73.768
16472.583 0.257 73.731 0.96 -14.911 0.96 -14.911 0.257 73.731
16497.542 0.258 73.694 0.96 -14.952 0.96 -14.952 0.258 73.694
16522.5 0.259 73.657 0.96 -14.993 0.96 -14.993 0.259 73.657
16547.458 0.259 73.62 0.96 -15.034 0.96 -15.034 0.259 73.62
16572.417 0.26 73.583 0.959 -15.075 0.959 -15.075 0.26 73.583
16597.375 0.261 73.546 0.959 -15.116 0.959 -15.116 0.261 73.546
16622.333 0.262 73.509 0.959 -15.157 0.959 -15.157 0.262 73.509
16647.292 0.262 73.472 0.959 -15.198 0.959 -15.198 0.262 73.472
16672.25 0.263 73.435 0.959 -15.238 0.959 -15.238 0.263 73.435
16697.208 0.264 73.398 0.959 -15.279 0.959 -15.279 0.264 73.398
16722.167 0.264 73.361 0.958 -15.32 0.958 -15.32 0.264 73.361
16747.125 0.265 73.324 0.958 -15.36 0.958 -15.36 0.265 73.324
16772.083 0.266 73.287 0.958 -15.401 0.958 -15.401 0.266 73.287
16797.042 0.266 73.25 0.958 -15.441 0.958 -15.441 0.266 73.25
16822 0.267 73.213 0.958 -15.482 0.958 -15.482 0.267 73.213
16846.958 0.268 73.176 0.957 -15.522 0.957 -15.522 0.268 73.176
16871.917 0.268 73.14 0.957 -15.562 0.957 -15.562 0.268 73.14
16896.875 0.269 73.103 0.957 -15.603 0.957 -15.603 0.269 73.103
16921.833 0.27 73.066 0.957 -15.643 0.957 -15.643 0.27 73.066
16946.792 0.27 73.029 0.957 -15.683 0.957 -15.683 0.27 73.029
16971.75 0.271 72.992 0.957 -15.723 0.957 -15.723 0.271 72.992
16996.708 0.272 72.956 0.956 -15.764 0.956 -15.764 0.272 72.956
17021.667 0.272 72.919 0.956 -15.804 0.956 -15.804 0.272 72.919
17046.625 0.273 72.882 0.956 -15.844 0.956 -15.844 0.273 72.882
17071.583 0.274 72.846 0.956 -15.884 0.956 -15.884 0.274 72.846
17096.542 0.274 72.809 0.956 -15.924 0.956 -15.924 0.274 72.809
17121.5 0.275 72.773 0.955 -15.964 0.955 -15.964 0.275 72.773
17146.458 0.276 72.736 0.955 -16.004 0.955 -16.004 0.276 72.736
17171.417 0.276 72.699 0.955 -16.043 0.955 -16.043 0.276 72.699
17196.375 0.277 72.663 0.955 -16.083 0.955 -16.083 0.277 72.663
17221.333 0.278 72.626 0.955 -16.123 0.955 -16.123 0.278 72.626
17246.292 0.278 72.59 0.954 -16.163 0.954 -16.163 0.278 72.59
17271.25 0.279 72.553 0.954 -16.202 0.954 -16.202 0.279 72.553
17296.208 0.28 72.517 0.954 -16.242 0.954 -16.242 0.28 72.517
17321.167 0.28 72.481 0.954 -16.282 0.954 -16.282 0.28 72.481
17346.125 0.281 72.444 0.954 -16.321 0.954 -16.321 0.281 72.444
17371.083 0.282 72.408 0.953 -16.361 0.953 -16.361 0.282 72.408
17396.042 0.282 72.371 0.953 -16.4 0.953 -16.4 0.282 72.371
17421 0.283 72.335 0.953 -16.44 0.953 -16.44 0.283 72.335
17445.958 0.284 72.299 0.953 -16.479 0.953 -16.479 0.284 72.299
17470.917 0.284 72.263 0.953 -16.518 0.953 -16.518 0.284 72.263
17495.875 0.285 72.226 0.952 -16.558 0.952 -16.558 0.285 72.226
17520.833 0.286 72.19 0.952 -16.597 0.952 -16.597 0.286 72.19
17545.792 0.286 72.154 0.952 -16.636 0.952 -16.636 0.286 72.154
17570.75 0.287 72.118 0.952 -16.675 0.952 -16.675 0.287 72.118
17595.708 0.288 72.082 0.952 -16.715 0.952 -16.715 0.288 72.082
17620.667 0.288 72.045 0.952 -16.754 0.952 -16.754 0.288 72.045
17645.625 0.289 72.009 0.951 -16.793 0.951 -16.793 0.289 72.009
17670.583 0.29 71.973 0.951 -16.832 0.951 -16.832 0.29 71.973
17695.542 0.29 71.937 0.951 -16.871 0.951 -16.871 0.29 71.937
17720.5 0.291 71.901 0.951 -16.91 0.951 -16.91 0.291 71.901
17745.458 0.292 71.865 0.951 -16.949 0.951 -16.949 0.292 71.865
17770.417 0.292 71.829 0.95 -16.988 0.95 -16.988 0.292 71.829
17795.375 0.293 71.793 0.95 -17.026 0.95 -17.026 0.293 71.793
17820.333 0.294 71.757 0.95 -17.065 0.95 -17.065 0.294 71.757
17845.292 0.294 71.721 0.95 -17.104 0.95 -17.104 0.294 71.721
17870.25 0.295 71.685 0.95 -17.143 0.95 -17.143 0.295 71.685
17895.208 0.295 71.649 0.949 -17.181 0.949 -17.181 0.295 71.649
17920.167 0.296 71.614 0.949 -17.22 0.949 -17.22 0.296 71.614
17945.125 0.297 71.578 0.949 -17.259 0.949 -17.259 0.297 71.578
17970.083 0.297 71.542 0.949 -17.297 0.949 -17.297 0.297 71.542
17995.042 0.298 71.506 0.949 -17.336 0.949 -17.336 0.298 71.506
18020 0.299 71.47 0.948 -17.374 0.948 -17.374 0.299 71.47
18044.958 0.299 71.435 0.948 -17.413 0.948 -17.413 0.299 71.435
18069.917 0.3 71.399 0.948 -17.451 0.948 -17.451 0.3 71.399
18094.875 0.301 71.363 0.948 -17.49 0.948 -17.49 0.301 71.363
18119.833 0.301 71.327 0.948 -17.528 0.948 -17.528 0.301 71.327
18144.792 0.302 71.292 0.947 -17.566 0.947 -17.566 0.302 71.292
18169.75 0.303 71.256 0.947 -17.604 0.947 -17.604 0.303 71.256
18194.708 0.303 71.221 0.947 -17.643 0.947 -17.643 0.303 71.221
18219.667 0.304 71.185 0.947 -17.681 0.947 -17.681 0.304 71.185
18244.625 0.304 71.15 0.947 -17.719 0.947 -17.719 0.304 71.15
18269.583 0.305 71.114 0.946 -17.757 0.946 -17.757 0.305 71.114
18294.542 0.306 71.078 0.946 -17.795 0.946 -17.795 0.306 71.078
18319.5 0.306 71.043 0.946 -17.833 0.946 -17.833 0.306 71.043
18344.458 0.307 71.008 0.946 -17.871 0.946 -17.871 0.307 71.008
18369.417 0.308 70.972 0.946 -17.909 0.946 -17.909 0.308 70.972
18394.375 0.308 70.937 0.945 -17.947 0.945 -17.947 0.308 70.937
18419.333 0.309 70.901 0.945 -17.985 0.945 -17.985 0.309 70.901
18444.292 0.309 70.866 0.945 -18.023 0.945 -18.023 0.309 70.866
18469.25 0.31 70.831 0.945 -18.061 0.945 -18.061 0.31 70.831
18494.208 0.311 70.795 0.945 -18.099 0.945 -18.099 0.311 70.795
18519.167 0.311 70.76 0.944 -18.136 0.944 -18.136 0.311 70.76
18544.125 0.312 70.725 0.944 -18.174 0.944 -18.174 0.312 70.725
18569.083 0.313 70.69 0.944 -18.212 0.944 -18.212 0.313 70.69
18594.042 0.313 70.654 0.944 -18.249 0.944 -18.249 0.313 70.654
18619 0.314 70.619 0.944 -18.287 0.944 -18.287 0.314 70.619
18643.958 0.314 70.584 0.943 -18.324 0.943 -18.324 0.314 70.584
18668.917 0.315 70.549 0.943 -18.362 0.943 -18.362 0.315 70.549
18693.875 0.316 70.514 0.943 -18.399 0.943 -18.399 0.316 70.514
18718.833 0.316 70.479 0.943 -18.437 0.943 -18.437 0.316 70.479
18743.792 0.317 70.444 0.942 -18.474 0.942 -18.474 0.317 70.444
18768.75 0.318 70.408 0.942 -18.512 0.942 -18.512 0.318 70.408
18793.708 0.318 70.373 0.942 -18.549 0.942 -18.549 0.318 70.373
18818.667 0.319 70.338 0.942 -18.586 0.942 -18.586 0.319 70.338
18843.625 0.319 70.304 0.942 -18.624 0.942 -18.624 0.319 70.304
18868.583 0.32 70.269 0.941 -18.661 0.941 -18.661 0.32 70.269
18893.542 0.321 70.234 0.941 -18.698 0.941 -18.698 0.321 70.234
18918.5 0.321 70.199 0.941 -18.735 0.941 -18.735 0.321 70.199
18943.458 0.322 70.164 0.941 -18.772 0.941 -18.772 0.322 70.164
18968.417 0.322 70.129 0.941 -18.81 0.941 -18.81 0.322 70.129
18993.375 0.323 70.094 0.94 -18.847 0.94 -18.847 0.323 70.094
19018.333 0.324 70.059 0.94 -18.884 0.94 -18.884 0.324 70.059
19043.292 0.324 70.025 0.94 -18.921 0.94 -18.921 0.324 70.025
19068.25 0.325 69.99 0.94 -18.958 0.94 -18.958 0.325 69.99
19093.208 0.326 69.955 0.94 -18.995 0.94 -18.995 0.326 69.955
19118.167 0.326 69.92 0.939 -19.032 0.939 -19.032 0.326 69.92
19143.125 0.327 69.886 0.939 -19.068 0.939 -19.068 0.327 69.886
19168.083 0.327 69.851 0.939 -19.105 0.939 -19.105 0.327 69.851
19193.042 0.328 69.816 0.939 -19.142 0.939 -19.142 0.328 69.816
19218 0.329 69.782 0.939 -19.179 0.939 -19.179 0.329 69.782
19242.958 0.329 69.747 0.938 -19.215 0.938 -19.215 0.329 69.747
19267.917 0.33 69.713 0.938 -19.252 0.938 -19.252 0.33 69.713
19292.875 0.33 69.678 0.938 -19.289 0.938 -19.289 0.33 69.678
19317.833 0.331 69.644 0.938 -19.325 0.938 -19.325 0.331 69.644
19342.792 0.332 69.609 0.937 -19.362 0.937 -19.362 0.332 69.609
19367.75 0.332 69.575 0.937 -19.399 0.937 -19.399 0.332 69.575
19392.708 0.333 69.54 0.937 -19.435 0.937 -19.435 0.333 69.54
19417.667 0.333 69.506 0.937 -19.472 0.937 -19.472 0.333 69.506
19442.625 0.334 69.471 0.937 -19.508 0.937 -19.508 0.334 69.471
19467.583 0.335 69.437 0.936 -19.545 0.936 -19.545 0.335 69.437
19492.542 0.335 69.403 0.936 -19.581 0.936 -19.581 0.335 69.403
19517.5 0.336 69.368 0.936 -19.617 0.936 -19.617 0.336 69.368
19542.458 0.336 69.334 0.936 -19.654 0.936 -19.654 0.336 69.334
19567.417 0.337 69.3 0.936 -19.69 0.936 -19.69 0.337 69.3
19592.375 0.338 69.266 0.935 -19.726 0.935 -19.726 0.338 69.266
19617.333 0.338 69.231 0.935 -19.762 0.935 -19.762 0.338 69.231
19642.292 0.339 69.197 0.935 -19.799 0.935 -19.799 0.339 69.197
19667.25 0.339 69.163 0.935 -19.835 0.935 -19.835 0.339 69.163
19692.208 0.34 69.129 0.935 -19.871 0.935 -19.871 0.34 69.129
19717.167 0.341 69.095 0.934 -19.907 0.934 -19.907 0.341 69.095
19742.125 0.341 69.061 0.934 -19.943 0.934 -19.943 0.341 69.061
19767.083 0.342 69.027 0.934 -19.979 0.934 -19.979 0.342 69.027
19792.042 0.342 68.993 0.934 -20.015 0.934 -20.015 0.342 68.993
19817 0.343 68.958 0.933 -20.051 0.933 -20.051 0.343 68.958
19841.958 0.343 68.924 0.933 -20.087 0.933 -20.087 0.343 68.924
19866.917 0.344 68.89 0.933 -20.123 0.933 -20.123 0.344 68.89
19891.875 0.345 68.857 0.933 -20.159 0.933 -20.159 0.345 68.857
19916.833 0.345 68.823 0.933 -20.194 0.933 -20.194 0.345 68.823
19941.792 0.346 68.789 0.932 -20.23 0.932 -20.23 0.346 68.789
19966.75 0.346 68.755 0.932 -20.266 0.932 -20.266 0.346 68.755
19991.708 0.347 68.721 0.932 -20.302 0.932 -20.302 0.347 68.721
20016.667 0.348 68.687 0.932 -20.338 0.932 -20.338 0.348 68.687
20041.625 0.348 68.653 0.932 -20.373 0.932 -20.373 0.348 68.653
20066.583 0.349 68.62 0.931 -20.409 0.931 -20.409 0.349 68.62
20091.542 0.349 68.586 0.931 -20.444 0.931 -20.444 0.349 68.586
20116.5 0.35 68.552 0.931 -20.48 0.931 -20.48 0.35 68.552
20141.458 0.351 68.518 0.931 -20.516 0.931 -20.516 0.351 68.518
20166.417 0.351 68.485 0.93 -20.551 0.93 -20.551 0.351 68.485
20191.375 0.352 68.451 0.93 -20.587 0.93 -20.587 0.352 68.451
20216.333 0.352 68.417 0.93 -20.622 0.93 -20.622 0.352 68.417
20241.292 0.353 68.384 0.93 -20.657 0.93 -20.657 0.353 68.384
20266.25 0.353 68.35 0.93 -20.693 0.93 -20.693 0.353 68.35
20291.208 0.354 68.316 0.929 -20.728 0.929 -20.728 0.354 68.316
20316.167 0.355 68.283 0.929 -20.763 0.929 -20.763 0.355 68.283
20341.125 0.355 68.249 0.929 -20.799 0.929 -20.799 0.355 68.249
20366.083 0.356 68.216 0.929 -20.834 0.929 -20.834 0.356 68.216
20391.042 0.356 68.182 0.928 -20.869 0.928 -20.869 0.356 68.182
20416 0.357 68.149 0.928 -20.904 0.928 -20.904 0.357 68.149
20440.958 0.357 68.116 0.928 -20.94 0.928 -20.94 0.357 68.116
20465.917 0.358 68.082 0.928 -20.975 0.928 -20.975 0.358 68.082
20490.875 0.359 68.049 0.928 -21.01 0.928 -21.01 0.359 68.049
20515.833 0.359 68.015 0.927 -21.045 0.927 -21.045 0.359 68.015
20540.792 0.36 67.982 0.927 -21.08 0.927 -21.08 0.36 67.982
20565.75 0.36 67.949 0.927 -21.115 0.927 -21.115 0.36 67.949
20590.708 0.361 67.915 0.927 -21.15 0.927 -21.15 0.361 67.915
20615.667 0.361 67.882 0.927 -21.185 0.927 -21.185 0.361 67.882
20640.625 0.362 67.849 0.926 -21.22 0.926 -21.22 0.362 67.849
20665.583 0.363 67.816 0.926 -21.255 0.926 -21.255 0.363 67.816
20690.542 0.363 67.783 0.926 -21.29 0.926 -21.29 0.363 67.783
20715.5 0.364 67.749 0.926 -21.324 0.926 -21.324 0.364 67.749
20740.458 0.364 67.716 0.925 -21.359 0.925 -21.359 0.364 67.716
20765.417 0.365 67.683 0.925 -21.394 0.925 -21.394 0.365 67.683
20790.375 0.365 67.65 0.925 -21.429 0.925 -21.429 0.365 67.65
20815.333 0.366 67.617 0.925 -21.464 0.925 -21.464 0.366 67.617
20840.292 0.367 67.584 0.925 -21.498 0.925 -21.498 0.367 67.584
20865.25 0.367 67.551 0.924 -21.533 0.924 -21.533 0.367 67.551
20890.208 0.368 67.518 0.924 -21.567 0.924 -21.567 0.368 67.518
20915.167 0.368 67.485 0.924 -21.602 0.924 -21.602 0.368 67.485
20940.125 0.369 67.452 0.924 -21.637 0.924 -21.637 0.369 67.452
20965.083 0.369 67.419 0.923 -21.671 0.923 -21.671 0.369 67.419
20990.042 0.37 67.386 0.923 -21.706 0.923 -21.706 0.37 67.386
21015 0.37 67.353 0.923 -21.74 0.923 -21.74 0.37 67.353
21039.958 0.371 67.32 0.923 -21.775 0.923 -21.775 0.371 67.32
21064.917 0.372 67.288 0.923 -21.809 0.923 -21.809 0.372 67.288
21089.875 0.372 67.255 0.922 -21.843 0.922 -21.843 0.372 67.255
21114.833 0.373 67.222 0.922 -21.878 0.922 -21.878 0.373 67.222
21139.792 0.373 67.189 0.922 -21.912 0.922 -21.912 0.373 67.189
21164.75 0.374 67.156 0.922 -21.946 0.922 -21.946 0.374 67.156
21189.708 0.374 67.124 0.921 -21.981 0.921 -21.981 0.374 67.124
21214.667 0.375 67.091 0.921 -22.015 0.921 -22.015 0.375 67.091
21239.625 0.375 67.058 0.921 -22.049 0.921 -22.049 0.375 67.058
21264.583 0.376 67.026 0.921 -22.083 0.921 -22.083 0.376 67.026
21289.542 0.377 66.993 0.921 -22.117 0.921 -22.117 0.377 66.993
21314.5 0.377 66.96 0.92 -22.151 0.92 -22.151 0.377 66.96
21339.458 0.378 66.928 0.92 -22.186 0.92 -22.186 0.378 66.928
21364.417 0.378 66.895 0.92 -22.22 0.92 -22.22 0.378 66.895
21389.375 0.379 66.863 0.92 -22.254 0.92 -22.254 0.379 66.863
21414.333 0.379 66.83 0.919 -22.288 0.919 -22.288 0.379 66.83
21439.292 0.38 66.798 0.919 -22.322 0.919 -22.322 0.38 66.798
21464.25 0.38 66.765 0.919 -22.356 0.919 -22.356 0.38 66.765
21489.208 0.381 66.733 0.919 -22.39 0.919 -22.39 0.381 66.733
21514.167 0.381 66.7 0.919 -22.423 0.919 -22.423 0.381 66.7
21539.125 0.382 66.668 0.918 -22.457 0.918 -22.457 0.382 66.668
21564.083 0.383 66.636 0.918 -22.491 0.918 -22.491 0.383 66.636
21589.042 0.383 66.603 0.918 -22.525 0.918 -22.525 0.383 66.603
21614 0.384 66.571 0.918 -22.559 0.918 -22.559 0.384 66.571
21638.958 0.384 66.539 0.917 -22.592 0.917 -22.592 0.384 66.539
21663.917 0.385 66.506 0.917 -22.626 0.917 -22.626 0.385 66.506
21688.875 0.385 66.474 0.917 -22.66 0.917 -22.66 0.385 66.474
21713.833 0.386 66.442 0.917 -22.693 0.917 -22.693 0.386 66.442
21738.792 0.386 66.41 0.917 -22.727 0.917 -22.727 0.386 66.41
21763.75 0.387 66.378 0.916 -22.761 0.916 -22.761 0.387 66.378
21788.708 0.387 66.345 0.916 -22.794 0.916 -22.794 0.387 66.345
21813.667 0.388 66.313 0.916 -22.828 0.916 -22.828 0.388 66.313
21838.625 0.389 66.281 0.916 -22.861 0.916 -22.861 0.389 66.281
21863.583 0.389 66.249 0.915 -22.895 0.915 -22.895 0.389 66.249
21888.542 0.39 66.217 0.915 -22.928 0.915 -22.928 0.39 66.217
21913.5 0.39 66.185 0.915 -22.962 0.915 -22.962 0.39 66.185
21938.458 0.391 66.153 0.915 -22.995 0.915 -22.995 0.391 66.153
21963.417 0.391 66.121 0.915 -23.029 0.915 -23.029 0.391 66.121
21988.375 0.392 66.089 0.914 -23.062 0.914 -23.062 0.392 66.089
22013.333 0.392 66.057 0.914 -23.095 0.914 -23.095 0.392 66.057
22038.292 0.393 66.025 0.914 -23.129 0.914 -23.129 0.393 66.025
22063.25 0.393 65.993 0.914 -23.162 0.914 -23.162 0.393 65.993
22088.208 0.394 65.961 0.913 -23.195 0.913 -23.195 0.394 65.961
22113.167 0.394 65.929 0.913 -23.228 0.913 -23.228 0.394 65.929
22138.125 0.395 65.897 0.913 -23.261 0.913 -23.261 0.395 65.897
22163.083 0.396 65.866 0.913 -23.295 0.913 -23.295 0.396 65.866
22188.042 0.396 65.834 0.912 -23.328 0.912 -23.328 0.396 65.834
22213 0.397 65.802 0.912 -23.361 0.912 -23.361 0.397 65.802
22237.958 0.397 65.77 0.912 -23.394 0.912 -23.394 0.397 65.77
22262.917 0.398 65.739 0.912 -23.427 0.912 -23.427 0.398 65.739
22287.875 0.398 65.707 0.912 -23.46 0.912 -23.46 0.398 65.707
22312.833 0.399 65.675 0.911 -23.493 0.911 -23.493 0.399 65.675
22337.792 0.399 65.644 0.911 -23.526 0.911 -23.526 0.399 65.644
22362.75 0.4 65.612 0.911 -23.559 0.911 -23.559 0.4 65.612
22387.708 0.4 65.58 0.911 -23.592 0.911 -23.592 0.4 65.58
22412.667 0.401 65.549 0.91 -23.625 0.91 -23.625 0.401 65.549
22437.625 0.401 65.517 0.91 -23.658 0.91 -23.658 0.401 65.517
22462.583 0.402 65.486 0.91 -23.69 0.91 -23.69 0.402 65.486
22487.542 0.402 65.454 0.91 -23.723 0.91 -23.723 0.402 65.454
22512.5 0.403 65.423 0.909 -23.756 0.909 -23.756 0.403 65.423
22537.458 0.403 65.391 0.909 -23.789 0.909 -23.789 0.403 65.391
22562.417 0.404 65.36 0.909 -23.821 0.909 -23.821 0.404 65.36
22587.375 0.404 65.328 0.909 -23.854 0.909 -23.854 0.404 65.328
22612.333 0.405 65.297 0.909 -23.887 0.909 -23.887 0.405 65.297
22637.292 0.405 65.265 0.908 -23.919 0.908 -23.919 0.405 65.265
22662.25 0.406 65.234 0.908 -23.952 0.908 -23.952 0.406 65.234
22687.208 0.407 65.203 0.908 -23.985 0.908 -23.985 0.407 65.203
22712.167 0.407 65.171 0.908 -24.017 0.908 -24.017 0.407 65.171
22737.125 0.408 65.14 0.907 -24.05 0.907 -24.05 0.408 65.14
22762.083 0.408 65.109 0.907 -24.082 0.907 -24.082 0.408 65.109
22787.042 0.409 65.078 0.907 -24.115 0.907 -24.115 0.409 65.078
22812 0.409 65.046 0.907 -24.147 0.907 -24.147 0.409 65.046
22836.958 0.41 65.015 0.907 -24.18 0.907 -24.18 0.41 65.015
22861.917 0.41 64.984 0.906 -24.212 0.906 -24.212 0.41 64.984
22886.875 0.411 64.953 0.906 -24.244 0.906 -24.244 0.411 64.953
22911.833 0.411 64.922 0.906 -24.277 0.906 -24.277 0.411 64.922
22936.792 0.412 64.89 0.906 -24.309 0.906 -24.309 0.412 64.89
22961.75 0.412 64.859 0.905 -24.341 0.905 -24.341 0.412 64.859
22986.708 0.413 64.828 0.905 -24.374 0.905 -24.374 0.413 64.828
23011.667 0.413 64.797 0.905 -24.406 0.905 -24.406 0.413 64.797
23036.625 0.414 64.766 0.905 -24.438 0.905 -24.438 0.414 64.766
23061.583 0.414 64.735 0.904 -24.47 0.904 -24.47 0.414 64.735
23086.542 0.415 64.704 0.904 -24.503 0.904 -24.503 0.415 64.704
23111.5 0.415 64.673 0.904 -24.535 0.904 -24.535 0.415 64.673
23136.458 0.416 64.642 0.904 -24.567 0.904 -24.567 0.416 64.642
23161.417 0.416 64.611 0.904 -24.599 0.904 -24.599 0.416 64.611
23186.375 0.417 64.58 0.903 -24.631 0.903 -24.631 0.417 64.58
23211.333 0.417 64.55 0.903 -24.663 0.903 -24.663 0.417 64.55
23236.292 0.418 64.519 0.903 -24.695 0.903 -24.695 0.418 64.519
23261.25 0.418 64.488 0.903 -24.727 0.903 -24.727 0.418 64.488
23286.208 0.419 64.457 0.902 -24.759 0.902 -24.759 0.419 64.457
23311.167 0.419 64.426 0.902 -24.791 0.902 -24.791 0.419 64.426
23336.125 0.42 64.395 0.902 -24.823 0.902 -24.823 0.42 64.395
23361.083 0.42 64.365 0.902 -24.855 0.902 -24.855 0.42 64.365
23386.042 0.421 64.334 0.901 -24.887 0.901 -24.887 0.421 64.334
23411 0.421 64.303 0.901 -24.918 0.901 -24.918 0.421 64.303
23435.958 0.422 64.273 0.901 -24.95 0.901 -24.95 0.422 64.273
23460.917 0.422 64.242 0.901 -24.982 0.901 -24.982 0.422 64.242
23485.875 0.423 64.211 0.9 -25.014 0.9 -25.014 0.423 64.211
23510.833 0.423 64.181 0.9 -25.046 0.9 -25.046 0.423 64.181
23535.792 0.424 64.15 0.9 -25.077 0.9 -25.077 0.424 64.15
23560.75 0.424 64.12 0.9 -25.109 0.9 -25.109 0.424 64.12
23585.708 0.425 64.089 0.9 -25.141 0.9 -25.141 0.425 64.089
23610.667 0.425 64.058 0.899 -25.172 0.899 -25.172 0.425 64.058
23635.625 0.426 64.028 0.899 -25.204 0.899 -25.204 0.426 64.028
23660.583 0.426 63.997 0.899 -25.235 0.899 -25.235 0.426 63.997
23685.542 0.427 63.967 0.899 -25.267 0.899 -25.267 0.427 63.967
23710.5 0.427 63.937 0.898 -25.299 0.898 -25.299 0.427 63.937
23735.458 0.428 63.906 0.898 -25.33 0.898 -25.33 0.428 63.906
23760.417 0.428 63.876 0.898 -25.362 0.898 -25.362 0.428 63.876
23785.375 0.429 63.845 0.898 -25.393 0.898 -25.393 0.429 63.845
23810.333 0.429 63.815 0.897 -25.424 0.897 -25.424 0.429 63.815
23835.292 0.43 63.785 0.897 -25.456 0.897 -25.456 0.43 63.785
23860.25 0.43 63.754 0.897 -25.487 0.897 -25.487 0.43 63.754
23885.208 0.431 63.724 0.897 -25.519 0.897 -25.519 0.431 63.724
23910.167 0.431 63.694 0.897 -25.55 0.897 -25.55 0.431 63.694
23935.125 0.432 63.664 0.896 -25.581 0.896 -25.581 0.432 63.664
23960.083 0.432 63.633 0.896 -25.613 0.896 -25.613 0.432 63.633
23985.042 0.433 63.603 0.896 -25.644 0.896 -25.644 0.433 63.603
24010 0.433 63.573 0.896 -25.675 0.896 -25.675 0.433 63.573
24034.958 0.434 63.543 0.895 -25.706 0.895 -25.706 0.434 63.543
24059.917 0.434 63.513 0.895 -25.737 0.895 -25.737 0.434 63.513
24084.875 0.435 63.482 0.895 -25.769 0.895 -25.769 0.435 63.482
24109.833 0.435 63.452 0.895 -25.8 0.895 -25.8 0.435 63.452
24134.792 0.436 63.422 0.894 -25.831 0.894 -25.831 0.436 63.422
24159.75 0.436 63.392 0.894 -25.862 0.894 -25.862 0.436 63.392
24184.708 0.437 63.362 0.894 -25.893 0.894 -25.893 0.437 63.362
24209.667 0.437 63.332 0.894 -25.924 0.894 -25.924 0.437 63.332
24234.625 0.438 63.302 0.893 -25.955 0.893 -25.955 0.438 63.302
24259.583 0.438 63.272 0.893 -25.986 0.893 -25.986 0.438 63.272
24284.542 0.439 63.242 0.893 -26.017 0.893 -26.017 0.439 63.242
24309.5 0.439 63.212 0.893 -26.048 0.893 -26.048 0.439 63.212
24334.458 0.44 63.182 0.893 -26.079 0.893 -26.079 0.44 63.182
24359.417 0.44 63.153 0.892 -26.11 0.892 -26.11 0.44 63.153
24384.375 0.441 63.123 0.892 -26.141 0.892 -26.141 0.441 63.123
24409.333 0.441 63.093 0.892 -26.171 0.892 -26.171 0.441 63.093
24434.292 0.442 63.063 0.892 -26.202 0.892 -26.202 0.442 63.063
24459.25 0.442 63.033 0.891 -26.233 0.891 -26.233 0.442 63.033
24484.208 0.443 63.003 0.891 -26.264 0.891 -26.264 0.443 63.003
24509.167 0.443 62.974 0.891 -26.295 0.891 -26.295 0.443 62.974
24534.125 0.444 62.944 0.891 -26.325 0.891 -26.325 0.444 62.944
24559.083 0.444 62.914 0.89 -26.356 0.89 -26.356 0.444 62.914
24584.042 0.444 62.885 0.89 -26.387 0.89 -26.387 0.444 62.885
24609 0.445 62.855 0.89 -26.417 0.89 -26.417 0.445 62.855
24633.958 0.445 62.825 0.89 -26.448 0.89 -26.448 0.445 62.825
24658.917 0.446 62.796 0.889 -26.479 0.889 -26.479 0.446 62.796
24683.875 0.446 62.766 0.889 -26.509 0.889 -26.509 0.446 62.766
24708.833 0.447 62.736 0.889 -26.54 0.889 -26.54 0.447 62.736
24733.792 0.447 62.707 0.889 -26.57 0.889 -26.57 0.447 62.707
24758.75 0.448 62.677 0.889 -26.601 0.889 -26.601 0.448 62.677
24783.708 0.448 62.648 0.888 -26.631 0.888 -26.631 0.448 62.648
24808.667 0.449 62.618 0.888 -26.662 0.888 -26.662 0.449 62.618
24833.625 0.449 62.589 0.888 -26.692 0.888 -26.692 0.449 62.589
24858.583 0.45 62.559 0.888 -26.723 0.888 -26.723 0.45 62.559
24883.542 0.45 62.53 0.887 -26.753 0.887 -26.753 0.45 62.53
24908.5 0.451 62.5 0.887 -26.783 0.887 -26.783 0.451 62.5
24933.458 0.451 62.471 0.887 -26.814 0.887 -26.814 0.451 62.471
24958.417 0.452 62.442 0.887 -26.844 0.887 -26.844 0.452 62.442
24983.375 0.452 62.412 0.886 -26.874 0.886 -26.874 0.452 62.412
25008.333 0.453 62.383 0.886 -26.905 0.886 -26.905 0.453 62.383
25033.292 0.453 62.354 0.886 -26.935 0.886 -26.935 0.453 62.354
25058.25 0.453 62.324 0.886 -26.965 0.886 -26.965 0.453 62.324
25083.208 0.454 62.295 0.885 -26.995 0.885 -26.995 0.454 62.295
25108.167 0.454 62.266 0.885 -27.025 0.885 -27.025 0.454 62.266
25133.125 0.455 62.237 0.885 -27.056 0.885 -27.056 0.455 62.237
25158.083 0.455 62.207 0.885 -27.086 0.885 -27.086 0.455 62.207
25183.042 0.456 62.178 0.884 -27.116 0.884 -27.116 0.456 62.178
25208 0.456 62.149 0.884 -27.146 0.884 -27.146 0.456 62.149
25232.958 0.457 62.12 0.884 -27.176 0.884 -27.176 0.457 62.12
25257.917 0.457 62.091 0.884 -27.206 0.884 -27.206 0.457 62.091
25282.875 0.458 62.062 0.884 -27.236 0.884 -27.236 0.458 62.062
25307.833 0.458 62.032 0.883 -27.266 0.883 -27.266 0.458 62.032
25332.792 0.459 62.003 0.883 -27.296 0.883 -27.296 0.459 62.003
25357.75 0.459 61.974 0.883 -27.326 0.883 -27.326 0.459 61.974
25382.708 0.46 61.945 0.883 -27.356 0.883 -27.356 0.46 61.945
25407.667 0.46 61.916 0.882 -27.386 0.882 -27.386 0.46 61.916
25432.625 0.46 61.887 0.882 -27.416 0.882 -27.416 0.46 61.887
25457.583 0.461 61.858 0.882 -27.446 0.882 -27.446 0.461 61.858
25482.542 0.461 61.829 0.882 -27.475 0.882 -27.475 0.461 61.829
25507.5 0.462 61.8 0.881 -27.505 0.881 -27.505 0.462 61.8
25532.458 0.462 61.771 0.881 -27.535 0.881 -27.535 0.462 61.771
25557.417 0.463 61.743 0.881 -27.565 0.881 -27.565 0.463 61.743
25582.375 0.463 61.714 0.881 -27.595 0.881 -27.595 0.463 61.714
25607.333 0.464 61.685 0.88 -27.624 0.88 -27.624 0.464 61.685
25632.292 0.464 61.656 0.88 -27.654 0.88 -27.654 0.464 61.656
25657.25 0.465 61.627 0.88 -27.684 0.88 -27.684 0.465 61.627
25682.208 0.465 61.598 0.88 -27.713 0.88 -27.713 0.465 61.598
25707.167 0.466 61.57 0.879 -27.743 0.879 -27.743 0.466 61.57
25732.125 0.466 61.541 0.879 -27.773 0.879 -27.773 0.466 61.541
25757.083 0.466 61.512 0.879 -27.802 0.879 -27.802 0.466 61.512
25782.042 0.467 61.484 0.879 -27.832 0.879 -27.832 0.467 61.484
25807 0.467 61.455 0.879 -27.861 0.879 -27.861 0.467 61.455
25831.958 0.468 61.426 0.878 -27.891 0.878 -27.891 0.468 61.426
25856.917 0.468 61.398 0.878 -27.92 0.878 -27.92 0.468 61.398
25881.875 0.469 61.369 0.878 -27.95 0.878 -27.95 0.469 61.369
25906.833 0.469 61.34 0.878 -27.979 0.878 -27.979 0.469 61.34
25931.792 0.47 61.312 0.877 -28.009 0.877 -28.009 0.47 61.312
25956.75 0.47 61.283 0.877 -28.038 0.877 -28.038 0.47 61.283
25981.708 0.471 61.255 0.877 -28.067 0.877 -28.067 0.471 61.255
26006.667 0.471 61.226 0.877 -28.097 0.877 -28.097 0.471 61.226
26031.625 0.471 61.198 0.876 -28.126 0.876 -28.126 0.471 61.198
26056.583 0.472 61.169 0.876 -28.155 0.876 -28.155 0.472 61.169
26081.542 0.472 61.141 0.876 -28.185 0.876 -28.185 0.472 61.141
26106.5 0.473 61.112 0.876 -28.214 0.876 -28.214 0.473 61.112
26131.458 0.473 61.084 0.875 -28.243 0.875 -28.243 0.473 61.084
26156.417 0.474 61.055 0.875 -28.272 0.875 -28.272 0.474 61.055
26181.375 0.474 61.027 0.875 -28.302 0.875 -28.302 0.474 61.027
26206.333 0.475 60.999 0.875 -28.331 0.875 -28.331 0.475 60.999
26231.292 0.475 60.97 0.874 -28.36 0.874 -28.36 0.475 60.97
26256.25 0.475 60.942 0.874 -28.389 0.874 -28.389 0.475 60.942
26281.208 0.476 60.914 0.874 -28.418 0.874 -28.418 0.476 60.914
26306.167 0.476 60.885 0.874 -28.447 0.874 -28.447 0.476 60.885
26331.125 0.477 60.857 0.873 -28.476 0.873 -28.476 0.477 60.857
26356.083 0.477 60.829 0.873 -28.505 0.873 -28.505 0.477 60.829
26381.042 0.478 60.801 0.873 -28.534 0.873 -28.534 0.478 60.801
26406 0.478 60.772 0.873 -28.563 0.873 -28.563 0.478 60.772
26430.958 0.479 60.744 0.873 -28.592 0.873 -28.592 0.479 60.744
26455.917 0.479 60.716 0.872 -28.621 0.872 -28.621 0.479 60.716
26480.875 0.479 60.688 0.872 -28.65 0.872 -28.65 0.479 60.688
26505.833 0.48 60.66 0.872 -28.679 0.872 -28.679 0.48 60.66
26530.792 0.48 60.632 0.872 -28.708 0.872 -28.708 0.48 60.632
26555.75 0.481 60.604 0.871 -28.737 0.871 -28.737 0.481 60.604
26580.708 0.481 60.575 0.871 -28.766 0.871 -28.766 0.481 60.575
26605.667 0.482 60.547 0.871 -28.795 0.871 -28.795 0.482 60.547
26630.625 0.482 60.519 0.871 -28.824 0.871 -28.824 0.482 60.519
26655.583 0.483 60.491 0.87 -28.852 0.87 -28.852 0.483 60.491
26680.542 0.483 60.463 0.87 -28.881 0.87 -28.881 0.483 60.463
26705.5 0.483 60.435 0.87 -28.91 0.87 -28.91 0.483 60.435
26730.458 0.484 60.408 0.87 -28.939 0.87 -28.939 0.484 60.408
26755.417 0.484 60.38 0.869 -28.967 0.869 -28.967 0.484 60.38
26780.375 0.485 60.352 0.869 -28.996 0.869 -28.996 0.485 60.352
26805.333 0.485 60.324 0.869 -29.025 0.869 -29.025 0.485 60.324
26830.292 0.486 60.296 0.869 -29.053 0.869 -29.053 0.486 60.296
26855.25 0.486 60.268 0.868 -29.082 0.868 -29.082 0.486 60.268
26880.208 0.487 60.24 0.868 -29.11 0.868 -29.11 0.487 60.24
26905.167 0.487 60.212 0.868 -29.139 0.868 -29.139 0.487 60.212
26930.125 0.487 60.185 0.868 -29.168 0.868 -29.168 0.487 60.185
26955.083 0.488 60.157 0.867 -29.196 0.867 -29.196 0.488 60.157
26980.042 0.488 60.129 0.867 -29.225 0.867 -29.225 0.488 60.129
27005 0.489 60.101 0.867 -29.253 0.867 -29.253 0.489 60.101
27029.958 0.489 60.074 0.867 -29.282 0.867 -29.282 0.489 60.074
27054.917 0.49 60.046 0.866 -29.31 0.866 -29.31 0.49 60.046
27079.875 0.49 60.018 0.866 -29.338 0.866 -29.338 0.49 60.018
27104.833 0.49 59.991 0.866 -29.367 0.866 -29.367 0.49 59.991
27129.792 0.491 59.963 0.866 -29.395 0.866 -29.395 0.491 59.963
27154.75 0.491 59.935 0.866 -29.424 0.866 -29.424 0.491 59.935
27179.708 0.492 59.908 0.865 -29.452 0.865 -29.452 0.492 59.908
27204.667 0.492 59.88 0.865 -29.48 0.865 -29.48 0.492 59.88
27229.625 0.493 59.853 0.865 -29.509 0.865 -29.509 0.493 59.853
27254.583 0.493 59.825 0.865 -29.537 0.865 -29.537 0.493 59.825
27279.542 0.493 59.798 0.864 -29.565 0.864 -29.565 0.493 59.798
27304.5 0.494 59.77 0.864 -29.593 0.864 -29.593 0.494 59.77
27329.458 0.494 59.743 0.864 -29.622 0.864 -29.622 0.494 59.743
27354.417 0.495 59.715 0.864 -29.65 0.864 -29.65 0.495 59.715
27379.375 0.495 59.688 0.863 -29.678 0.863 -29.678 0.495 59.688
27404.333 0.496 59.66 0.863 -29.706 0.863 -29.706 0.496 59.66
27429.292 0.496 59.633 0.863 -29.734 0.863 -29.734 0.496 59.633
27454.25 0.496 59.605 0.863 -29.762 0.863 -29.762 0.496 59.605
27479.208 0.497 59.578 0.862 -29.79 0.862 -29.79 0.497 59.578
27504.167 0.497 59.551 0.862 -29.818 0.862 -29.818 0.497 59.551
27529.125 0.498 59.523 0.862 -29.847 0.862 -29.847 0.498 59.523
27554.083 0.498 59.496 0.862 -29.875 0.862 -29.875 0.498 59.496
27579.042 0.499 59.469 0.861 -29.903 0.861 -29.903 0.499 59.469
27604 0.499 59.441 0.861 -29.931 0.861 -29.931 0.499 59.441
27628.958 0.499 59.414 0.861 -29.958 0.861 -29.958 0.499 59.414
27653.917 0.5 59.387 0.861 -29.986 0.861 -29.986 0.5 59.387
27678.875 0.5 59.36 0.86 -30.014 0.86 -30.014 0.5 59.36
27703.833 0.501 59.333 0.86 -30.042 0.86 -30.042 0.501 59.333
27728.792 0.501 59.305 0.86 -30.07 0.86 -30.07 0.501 59.305
27753.75 0.502 59.278 0.86 -30.098 0.86 -30.098 0.502 59.278
27778.708 0.502 59.251 0.859 -30.126 0.859 -30.126 0.502 59.251
27803.667 0.502 59.224 0.859 -30.154 0.859 -30.154 0.502 59.224
27828.625 0.503 59.197 0.859 -30.181 0.859 -30.181 0.503 59.197
27853.583 0.503 59.17 0.859 -30.209 0.859 -30.209 0.503 59.17
27878.542 0.504 59.143 0.858 -30.237 0.858 -30.237 0.504 59.143
27903.5 0.504 59.116 0.858 -30.265 0.858 -30.265 0.504 59.116
27928.458 0.504 59.089 0.858 -30.292 0.858 -30.292 0.504 59.089
27953.417 0.505 59.062 0.858 -30.32 0.858 -30.32 0.505 59.062
27978.375 0.505 59.035 0.858 -30.348 0.858 -30.348 0.505 59.035
28003.333 0.506 59.008 0.857 -30.375 0.857 -30.375 0.506 59.008
28028.292 0.506 58.981 0.857 -30.403 0.857 -30.403 0.506 58.981
28053.25 0.507 58.954 0.857 -30.431 0.857 -30.431 0.507 58.954
28078.208 0.507 58.927 0.857 -30.458 0.857 -30.458 0.507 58.927
28103.167 0.507 58.9 0.856 -30.486 0.856 -30.486 0.507 58.9
28128.125 0.508 58.873 0.856 -30.513 0.856 -30.513 0.508 58.873
28153.083 0.508 58.846 0.856 -30.541 0.856 -30.541 0.508 58.846
28178.042 0.509 58.819 0.856 -30.568 0.856 -30.568 0.509 58.819
28203 0.509 58.793 0.855 -30.596 0.855 -30.596 0.509 58.793
28227.958 0.509 58.766 0.855 -30.623 0.855 -30.623 0.509 58.766
28252.917 0.51 58.739 0.855 -30.651 0.855 -30.651 0.51 58.739
28277.875 0.51 58.712 0.855 -30.678 0.855 -30.678 0.51 58.712
28302.833 0.511 58.685 0.854 -30.706 0.854 -30.706 0.511 58.685
28327.792 0.511 58.659 0.854 -30.733 0.854 -30.733 0.511 58.659
28352.75 0.511 58.632 0.854 -30.76 0.854 -30.76 0.511 58.632
28377.708 0.512 58.605 0.854 -30.788 0.854 -30.788 0.512 58.605
28402.667 0.512 58.579 0.853 -30.815 0.853 -30.815 0.512 58.579
28427.625 0.513 58.552 0.853 -30.842 0.853 -30.842 0.513 58.552
28452.583 0.513 58.525 0.853 -30.87 0.853 -30.87 0.513 58.525
28477.542 0.514 58.499 0.853 -30.897 0.853 -30.897 0.514 58.499
28502.5 0.514 58.472 0.852 -30.924 0.852 -30.924 0.514 58.472
28527.458 0.514 58.446 0.852 -30.952 0.852 -30.952 0.514 58.446
28552.417 0.515 58.419 0.852 -30.979 0.852 -30.979 0.515 58.419
28577.375 0.515 58.393 0.852 -31.006 0.852 -31.006 0.515 58.393
28602.333 0.516 58.366 0.851 -31.033 0.851 -31.033 0.516 58.366
28627.292 0.516 58.339 0.851 -31.06 0.851 -31.06 0.516 58.339
28652.25 0.516 58.313 0.851 -31.087 0.851 -31.087 0.516 58.313
28677.208 0.517 58.287 0.851 -31.114 0.851 -31.114 0.517 58.287
28702.167 0.517 58.26 0.85 -31.142 0.85 -31.142 0.517 58.26
28727.125 0.518 58.234 0.85 -31.169 0.85 -31.169 0.518 58.234
28752.083 0.518 58.207 0.85 -31.196 0.85 -31.196 0.518 58.207
28777.042 0.518 58.181 0.85 -31.223 0.85 -31.223 0.518 58.181
28802 0.519 58.154 0.85 -31.25 0.85 -31.25 0.519 58.154
28826.958 0.519 58.128 0.849 -31.277 0.849 -31.277 0.519 58.128
28851.917 0.52 58.102 0.849 -31.304 0.849 -31.304 0.52 58.102
28876.875 0.52 58.075 0.849 -31.331 0.849 -31.331 0.52 58.075
28901.833 0.52 58.049 0.849 -31.358 0.849 -31.358 0.52 58.049
28926.792 0.521 58.023 0.848 -31.384 0.848 -31.384 0.521 58.023
28951.75 0.521 57.997 0.848 -31.411 0.848 -31.411 0.521 57.997
28976.708 0.522 57.97 0.848 -31.438 0.848 -31.438 0.522 57.97
29001.667 0.522 57.944 0.848 -31.465 0.848 -31.465 0.522 57.944
29026.625 0.522 57.918 0.847 -31.492 0.847 -31.492 0.522 57.918
29051.583 0.523 57.892 0.847 -31.519 0.847 -31.519 0.523 57.892
29076.542 0.523 57.866 0.847 -31.546 0.847 -31.546 0.523 57.866
29101.5 0.524 57.839 0.847 -31.572 0.847 -31.572 0.524 57.839
29126.458 0.524 57.813 0.846 -31.599 0.846 -31.599 0.524 57.813
29151.417 0.524 57.787 0.846 -31.626 0.846 -31.626 0.524 57.787
29176.375 0.525 57.761 0.846 -31.653 0.846 -31.653 0.525 57.761
29201.333 0.525 57.735 0.846 -31.679 0.846 -31.679 0.525 57.735
29226.292 0.526 57.709 0.845 -31.706 0.845 -31.706 0.526 57.709
29251.25 0.526 57.683 0.845 -31.733 0.845 -31.733 0.526 57.683
29276.208 0.526 57.657 0.845 -31.759 0.845 -31.759 0.526 57.657
29301.167 0.527 57.631 0.845 -31.786 0.845 -31.786 0.527 57.631
29326.125 0.527 57.605 0.844 -31.812 0.844 -31.812 0.527 57.605
29351.083 0.528 57.579 0.844 -31.839 0.844 -31.839 0.528 57.579
29376.042 0.528 57.553 0.844 -31.866 0.844 -31.866 0.528 57.553
29401 0.528 57.527 0.844 -31.892 0.844 -31.892 0.528 57.527
29425.958 0.529 57.501 0.843 -31.919 0.843 -31.919 0.529 57.501
29450.917 0.529 57.475 0.843 -31.945 0.843 -31.945 0.529 57.475
29475.875 0.53 57.449 0.843 -31.972 0.843 -31.972 0.53 57.449
29500.833 0.53 57.423 0.843 -31.998 0.843 -31.998 0.53 57.423
29525.792 0.53 57.397 0.842 -32.025 0.842 -32.025 0.53 57.397
29550.75 0.531 57.372 0.842 -32.051 0.842 -32.051 0.531 57.372
29575.708 0.531 57.346 0.842 -32.077 0.842 -32.077 0.531 57.346
29600.667 0.531 57.32 0.842 -32.104 0.842 -32.104 0.531 57.32
29625.625 0.532 57.294 0.841 -32.13 0.841 -32.13 0.532 57.294
29650.583 0.532 57.268 0.841 -32.156 0.841 -32.156 0.532 57.268
29675.542 0.533 57.243 0.841 -32.183 0.841 -32.183 0.533 57.243
29700.5 0.533 57.217 0.841 -32.209 0.841 -32.209 0.533 57.217
29725.458 0.533 57.191 0.841 -32.235 0.841 -32.235 0.533 57.191
29750.417 0.534 57.166 0.84 -32.262 0.84 -32.262 0.534 57.166
29775.375 0.534 57.14 0.84 -32.288 0.84 -32.288 0.534 57.14
29800.333 0.535 57.114 0.84 -32.314 0.84 -32.314 0.535 57.114
29825.292 0.535 57.089 0.84 -32.34 0.84 -32.34 0.535 57.089
29850.25 0.535 57.063 0.839 -32.367 0.839 -32.367 0.535 57.063
29875.208 0.536 57.037 0.839 -32.393 0.839 -32.393 0.536 57.037
29900.167 0.536 57.012 0.839 -32.419 0.839 -32.419 0.536 57.012
29925.125 0.537 56.986 0.839 -32.445 0.839 -32.445 0.537 56.986
29950.083 0.537 56.961 0.838 -32.471 0.838 -32.471 0.537 56.961
29975.042 0.537 56.935 0.838 -32.497 0.838 -32.497 0.537 56.935
30000 0.538 56.91 0.838 -32.523 0.838 -32.523 0.538 56.91
