!	AVX Thin Film Operation 	Date: April 2014		
!	Description: Accu-P® Series, Thin Film  SMD RF Capacitor
!	Part Number: 02015JA05PBSTR					
!								
# MHZ S MA R 50

50 0.999 -1.889 0.033 88.101 0.033 88.101 0.999 -1.889
74.958 0.999 -2.831 0.049 87.154 0.049 87.154 0.999 -2.831
99.917 0.998 -3.772 0.066 86.209 0.066 86.209 0.998 -3.772
124.875 0.997 -4.711 0.082 85.266 0.082 85.266 0.997 -4.711
149.833 0.995 -5.647 0.098 84.325 0.098 84.325 0.995 -5.647
174.792 0.993 -6.581 0.115 83.386 0.115 83.386 0.993 -6.581
199.75 0.991 -7.511 0.131 82.451 0.131 82.451 0.991 -7.511
224.708 0.989 -8.438 0.147 81.519 0.147 81.519 0.989 -8.438
249.667 0.987 -9.361 0.163 80.592 0.163 80.592 0.987 -9.361
274.625 0.984 -10.279 0.178 79.669 0.178 79.669 0.984 -10.279
299.583 0.981 -11.193 0.194 78.751 0.194 78.751 0.981 -11.193
324.542 0.978 -12.101 0.21 77.837 0.21 77.837 0.978 -12.101
349.5 0.974 -13.004 0.225 76.93 0.225 76.93 0.974 -13.004
374.458 0.97 -13.9 0.24 76.028 0.24 76.028 0.97 -13.9
399.417 0.967 -14.791 0.255 75.133 0.255 75.133 0.967 -14.791
424.375 0.962 -15.675 0.27 74.244 0.27 74.244 0.962 -15.675
449.333 0.958 -16.552 0.285 73.363 0.285 73.363 0.958 -16.552
474.292 0.954 -17.422 0.299 72.488 0.299 72.488 0.954 -17.422
499.25 0.949 -18.284 0.314 71.621 0.314 71.621 0.949 -18.284
524.208 0.944 -19.139 0.328 70.761 0.328 70.761 0.944 -19.139
549.167 0.939 -19.986 0.342 69.91 0.342 69.91 0.939 -19.986
574.125 0.934 -20.824 0.356 69.066 0.356 69.066 0.934 -20.824
599.083 0.929 -21.655 0.369 68.231 0.369 68.231 0.929 -21.655
624.042 0.923 -22.477 0.382 67.404 0.382 67.404 0.923 -22.477
649 0.918 -23.29 0.395 66.586 0.395 66.586 0.918 -23.29
673.958 0.912 -24.094 0.408 65.777 0.408 65.777 0.912 -24.094
698.917 0.906 -24.889 0.421 64.977 0.421 64.977 0.906 -24.889
723.875 0.9 -25.675 0.433 64.186 0.433 64.186 0.9 -25.675
748.833 0.894 -26.453 0.445 63.404 0.445 63.404 0.894 -26.453
773.792 0.888 -27.22 0.457 62.631 0.457 62.631 0.888 -27.22
798.75 0.882 -27.979 0.469 61.868 0.469 61.868 0.882 -27.979
823.708 0.876 -28.728 0.481 61.114 0.481 61.114 0.876 -28.728
848.667 0.869 -29.467 0.492 60.37 0.492 60.37 0.869 -29.467
873.625 0.863 -30.198 0.503 59.635 0.503 59.635 0.863 -30.198
898.583 0.856 -30.918 0.514 58.909 0.514 58.909 0.856 -30.918
923.542 0.85 -31.629 0.524 58.193 0.524 58.193 0.85 -31.629
948.5 0.843 -32.331 0.535 57.487 0.535 57.487 0.843 -32.331
973.458 0.837 -33.023 0.545 56.79 0.545 56.79 0.837 -33.023
998.417 0.83 -33.706 0.555 56.102 0.555 56.102 0.83 -33.706
1023.375 0.823 -34.379 0.565 55.424 0.565 55.424 0.823 -34.379
1048.333 0.817 -35.043 0.574 54.755 0.574 54.755 0.817 -35.043
1073.292 0.81 -35.697 0.584 54.095 0.584 54.095 0.81 -35.697
1098.25 0.803 -36.343 0.593 53.445 0.593 53.445 0.803 -36.343
1123.208 0.797 -36.979 0.602 52.804 0.602 52.804 0.797 -36.979
1148.167 0.79 -37.606 0.61 52.172 0.61 52.172 0.79 -37.606
1173.125 0.783 -38.223 0.619 51.549 0.619 51.549 0.783 -38.223
1198.083 0.776 -38.832 0.627 50.935 0.627 50.935 0.776 -38.832
1223.042 0.77 -39.432 0.635 50.33 0.635 50.33 0.77 -39.432
1248 0.763 -40.023 0.643 49.734 0.643 49.734 0.763 -40.023
1272.958 0.756 -40.606 0.651 49.147 0.651 49.147 0.756 -40.606
1297.917 0.75 -41.179 0.658 48.568 0.658 48.568 0.75 -41.179
1322.875 0.743 -41.745 0.666 47.998 0.666 47.998 0.743 -41.745
1347.833 0.737 -42.302 0.673 47.436 0.673 47.436 0.737 -42.302
1372.792 0.73 -42.85 0.68 46.882 0.68 46.882 0.73 -42.85
1397.75 0.723 -43.39 0.687 46.336 0.687 46.336 0.723 -43.39
1422.708 0.717 -43.923 0.694 45.799 0.694 45.799 0.717 -43.923
1447.667 0.71 -44.447 0.7 45.269 0.7 45.269 0.71 -44.447
1472.625 0.704 -44.963 0.707 44.748 0.707 44.748 0.704 -44.963
1497.583 0.698 -45.472 0.713 44.234 0.713 44.234 0.698 -45.472
1522.542 0.691 -45.973 0.719 43.728 0.719 43.728 0.691 -45.973
1547.5 0.685 -46.467 0.725 43.229 0.725 43.229 0.685 -46.467
1572.458 0.679 -46.953 0.731 42.737 0.731 42.737 0.679 -46.953
1597.417 0.672 -47.432 0.736 42.253 0.736 42.253 0.672 -47.432
1622.375 0.666 -47.903 0.742 41.776 0.742 41.776 0.666 -47.903
1647.333 0.66 -48.368 0.747 41.306 0.747 41.306 0.66 -48.368
1672.292 0.654 -48.826 0.753 40.843 0.753 40.843 0.654 -48.826
1697.25 0.648 -49.277 0.758 40.387 0.758 40.387 0.648 -49.277
1722.208 0.642 -49.721 0.763 39.937 0.763 39.937 0.642 -49.721
1747.167 0.636 -50.158 0.768 39.494 0.768 39.494 0.636 -50.158
1772.125 0.63 -50.59 0.773 39.058 0.773 39.058 0.63 -50.59
1797.083 0.624 -51.014 0.777 38.628 0.777 38.628 0.624 -51.014
1822.042 0.618 -51.433 0.782 38.204 0.782 38.204 0.618 -51.433
1847 0.613 -51.845 0.786 37.786 0.786 37.786 0.613 -51.845
1871.958 0.607 -52.251 0.791 37.374 0.791 37.374 0.607 -52.251
1896.917 0.601 -52.652 0.795 36.968 0.795 36.968 0.601 -52.652
1921.875 0.596 -53.046 0.799 36.568 0.799 36.568 0.596 -53.046
1946.833 0.59 -53.435 0.803 36.173 0.803 36.173 0.59 -53.435
1971.792 0.585 -53.818 0.807 35.784 0.807 35.784 0.585 -53.818
1996.75 0.579 -54.196 0.811 35.401 0.811 35.401 0.579 -54.196
2021.708 0.574 -54.568 0.815 35.023 0.815 35.023 0.574 -54.568
2046.667 0.569 -54.935 0.819 34.651 0.819 34.651 0.569 -54.935
2071.625 0.563 -55.297 0.822 34.283 0.822 34.283 0.563 -55.297
2096.583 0.558 -55.654 0.826 33.921 0.826 33.921 0.558 -55.654
2121.542 0.553 -56.005 0.829 33.563 0.829 33.563 0.553 -56.005
2146.5 0.548 -56.352 0.832 33.211 0.832 33.211 0.548 -56.352
2171.458 0.543 -56.694 0.836 32.863 0.836 32.863 0.543 -56.694
2196.417 0.538 -57.031 0.839 32.52 0.839 32.52 0.538 -57.031
2221.375 0.533 -57.363 0.842 32.182 0.842 32.182 0.533 -57.363
2246.333 0.528 -57.691 0.845 31.848 0.845 31.848 0.528 -57.691
2271.292 0.523 -58.014 0.848 31.519 0.848 31.519 0.523 -58.014
2296.25 0.518 -58.333 0.851 31.194 0.851 31.194 0.518 -58.333
2321.208 0.513 -58.648 0.854 30.874 0.854 30.874 0.513 -58.648
2346.167 0.508 -58.958 0.857 30.557 0.857 30.557 0.508 -58.958
2371.125 0.504 -59.264 0.86 30.245 0.86 30.245 0.504 -59.264
2396.083 0.499 -59.566 0.862 29.937 0.862 29.937 0.499 -59.566
2421.042 0.494 -59.864 0.865 29.633 0.865 29.633 0.494 -59.864
2446 0.49 -60.158 0.867 29.333 0.867 29.333 0.49 -60.158
2470.958 0.485 -60.448 0.87 29.036 0.87 29.036 0.485 -60.448
2495.917 0.481 -60.734 0.872 28.744 0.872 28.744 0.481 -60.734
2520.875 0.476 -61.017 0.875 28.455 0.875 28.455 0.476 -61.017
2545.833 0.472 -61.296 0.877 28.17 0.877 28.17 0.472 -61.296
2570.792 0.468 -61.571 0.879 27.888 0.879 27.888 0.468 -61.571
2595.75 0.463 -61.843 0.882 27.61 0.882 27.61 0.463 -61.843
2620.708 0.459 -62.111 0.884 27.335 0.884 27.335 0.459 -62.111
2645.667 0.455 -62.376 0.886 27.064 0.886 27.064 0.455 -62.376
2670.625 0.451 -62.638 0.888 26.796 0.888 26.796 0.451 -62.638
2695.583 0.447 -62.896 0.89 26.531 0.89 26.531 0.447 -62.896
2720.542 0.443 -63.151 0.892 26.269 0.892 26.269 0.443 -63.151
2745.5 0.439 -63.403 0.894 26.011 0.894 26.011 0.439 -63.403
2770.458 0.435 -63.651 0.896 25.755 0.896 25.755 0.435 -63.651
2795.417 0.431 -63.897 0.898 25.503 0.898 25.503 0.431 -63.897
2820.375 0.427 -64.14 0.9 25.254 0.9 25.254 0.427 -64.14
2845.333 0.423 -64.379 0.902 25.007 0.902 25.007 0.423 -64.379
2870.292 0.419 -64.616 0.904 24.764 0.904 24.764 0.419 -64.616
2895.25 0.415 -64.85 0.905 24.523 0.905 24.523 0.415 -64.85
2920.208 0.411 -65.081 0.907 24.285 0.907 24.285 0.411 -65.081
2945.167 0.408 -65.309 0.909 24.049 0.909 24.049 0.408 -65.309
2970.125 0.404 -65.535 0.91 23.817 0.91 23.817 0.404 -65.535
2995.083 0.4 -65.758 0.912 23.587 0.912 23.587 0.4 -65.758
3020.042 0.397 -65.978 0.913 23.359 0.913 23.359 0.397 -65.978
3045 0.393 -66.196 0.915 23.134 0.915 23.134 0.393 -66.196
3069.958 0.389 -66.411 0.917 22.912 0.917 22.912 0.389 -66.411
3094.917 0.386 -66.624 0.918 22.692 0.918 22.692 0.386 -66.624
3119.875 0.382 -66.834 0.919 22.474 0.919 22.474 0.382 -66.834
3144.833 0.379 -67.042 0.921 22.259 0.921 22.259 0.379 -67.042
3169.792 0.375 -67.248 0.922 22.046 0.922 22.046 0.375 -67.248
3194.75 0.372 -67.451 0.924 21.835 0.924 21.835 0.372 -67.451
3219.708 0.369 -67.652 0.925 21.626 0.925 21.626 0.369 -67.652
3244.667 0.365 -67.85 0.926 21.42 0.926 21.42 0.365 -67.85
3269.625 0.362 -68.047 0.928 21.216 0.928 21.216 0.362 -68.047
3294.583 0.359 -68.241 0.929 21.014 0.929 21.014 0.359 -68.241
3319.542 0.355 -68.433 0.93 20.814 0.93 20.814 0.355 -68.433
3344.5 0.352 -68.623 0.931 20.616 0.931 20.616 0.352 -68.623
3369.458 0.349 -68.811 0.932 20.42 0.932 20.42 0.349 -68.811
3394.417 0.346 -68.997 0.934 20.226 0.934 20.226 0.346 -68.997
3419.375 0.343 -69.181 0.935 20.034 0.935 20.034 0.343 -69.181
3444.333 0.339 -69.363 0.936 19.844 0.936 19.844 0.339 -69.363
3469.292 0.336 -69.543 0.937 19.656 0.937 19.656 0.336 -69.543
3494.25 0.333 -69.721 0.938 19.47 0.938 19.47 0.333 -69.721
3519.208 0.33 -69.897 0.939 19.285 0.939 19.285 0.33 -69.897
3544.167 0.327 -70.071 0.94 19.102 0.94 19.102 0.327 -70.071
3569.125 0.324 -70.244 0.941 18.921 0.941 18.921 0.324 -70.244
3594.083 0.321 -70.414 0.942 18.742 0.942 18.742 0.321 -70.414
3619.042 0.318 -70.583 0.943 18.565 0.943 18.565 0.318 -70.583
3644 0.315 -70.75 0.944 18.389 0.944 18.389 0.315 -70.75
3668.958 0.313 -70.916 0.945 18.214 0.945 18.214 0.313 -70.916
3693.917 0.31 -71.079 0.946 18.042 0.946 18.042 0.31 -71.079
3718.875 0.307 -71.242 0.947 17.871 0.947 17.871 0.307 -71.242
3743.833 0.304 -71.402 0.948 17.701 0.948 17.701 0.304 -71.402
3768.792 0.301 -71.561 0.949 17.534 0.949 17.534 0.301 -71.561
3793.75 0.299 -71.718 0.95 17.367 0.95 17.367 0.299 -71.718
3818.708 0.296 -71.873 0.95 17.202 0.95 17.202 0.296 -71.873
3843.667 0.293 -72.027 0.951 17.039 0.951 17.039 0.293 -72.027
3868.625 0.29 -72.18 0.952 16.877 0.952 16.877 0.29 -72.18
3893.583 0.288 -72.331 0.953 16.716 0.953 16.716 0.288 -72.331
3918.542 0.285 -72.48 0.954 16.557 0.954 16.557 0.285 -72.48
3943.5 0.282 -72.628 0.955 16.4 0.955 16.4 0.282 -72.628
3968.458 0.28 -72.774 0.955 16.243 0.955 16.243 0.28 -72.774
3993.417 0.277 -72.919 0.956 16.088 0.956 16.088 0.277 -72.919
4018.375 0.275 -73.063 0.957 15.935 0.957 15.935 0.275 -73.063
4043.333 0.272 -73.205 0.957 15.782 0.957 15.782 0.272 -73.205
4068.292 0.269 -73.346 0.958 15.631 0.958 15.631 0.269 -73.346
4093.25 0.267 -73.486 0.959 15.481 0.959 15.481 0.267 -73.486
4118.208 0.264 -73.624 0.96 15.333 0.96 15.333 0.264 -73.624
4143.167 0.262 -73.76 0.96 15.185 0.96 15.185 0.262 -73.76
4168.125 0.26 -73.896 0.961 15.039 0.961 15.039 0.26 -73.896
4193.083 0.257 -74.03 0.962 14.894 0.962 14.894 0.257 -74.03
4218.042 0.255 -74.163 0.962 14.75 0.962 14.75 0.255 -74.163
4243 0.252 -74.294 0.963 14.607 0.963 14.607 0.252 -74.294
4267.958 0.25 -74.425 0.963 14.466 0.963 14.466 0.25 -74.425
4292.917 0.247 -74.554 0.964 14.325 0.964 14.325 0.247 -74.554
4317.875 0.245 -74.682 0.965 14.186 0.965 14.186 0.245 -74.682
4342.833 0.243 -74.808 0.965 14.048 0.965 14.048 0.243 -74.808
4367.792 0.24 -74.934 0.966 13.911 0.966 13.911 0.24 -74.934
4392.75 0.238 -75.058 0.966 13.775 0.966 13.775 0.238 -75.058
4417.708 0.236 -75.181 0.967 13.64 0.967 13.64 0.236 -75.181
4442.667 0.234 -75.303 0.967 13.506 0.967 13.506 0.234 -75.303
4467.625 0.231 -75.424 0.968 13.373 0.968 13.373 0.231 -75.424
4492.583 0.229 -75.543 0.969 13.24 0.969 13.24 0.229 -75.543
4517.542 0.227 -75.662 0.969 13.109 0.969 13.109 0.227 -75.662
4542.5 0.225 -75.779 0.97 12.979 0.97 12.979 0.225 -75.779
4567.458 0.222 -75.895 0.97 12.85 0.97 12.85 0.222 -75.895
4592.417 0.22 -76.01 0.971 12.722 0.971 12.722 0.22 -76.01
4617.375 0.218 -76.124 0.971 12.595 0.971 12.595 0.218 -76.124
4642.333 0.216 -76.237 0.972 12.468 0.972 12.468 0.216 -76.237
4667.292 0.214 -76.349 0.972 12.343 0.972 12.343 0.214 -76.349
4692.25 0.212 -76.46 0.972 12.218 0.972 12.218 0.212 -76.46
4717.208 0.21 -76.57 0.973 12.095 0.973 12.095 0.21 -76.57
4742.167 0.207 -76.678 0.973 11.972 0.973 11.972 0.207 -76.678
4767.125 0.205 -76.786 0.974 11.85 0.974 11.85 0.205 -76.786
4792.083 0.203 -76.893 0.974 11.729 0.974 11.729 0.203 -76.893
4817.042 0.201 -76.998 0.975 11.609 0.975 11.609 0.201 -76.998
4842 0.199 -77.103 0.975 11.489 0.975 11.489 0.199 -77.103
4866.958 0.197 -77.206 0.975 11.371 0.975 11.371 0.197 -77.206
4891.917 0.195 -77.309 0.976 11.253 0.976 11.253 0.195 -77.309
4916.875 0.193 -77.41 0.976 11.136 0.976 11.136 0.193 -77.41
4941.833 0.191 -77.511 0.977 11.02 0.977 11.02 0.191 -77.511
4966.792 0.189 -77.611 0.977 10.904 0.977 10.904 0.189 -77.611
4991.75 0.187 -77.709 0.977 10.789 0.977 10.789 0.187 -77.709
5016.708 0.185 -77.807 0.978 10.675 0.978 10.675 0.185 -77.807
5041.667 0.183 -77.903 0.978 10.562 0.978 10.562 0.183 -77.903
5066.625 0.181 -77.999 0.979 10.45 0.979 10.45 0.181 -77.999
5091.583 0.18 -78.094 0.979 10.338 0.979 10.338 0.18 -78.094
5116.542 0.178 -78.187 0.979 10.227 0.979 10.227 0.178 -78.187
5141.5 0.176 -78.28 0.98 10.116 0.98 10.116 0.176 -78.28
5166.458 0.174 -78.372 0.98 10.007 0.98 10.007 0.174 -78.372
5191.417 0.172 -78.463 0.98 9.898 0.98 9.898 0.172 -78.463
5216.375 0.17 -78.552 0.981 9.789 0.981 9.789 0.17 -78.552
5241.333 0.168 -78.641 0.981 9.682 0.981 9.682 0.168 -78.641
5266.292 0.166 -78.729 0.981 9.574 0.981 9.574 0.166 -78.729
5291.25 0.165 -78.816 0.981 9.468 0.981 9.468 0.165 -78.816
5316.208 0.163 -78.902 0.982 9.362 0.982 9.362 0.163 -78.902
5341.167 0.161 -78.987 0.982 9.257 0.982 9.257 0.161 -78.987
5366.125 0.159 -79.071 0.982 9.153 0.982 9.153 0.159 -79.071
5391.083 0.157 -79.154 0.983 9.049 0.983 9.049 0.157 -79.154
5416.042 0.156 -79.237 0.983 8.946 0.983 8.946 0.156 -79.237
5441 0.154 -79.318 0.983 8.843 0.983 8.843 0.154 -79.318
5465.958 0.152 -79.398 0.983 8.741 0.983 8.741 0.152 -79.398
5490.917 0.15 -79.477 0.984 8.64 0.984 8.64 0.15 -79.477
5515.875 0.149 -79.556 0.984 8.539 0.984 8.539 0.149 -79.556
5540.833 0.147 -79.633 0.984 8.438 0.984 8.438 0.147 -79.633
5565.792 0.145 -79.709 0.984 8.339 0.984 8.339 0.145 -79.709
5590.75 0.143 -79.785 0.985 8.24 0.985 8.24 0.143 -79.785
5615.708 0.142 -79.859 0.985 8.141 0.985 8.141 0.142 -79.859
5640.667 0.14 -79.932 0.985 8.043 0.985 8.043 0.14 -79.932
5665.625 0.138 -80.005 0.985 7.945 0.985 7.945 0.138 -80.005
5690.583 0.137 -80.076 0.986 7.848 0.986 7.848 0.137 -80.076
5715.542 0.135 -80.147 0.986 7.752 0.986 7.752 0.135 -80.147
5740.5 0.133 -80.216 0.986 7.656 0.986 7.656 0.133 -80.216
5765.458 0.132 -80.284 0.986 7.561 0.986 7.561 0.132 -80.284
5790.417 0.13 -80.351 0.987 7.466 0.987 7.466 0.13 -80.351
5815.375 0.128 -80.417 0.987 7.371 0.987 7.371 0.128 -80.417
5840.333 0.127 -80.483 0.987 7.277 0.987 7.277 0.127 -80.483
5865.292 0.125 -80.547 0.987 7.184 0.987 7.184 0.125 -80.547
5890.25 0.124 -80.609 0.987 7.091 0.987 7.091 0.124 -80.609
5915.208 0.122 -80.671 0.988 6.999 0.988 6.999 0.122 -80.671
5940.167 0.12 -80.732 0.988 6.907 0.988 6.907 0.12 -80.732
5965.125 0.119 -80.791 0.988 6.815 0.988 6.815 0.119 -80.791
5990.083 0.117 -80.85 0.988 6.724 0.988 6.724 0.117 -80.85
6015.042 0.116 -80.907 0.988 6.633 0.988 6.633 0.116 -80.907
6040 0.114 -80.963 0.989 6.543 0.989 6.543 0.114 -80.963
6064.958 0.113 -81.018 0.989 6.454 0.989 6.454 0.113 -81.018
6089.917 0.111 -81.071 0.989 6.364 0.989 6.364 0.111 -81.071
6114.875 0.109 -81.124 0.989 6.276 0.989 6.276 0.109 -81.124
6139.833 0.108 -81.175 0.989 6.187 0.989 6.187 0.108 -81.175
6164.792 0.106 -81.224 0.989 6.099 0.989 6.099 0.106 -81.224
6189.75 0.105 -81.272 0.99 6.012 0.99 6.012 0.105 -81.272
6214.708 0.103 -81.319 0.99 5.925 0.99 5.925 0.103 -81.319
6239.667 0.102 -81.365 0.99 5.838 0.99 5.838 0.102 -81.365
6264.625 0.1 -81.409 0.99 5.752 0.99 5.752 0.1 -81.409
6289.583 0.099 -81.452 0.99 5.666 0.99 5.666 0.099 -81.452
6314.542 0.097 -81.493 0.99 5.581 0.99 5.581 0.097 -81.493
6339.5 0.096 -81.532 0.99 5.496 0.99 5.496 0.096 -81.532
6364.458 0.094 -81.57 0.991 5.411 0.991 5.411 0.094 -81.57
6389.417 0.093 -81.607 0.991 5.327 0.991 5.327 0.093 -81.607
6414.375 0.092 -81.641 0.991 5.243 0.991 5.243 0.092 -81.641
6439.333 0.09 -81.674 0.991 5.159 0.991 5.159 0.09 -81.674
6464.292 0.089 -81.705 0.991 5.076 0.991 5.076 0.089 -81.705
6489.25 0.087 -81.734 0.991 4.993 0.991 4.993 0.087 -81.734
6514.208 0.086 -81.762 0.991 4.911 0.991 4.911 0.086 -81.762
6539.167 0.084 -81.787 0.991 4.829 0.991 4.829 0.084 -81.787
6564.125 0.083 -81.81 0.992 4.747 0.992 4.747 0.083 -81.81
6589.083 0.082 -81.832 0.992 4.666 0.992 4.666 0.082 -81.832
6614.042 0.08 -81.851 0.992 4.585 0.992 4.585 0.08 -81.851
6639 0.079 -81.867 0.992 4.505 0.992 4.505 0.079 -81.867
6663.958 0.077 -81.882 0.992 4.424 0.992 4.424 0.077 -81.882
6688.917 0.076 -81.894 0.992 4.345 0.992 4.345 0.076 -81.894
6713.875 0.075 -81.903 0.992 4.265 0.992 4.265 0.075 -81.903
6738.833 0.073 -81.91 0.992 4.186 0.992 4.186 0.073 -81.91
6763.792 0.072 -81.913 0.992 4.107 0.992 4.107 0.072 -81.913
6788.75 0.07 -81.914 0.993 4.028 0.993 4.028 0.07 -81.914
6813.708 0.069 -81.912 0.993 3.95 0.993 3.95 0.069 -81.912
6838.667 0.068 -81.907 0.993 3.872 0.993 3.872 0.068 -81.907
6863.625 0.066 -81.898 0.993 3.795 0.993 3.795 0.066 -81.898
6888.583 0.065 -81.886 0.993 3.718 0.993 3.718 0.065 -81.886
6913.542 0.064 -81.87 0.993 3.641 0.993 3.641 0.064 -81.87
6938.5 0.062 -81.851 0.993 3.564 0.993 3.564 0.062 -81.851
6963.458 0.061 -81.827 0.993 3.488 0.993 3.488 0.061 -81.827
6988.417 0.06 -81.799 0.993 3.412 0.993 3.412 0.06 -81.799
7013.375 0.058 -81.766 0.993 3.336 0.993 3.336 0.058 -81.766
7038.333 0.057 -81.728 0.993 3.261 0.993 3.261 0.057 -81.728
7063.292 0.056 -81.686 0.993 3.185 0.993 3.185 0.056 -81.686
7088.25 0.054 -81.638 0.994 3.111 0.994 3.111 0.054 -81.638
7113.208 0.053 -81.584 0.994 3.036 0.994 3.036 0.053 -81.584
7138.167 0.052 -81.524 0.994 2.962 0.994 2.962 0.052 -81.524
7163.125 0.051 -81.457 0.994 2.888 0.994 2.888 0.051 -81.457
7188.083 0.049 -81.383 0.994 2.814 0.994 2.814 0.049 -81.383
7213.042 0.048 -81.302 0.994 2.741 0.994 2.741 0.048 -81.302
7238 0.047 -81.213 0.994 2.668 0.994 2.668 0.047 -81.213
7262.958 0.046 -81.115 0.994 2.595 0.994 2.595 0.046 -81.115
7287.917 0.044 -81.008 0.994 2.522 0.994 2.522 0.044 -81.008
7312.875 0.043 -80.891 0.994 2.45 0.994 2.45 0.043 -80.891
7337.833 0.042 -80.763 0.994 2.378 0.994 2.378 0.042 -80.763
7362.792 0.041 -80.623 0.994 2.306 0.994 2.306 0.041 -80.623
7387.75 0.039 -80.471 0.994 2.235 0.994 2.235 0.039 -80.471
7412.708 0.038 -80.304 0.994 2.164 0.994 2.164 0.038 -80.304
7437.667 0.037 -80.123 0.994 2.093 0.994 2.093 0.037 -80.123
7462.625 0.036 -79.924 0.994 2.022 0.994 2.022 0.036 -79.924
7487.583 0.034 -79.708 0.994 1.951 0.994 1.951 0.034 -79.708
7512.542 0.033 -79.471 0.994 1.881 0.994 1.881 0.033 -79.471
7537.5 0.032 -79.212 0.995 1.811 0.995 1.811 0.032 -79.212
7562.458 0.031 -78.928 0.995 1.741 0.995 1.741 0.031 -78.928
7587.417 0.03 -78.617 0.995 1.672 0.995 1.672 0.03 -78.617
7612.375 0.028 -78.275 0.995 1.603 0.995 1.603 0.028 -78.275
7637.333 0.027 -77.898 0.995 1.534 0.995 1.534 0.027 -77.898
7662.292 0.026 -77.483 0.995 1.465 0.995 1.465 0.026 -77.483
7687.25 0.025 -77.023 0.995 1.396 0.995 1.396 0.025 -77.023
7712.208 0.024 -76.513 0.995 1.328 0.995 1.328 0.024 -76.513
7737.167 0.023 -75.945 0.995 1.26 0.995 1.26 0.023 -75.945
7762.125 0.021 -75.31 0.995 1.192 0.995 1.192 0.021 -75.31
7787.083 0.02 -74.599 0.995 1.125 0.995 1.125 0.02 -74.599
7812.042 0.019 -73.796 0.995 1.057 0.995 1.057 0.019 -73.796
7837 0.018 -72.887 0.995 0.99 0.995 0.99 0.018 -72.887
7861.958 0.017 -71.852 0.995 0.923 0.995 0.923 0.017 -71.852
7886.917 0.016 -70.665 0.995 0.856 0.995 0.856 0.016 -70.665
7911.875 0.015 -69.293 0.995 0.79 0.995 0.79 0.015 -69.293
7936.833 0.014 -67.696 0.995 0.724 0.995 0.724 0.014 -67.696
7961.792 0.013 -65.819 0.995 0.657 0.995 0.657 0.013 -65.819
7986.75 0.011 -63.592 0.995 0.592 0.995 0.592 0.011 -63.592
8011.708 0.01 -60.92 0.995 0.526 0.995 0.526 0.01 -60.92
8036.667 9.463e-3 -57.678 0.995 0.46 0.995 0.46 9.463e-3 -57.678
8061.625 8.517e-3 -53.696 0.995 0.395 0.995 0.395 8.517e-3 -53.696
8086.583 7.627e-3 -48.752 0.995 0.33 0.995 0.33 7.627e-3 -48.752
8111.542 6.812e-3 -42.57 0.995 0.265 0.995 0.265 6.812e-3 -42.57
8136.5 6.101e-3 -34.842 0.995 0.201 0.995 0.201 6.101e-3 -34.842
8161.458 5.533e-3 -25.326 0.995 0.136 0.995 0.136 5.533e-3 -25.326
8186.417 5.151e-3 -14.056 0.995 0.072 0.995 0.072 5.151e-3 -14.056
8211.375 4.997e-3 -1.592 0.995 7.995e-3 0.995 7.995e-3 4.997e-3 -1.592
8236.333 5.09e-3 10.987 0.995 -0.056 0.995 -0.056 5.09e-3 10.987
8261.292 5.413e-3 22.545 0.995 -0.12 0.995 -0.12 5.413e-3 22.545
8286.25 5.929e-3 32.409 0.995 -0.183 0.995 -0.183 5.929e-3 32.409
8311.208 6.59e-3 40.463 0.995 -0.246 0.995 -0.246 6.59e-3 40.463
8336.167 7.355e-3 46.916 0.995 -0.309 0.995 -0.309 7.355e-3 46.916
8361.125 8.195e-3 52.073 0.995 -0.372 0.995 -0.372 8.195e-3 52.073
8386.083 9.088e-3 56.221 0.995 -0.435 0.995 -0.435 9.088e-3 56.221
8411.042 0.01 59.592 0.995 -0.498 0.995 -0.498 0.01 59.592
8436 0.011 62.364 0.995 -0.56 0.995 -0.56 0.011 62.364
8460.958 0.012 64.671 0.995 -0.622 0.995 -0.622 0.012 64.671
8485.917 0.013 66.611 0.995 -0.684 0.995 -0.684 0.013 66.611
8510.875 0.014 68.261 0.995 -0.746 0.995 -0.746 0.014 68.261
8535.833 0.015 69.677 0.995 -0.807 0.995 -0.807 0.015 69.677
8560.792 0.016 70.902 0.995 -0.869 0.995 -0.869 0.016 70.902
8585.75 0.017 71.969 0.995 -0.93 0.995 -0.93 0.017 71.969
8610.708 0.018 72.906 0.995 -0.991 0.995 -0.991 0.018 72.906
8635.667 0.019 73.734 0.995 -1.052 0.995 -1.052 0.019 73.734
8660.625 0.02 74.468 0.995 -1.113 0.995 -1.113 0.02 74.468
8685.583 0.021 75.124 0.995 -1.174 0.995 -1.174 0.021 75.124
8710.542 0.022 75.711 0.995 -1.234 0.995 -1.234 0.022 75.711
8735.5 0.023 76.239 0.995 -1.294 0.995 -1.294 0.023 76.239
8760.458 0.024 76.716 0.995 -1.355 0.995 -1.355 0.024 76.716
8785.417 0.025 77.149 0.995 -1.414 0.995 -1.414 0.025 77.149
8810.375 0.026 77.541 0.995 -1.474 0.995 -1.474 0.026 77.541
8835.333 0.027 77.899 0.995 -1.534 0.995 -1.534 0.027 77.899
8860.292 0.028 78.226 0.995 -1.593 0.995 -1.593 0.028 78.226
8885.25 0.029 78.525 0.995 -1.653 0.995 -1.653 0.029 78.525
8910.208 0.03 78.799 0.995 -1.712 0.995 -1.712 0.03 78.799
8935.167 0.031 79.051 0.995 -1.771 0.995 -1.771 0.031 79.051
8960.125 0.032 79.283 0.994 -1.83 0.994 -1.83 0.032 79.283
8985.083 0.033 79.496 0.994 -1.888 0.994 -1.888 0.033 79.496
9010.042 0.034 79.693 0.994 -1.947 0.994 -1.947 0.034 79.693
9035 0.035 79.875 0.994 -2.005 0.994 -2.005 0.035 79.875
9059.958 0.036 80.043 0.994 -2.063 0.994 -2.063 0.036 80.043
9084.917 0.037 80.199 0.994 -2.122 0.994 -2.122 0.037 80.199
9109.875 0.038 80.343 0.994 -2.18 0.994 -2.18 0.038 80.343
9134.833 0.039 80.476 0.994 -2.237 0.994 -2.237 0.039 80.476
9159.792 0.04 80.6 0.994 -2.295 0.994 -2.295 0.04 80.6
9184.75 0.041 80.715 0.994 -2.352 0.994 -2.352 0.041 80.715
9209.708 0.042 80.821 0.994 -2.41 0.994 -2.41 0.042 80.821
9234.667 0.043 80.92 0.994 -2.467 0.994 -2.467 0.043 80.92
9259.625 0.044 81.011 0.994 -2.524 0.994 -2.524 0.044 81.011
9284.583 0.045 81.096 0.994 -2.581 0.994 -2.581 0.045 81.096
9309.542 0.046 81.174 0.994 -2.638 0.994 -2.638 0.046 81.174
9334.5 0.047 81.247 0.994 -2.694 0.994 -2.694 0.047 81.247
9359.458 0.048 81.314 0.994 -2.751 0.994 -2.751 0.048 81.314
9384.417 0.049 81.376 0.994 -2.807 0.994 -2.807 0.049 81.376
9409.375 0.05 81.434 0.994 -2.864 0.994 -2.864 0.05 81.434
9434.333 0.051 81.487 0.994 -2.92 0.994 -2.92 0.051 81.487
9459.292 0.052 81.535 0.994 -2.976 0.994 -2.976 0.052 81.535
9484.25 0.053 81.58 0.994 -3.032 0.994 -3.032 0.053 81.58
9509.208 0.054 81.621 0.994 -3.087 0.994 -3.087 0.054 81.621
9534.167 0.055 81.659 0.994 -3.143 0.994 -3.143 0.055 81.659
9559.125 0.056 81.693 0.993 -3.198 0.993 -3.198 0.056 81.693
9584.083 0.057 81.725 0.993 -3.254 0.993 -3.254 0.057 81.725
9609.042 0.058 81.753 0.993 -3.309 0.993 -3.309 0.058 81.753
9634 0.059 81.779 0.993 -3.364 0.993 -3.364 0.059 81.779
9658.958 0.06 81.801 0.993 -3.419 0.993 -3.419 0.06 81.801
9683.917 0.061 81.822 0.993 -3.474 0.993 -3.474 0.061 81.822
9708.875 0.062 81.84 0.993 -3.528 0.993 -3.528 0.062 81.84
9733.833 0.063 81.856 0.993 -3.583 0.993 -3.583 0.063 81.856
9758.792 0.064 81.87 0.993 -3.637 0.993 -3.637 0.064 81.87
9783.75 0.065 81.881 0.993 -3.692 0.993 -3.692 0.065 81.881
9808.708 0.066 81.891 0.993 -3.746 0.993 -3.746 0.066 81.891
9833.667 0.066 81.899 0.993 -3.8 0.993 -3.8 0.066 81.899
9858.625 0.067 81.905 0.993 -3.854 0.993 -3.854 0.067 81.905
9883.583 0.068 81.91 0.993 -3.908 0.993 -3.908 0.068 81.91
9908.542 0.069 81.913 0.993 -3.962 0.993 -3.962 0.069 81.913
9933.5 0.07 81.914 0.993 -4.015 0.993 -4.015 0.07 81.914
9958.458 0.071 81.914 0.992 -4.069 0.992 -4.069 0.071 81.914
9983.417 0.072 81.913 0.992 -4.122 0.992 -4.122 0.072 81.913
10008.375 0.073 81.91 0.992 -4.175 0.992 -4.175 0.073 81.91
10033.333 0.074 81.906 0.992 -4.229 0.992 -4.229 0.074 81.906
10058.292 0.075 81.901 0.992 -4.282 0.992 -4.282 0.075 81.901
10083.25 0.076 81.895 0.992 -4.334 0.992 -4.334 0.076 81.895
10108.208 0.077 81.888 0.992 -4.387 0.992 -4.387 0.077 81.888
10133.167 0.078 81.879 0.992 -4.44 0.992 -4.44 0.078 81.879
10158.125 0.078 81.87 0.992 -4.493 0.992 -4.493 0.078 81.87
10183.083 0.079 81.859 0.992 -4.545 0.992 -4.545 0.079 81.859
10208.042 0.08 81.848 0.992 -4.597 0.992 -4.597 0.08 81.848
10233 0.081 81.836 0.992 -4.65 0.992 -4.65 0.081 81.836
10257.958 0.082 81.823 0.992 -4.702 0.992 -4.702 0.082 81.823
10282.917 0.083 81.809 0.992 -4.754 0.992 -4.754 0.083 81.809
10307.875 0.084 81.794 0.992 -4.806 0.992 -4.806 0.084 81.794
10332.833 0.085 81.778 0.991 -4.858 0.991 -4.858 0.085 81.778
10357.792 0.086 81.762 0.991 -4.909 0.991 -4.909 0.086 81.762
10382.75 0.087 81.745 0.991 -4.961 0.991 -4.961 0.087 81.745
10407.708 0.088 81.728 0.991 -5.013 0.991 -5.013 0.088 81.728
10432.667 0.088 81.71 0.991 -5.064 0.991 -5.064 0.088 81.71
10457.625 0.089 81.691 0.991 -5.115 0.991 -5.115 0.089 81.691
10482.583 0.09 81.671 0.991 -5.167 0.991 -5.167 0.09 81.671
10507.542 0.091 81.651 0.991 -5.218 0.991 -5.218 0.091 81.651
10532.5 0.092 81.631 0.991 -5.269 0.991 -5.269 0.092 81.631
10557.458 0.093 81.61 0.991 -5.32 0.991 -5.32 0.093 81.61
10582.417 0.094 81.588 0.991 -5.37 0.991 -5.37 0.094 81.588
10607.375 0.095 81.566 0.991 -5.421 0.991 -5.421 0.095 81.566
10632.333 0.095 81.543 0.99 -5.472 0.99 -5.472 0.095 81.543
10657.292 0.096 81.52 0.99 -5.522 0.99 -5.522 0.096 81.52
10682.25 0.097 81.496 0.99 -5.573 0.99 -5.573 0.097 81.496
10707.208 0.098 81.472 0.99 -5.623 0.99 -5.623 0.098 81.472
10732.167 0.099 81.448 0.99 -5.673 0.99 -5.673 0.099 81.448
10757.125 0.1 81.423 0.99 -5.723 0.99 -5.723 0.1 81.423
10782.083 0.101 81.398 0.99 -5.774 0.99 -5.774 0.101 81.398
10807.042 0.102 81.373 0.99 -5.823 0.99 -5.823 0.102 81.373
10832 0.102 81.347 0.99 -5.873 0.99 -5.873 0.102 81.347
10856.958 0.103 81.32 0.99 -5.923 0.99 -5.923 0.103 81.32
10881.917 0.104 81.294 0.99 -5.973 0.99 -5.973 0.104 81.294
10906.875 0.105 81.267 0.99 -6.022 0.99 -6.022 0.105 81.267
10931.833 0.106 81.239 0.989 -6.072 0.989 -6.072 0.106 81.239
10956.792 0.107 81.212 0.989 -6.121 0.989 -6.121 0.107 81.212
10981.75 0.108 81.184 0.989 -6.171 0.989 -6.171 0.108 81.184
11006.708 0.108 81.156 0.989 -6.22 0.989 -6.22 0.108 81.156
11031.667 0.109 81.127 0.989 -6.269 0.989 -6.269 0.109 81.127
11056.625 0.11 81.099 0.989 -6.318 0.989 -6.318 0.11 81.099
11081.583 0.111 81.07 0.989 -6.367 0.989 -6.367 0.111 81.07
11106.542 0.112 81.041 0.989 -6.416 0.989 -6.416 0.112 81.041
11131.5 0.113 81.011 0.989 -6.465 0.989 -6.465 0.113 81.011
11156.458 0.114 80.981 0.989 -6.513 0.989 -6.513 0.114 80.981
11181.417 0.114 80.952 0.988 -6.562 0.988 -6.562 0.114 80.952
11206.375 0.115 80.921 0.988 -6.61 0.988 -6.61 0.115 80.921
11231.333 0.116 80.891 0.988 -6.659 0.988 -6.659 0.116 80.891
11256.292 0.117 80.86 0.988 -6.707 0.988 -6.707 0.117 80.86
11281.25 0.118 80.83 0.988 -6.756 0.988 -6.756 0.118 80.83
11306.208 0.119 80.799 0.988 -6.804 0.988 -6.804 0.119 80.799
11331.167 0.119 80.768 0.988 -6.852 0.988 -6.852 0.119 80.768
11356.125 0.12 80.736 0.988 -6.9 0.988 -6.9 0.12 80.736
11381.083 0.121 80.705 0.988 -6.948 0.988 -6.948 0.121 80.705
11406.042 0.122 80.673 0.988 -6.996 0.988 -6.996 0.122 80.673
11431 0.123 80.641 0.987 -7.043 0.987 -7.043 0.123 80.641
11455.958 0.124 80.609 0.987 -7.091 0.987 -7.091 0.124 80.609
11480.917 0.124 80.577 0.987 -7.139 0.987 -7.139 0.124 80.577
11505.875 0.125 80.545 0.987 -7.186 0.987 -7.186 0.125 80.545
11530.833 0.126 80.513 0.987 -7.234 0.987 -7.234 0.126 80.513
11555.792 0.127 80.48 0.987 -7.281 0.987 -7.281 0.127 80.48
11580.75 0.128 80.447 0.987 -7.328 0.987 -7.328 0.128 80.447
11605.708 0.128 80.414 0.987 -7.376 0.987 -7.376 0.128 80.414
11630.667 0.129 80.381 0.987 -7.423 0.987 -7.423 0.129 80.381
11655.625 0.13 80.348 0.987 -7.47 0.987 -7.47 0.13 80.348
11680.583 0.131 80.315 0.986 -7.517 0.986 -7.517 0.131 80.315
11705.542 0.132 80.282 0.986 -7.564 0.986 -7.564 0.132 80.282
11730.5 0.133 80.248 0.986 -7.611 0.986 -7.611 0.133 80.248
11755.458 0.133 80.215 0.986 -7.657 0.986 -7.657 0.133 80.215
11780.417 0.134 80.181 0.986 -7.704 0.986 -7.704 0.134 80.181
11805.375 0.135 80.147 0.986 -7.751 0.986 -7.751 0.135 80.147
11830.333 0.136 80.114 0.986 -7.797 0.986 -7.797 0.136 80.114
11855.292 0.137 80.08 0.986 -7.844 0.986 -7.844 0.137 80.08
11880.25 0.137 80.046 0.986 -7.89 0.986 -7.89 0.137 80.046
11905.208 0.138 80.011 0.985 -7.936 0.985 -7.936 0.138 80.011
11930.167 0.139 79.977 0.985 -7.983 0.985 -7.983 0.139 79.977
11955.125 0.14 79.943 0.985 -8.029 0.985 -8.029 0.14 79.943
11980.083 0.141 79.909 0.985 -8.075 0.985 -8.075 0.141 79.909
12005.042 0.141 79.874 0.985 -8.121 0.985 -8.121 0.141 79.874
12030 0.142 79.84 0.985 -8.167 0.985 -8.167 0.142 79.84
12054.958 0.143 79.805 0.985 -8.213 0.985 -8.213 0.143 79.805
12079.917 0.144 79.77 0.985 -8.259 0.985 -8.259 0.144 79.77
12104.875 0.145 79.736 0.985 -8.304 0.985 -8.304 0.145 79.736
12129.833 0.145 79.701 0.984 -8.35 0.984 -8.35 0.145 79.701
12154.792 0.146 79.666 0.984 -8.396 0.984 -8.396 0.146 79.666
12179.75 0.147 79.631 0.984 -8.441 0.984 -8.441 0.147 79.631
12204.708 0.148 79.596 0.984 -8.487 0.984 -8.487 0.148 79.596
12229.667 0.148 79.561 0.984 -8.532 0.984 -8.532 0.148 79.561
12254.625 0.149 79.526 0.984 -8.577 0.984 -8.577 0.149 79.526
12279.583 0.15 79.491 0.984 -8.623 0.984 -8.623 0.15 79.491
12304.542 0.151 79.455 0.984 -8.668 0.984 -8.668 0.151 79.455
12329.5 0.152 79.42 0.984 -8.713 0.984 -8.713 0.152 79.42
12354.458 0.152 79.385 0.983 -8.758 0.983 -8.758 0.152 79.385
12379.417 0.153 79.35 0.983 -8.803 0.983 -8.803 0.153 79.35
12404.375 0.154 79.314 0.983 -8.848 0.983 -8.848 0.154 79.314
12429.333 0.155 79.279 0.983 -8.893 0.983 -8.893 0.155 79.279
12454.292 0.155 79.243 0.983 -8.937 0.983 -8.937 0.155 79.243
12479.25 0.156 79.208 0.983 -8.982 0.983 -8.982 0.156 79.208
12504.208 0.157 79.172 0.983 -9.027 0.983 -9.027 0.157 79.172
12529.167 0.158 79.137 0.983 -9.071 0.983 -9.071 0.158 79.137
12554.125 0.159 79.101 0.982 -9.116 0.982 -9.116 0.159 79.101
12579.083 0.159 79.065 0.982 -9.16 0.982 -9.16 0.159 79.065
12604.042 0.16 79.03 0.982 -9.205 0.982 -9.205 0.16 79.03
12629 0.161 78.994 0.982 -9.249 0.982 -9.249 0.161 78.994
12653.958 0.162 78.958 0.982 -9.293 0.982 -9.293 0.162 78.958
12678.917 0.162 78.922 0.982 -9.338 0.982 -9.338 0.162 78.922
12703.875 0.163 78.886 0.982 -9.382 0.982 -9.382 0.163 78.886
12728.833 0.164 78.851 0.982 -9.426 0.982 -9.426 0.164 78.851
12753.792 0.165 78.815 0.981 -9.47 0.981 -9.47 0.165 78.815
12778.75 0.165 78.779 0.981 -9.514 0.981 -9.514 0.165 78.779
12803.708 0.166 78.743 0.981 -9.558 0.981 -9.558 0.166 78.743
12828.667 0.167 78.707 0.981 -9.602 0.981 -9.602 0.167 78.707
12853.625 0.168 78.671 0.981 -9.645 0.981 -9.645 0.168 78.671
12878.583 0.168 78.635 0.981 -9.689 0.981 -9.689 0.168 78.635
12903.542 0.169 78.599 0.981 -9.733 0.981 -9.733 0.169 78.599
12928.5 0.17 78.563 0.981 -9.776 0.981 -9.776 0.17 78.563
12953.458 0.171 78.527 0.98 -9.82 0.98 -9.82 0.171 78.527
12978.417 0.171 78.491 0.98 -9.863 0.98 -9.863 0.171 78.491
13003.375 0.172 78.455 0.98 -9.907 0.98 -9.907 0.172 78.455
13028.333 0.173 78.419 0.98 -9.95 0.98 -9.95 0.173 78.419
13053.292 0.174 78.383 0.98 -9.994 0.98 -9.994 0.174 78.383
13078.25 0.174 78.347 0.98 -10.037 0.98 -10.037 0.174 78.347
13103.208 0.175 78.31 0.98 -10.08 0.98 -10.08 0.175 78.31
13128.167 0.176 78.274 0.98 -10.123 0.98 -10.123 0.176 78.274
13153.125 0.177 78.238 0.979 -10.166 0.979 -10.166 0.177 78.238
13178.083 0.177 78.202 0.979 -10.209 0.979 -10.209 0.177 78.202
13203.042 0.178 78.166 0.979 -10.252 0.979 -10.252 0.178 78.166
13228 0.179 78.13 0.979 -10.295 0.979 -10.295 0.179 78.13
13252.958 0.18 78.093 0.979 -10.338 0.979 -10.338 0.18 78.093
13277.917 0.18 78.057 0.979 -10.381 0.979 -10.381 0.18 78.057
13302.875 0.181 78.021 0.979 -10.423 0.979 -10.423 0.181 78.021
13327.833 0.182 77.985 0.978 -10.466 0.978 -10.466 0.182 77.985
13352.792 0.182 77.949 0.978 -10.509 0.978 -10.509 0.182 77.949
13377.75 0.183 77.912 0.978 -10.551 0.978 -10.551 0.183 77.912
13402.708 0.184 77.876 0.978 -10.594 0.978 -10.594 0.184 77.876
13427.667 0.185 77.84 0.978 -10.636 0.978 -10.636 0.185 77.84
13452.625 0.185 77.804 0.978 -10.679 0.978 -10.679 0.185 77.804
13477.583 0.186 77.768 0.978 -10.721 0.978 -10.721 0.186 77.768
13502.542 0.187 77.731 0.977 -10.763 0.977 -10.763 0.187 77.731
13527.5 0.188 77.695 0.977 -10.806 0.977 -10.806 0.188 77.695
13552.458 0.188 77.659 0.977 -10.848 0.977 -10.848 0.188 77.659
13577.417 0.189 77.623 0.977 -10.89 0.977 -10.89 0.189 77.623
13602.375 0.19 77.587 0.977 -10.932 0.977 -10.932 0.19 77.587
13627.333 0.19 77.55 0.977 -10.974 0.977 -10.974 0.19 77.55
13652.292 0.191 77.514 0.977 -11.016 0.977 -11.016 0.191 77.514
13677.25 0.192 77.478 0.977 -11.058 0.977 -11.058 0.192 77.478
13702.208 0.193 77.442 0.976 -11.1 0.976 -11.1 0.193 77.442
13727.167 0.193 77.406 0.976 -11.142 0.976 -11.142 0.193 77.406
13752.125 0.194 77.369 0.976 -11.183 0.976 -11.183 0.194 77.369
13777.083 0.195 77.333 0.976 -11.225 0.976 -11.225 0.195 77.333
13802.042 0.195 77.297 0.976 -11.267 0.976 -11.267 0.195 77.297
13827 0.196 77.261 0.976 -11.308 0.976 -11.308 0.196 77.261
13851.958 0.197 77.225 0.976 -11.35 0.976 -11.35 0.197 77.225
13876.917 0.198 77.188 0.975 -11.391 0.975 -11.391 0.198 77.188
13901.875 0.198 77.152 0.975 -11.433 0.975 -11.433 0.198 77.152
13926.833 0.199 77.116 0.975 -11.474 0.975 -11.474 0.199 77.116
13951.792 0.2 77.08 0.975 -11.516 0.975 -11.516 0.2 77.08
13976.75 0.2 77.044 0.975 -11.557 0.975 -11.557 0.2 77.044
14001.708 0.201 77.008 0.975 -11.598 0.975 -11.598 0.201 77.008
14026.667 0.202 76.972 0.975 -11.639 0.975 -11.639 0.202 76.972
14051.625 0.203 76.935 0.974 -11.68 0.974 -11.68 0.203 76.935
14076.583 0.203 76.899 0.974 -11.722 0.974 -11.722 0.203 76.899
14101.542 0.204 76.863 0.974 -11.763 0.974 -11.763 0.204 76.863
14126.5 0.205 76.827 0.974 -11.804 0.974 -11.804 0.205 76.827
14151.458 0.205 76.791 0.974 -11.845 0.974 -11.845 0.205 76.791
14176.417 0.206 76.755 0.974 -11.885 0.974 -11.885 0.206 76.755
14201.375 0.207 76.719 0.974 -11.926 0.974 -11.926 0.207 76.719
14226.333 0.207 76.683 0.973 -11.967 0.973 -11.967 0.207 76.683
14251.292 0.208 76.647 0.973 -12.008 0.973 -12.008 0.208 76.647
14276.25 0.209 76.611 0.973 -12.049 0.973 -12.049 0.209 76.611
14301.208 0.209 76.575 0.973 -12.089 0.973 -12.089 0.209 76.575
14326.167 0.21 76.539 0.973 -12.13 0.973 -12.13 0.21 76.539
14351.125 0.211 76.503 0.973 -12.17 0.973 -12.17 0.211 76.503
14376.083 0.212 76.467 0.972 -12.211 0.972 -12.211 0.212 76.467
14401.042 0.212 76.431 0.972 -12.251 0.972 -12.251 0.212 76.431
14426 0.213 76.395 0.972 -12.292 0.972 -12.292 0.213 76.395
14450.958 0.214 76.359 0.972 -12.332 0.972 -12.332 0.214 76.359
14475.917 0.214 76.323 0.972 -12.373 0.972 -12.373 0.214 76.323
14500.875 0.215 76.287 0.972 -12.413 0.972 -12.413 0.215 76.287
14525.833 0.216 76.251 0.972 -12.453 0.972 -12.453 0.216 76.251
14550.792 0.216 76.215 0.971 -12.493 0.971 -12.493 0.216 76.215
14575.75 0.217 76.179 0.971 -12.533 0.971 -12.533 0.217 76.179
14600.708 0.218 76.143 0.971 -12.574 0.971 -12.574 0.218 76.143
14625.667 0.218 76.108 0.971 -12.614 0.971 -12.614 0.218 76.108
14650.625 0.219 76.072 0.971 -12.654 0.971 -12.654 0.219 76.072
14675.583 0.22 76.036 0.971 -12.694 0.971 -12.694 0.22 76.036
14700.542 0.22 76 0.971 -12.734 0.971 -12.734 0.22 76
14725.5 0.221 75.964 0.97 -12.773 0.97 -12.773 0.221 75.964
14750.458 0.222 75.928 0.97 -12.813 0.97 -12.813 0.222 75.928
14775.417 0.223 75.893 0.97 -12.853 0.97 -12.853 0.223 75.893
14800.375 0.223 75.857 0.97 -12.893 0.97 -12.893 0.223 75.857
14825.333 0.224 75.821 0.97 -12.933 0.97 -12.933 0.224 75.821
14850.292 0.225 75.786 0.97 -12.972 0.97 -12.972 0.225 75.786
14875.25 0.225 75.75 0.969 -13.012 0.969 -13.012 0.225 75.75
14900.208 0.226 75.714 0.969 -13.051 0.969 -13.051 0.226 75.714
14925.167 0.227 75.678 0.969 -13.091 0.969 -13.091 0.227 75.678
14950.125 0.227 75.643 0.969 -13.13 0.969 -13.13 0.227 75.643
14975.083 0.228 75.607 0.969 -13.17 0.969 -13.17 0.228 75.607
15000.042 0.229 75.572 0.969 -13.209 0.969 -13.209 0.229 75.572
15025 0.229 75.536 0.969 -13.249 0.969 -13.249 0.229 75.536
15049.958 0.23 75.5 0.968 -13.288 0.968 -13.288 0.23 75.5
15074.917 0.231 75.465 0.968 -13.327 0.968 -13.327 0.231 75.465
15099.875 0.231 75.429 0.968 -13.366 0.968 -13.366 0.231 75.429
15124.833 0.232 75.394 0.968 -13.406 0.968 -13.406 0.232 75.394
15149.792 0.233 75.358 0.968 -13.445 0.968 -13.445 0.233 75.358
15174.75 0.233 75.323 0.968 -13.484 0.968 -13.484 0.233 75.323
15199.708 0.234 75.287 0.967 -13.523 0.967 -13.523 0.234 75.287
15224.667 0.235 75.252 0.967 -13.562 0.967 -13.562 0.235 75.252
15249.625 0.235 75.216 0.967 -13.601 0.967 -13.601 0.235 75.216
15274.583 0.236 75.181 0.967 -13.64 0.967 -13.64 0.236 75.181
15299.542 0.237 75.145 0.967 -13.679 0.967 -13.679 0.237 75.145
15324.5 0.237 75.11 0.967 -13.718 0.967 -13.718 0.237 75.11
15349.458 0.238 75.075 0.966 -13.756 0.966 -13.756 0.238 75.075
15374.417 0.239 75.039 0.966 -13.795 0.966 -13.795 0.239 75.039
15399.375 0.239 75.004 0.966 -13.834 0.966 -13.834 0.239 75.004
15424.333 0.24 74.969 0.966 -13.873 0.966 -13.873 0.24 74.969
15449.292 0.24 74.933 0.966 -13.911 0.966 -13.911 0.24 74.933
15474.25 0.241 74.898 0.966 -13.95 0.966 -13.95 0.241 74.898
15499.208 0.242 74.863 0.965 -13.988 0.965 -13.988 0.242 74.863
15524.167 0.242 74.828 0.965 -14.027 0.965 -14.027 0.242 74.828
15549.125 0.243 74.792 0.965 -14.065 0.965 -14.065 0.243 74.792
15574.083 0.244 74.757 0.965 -14.104 0.965 -14.104 0.244 74.757
15599.042 0.244 74.722 0.965 -14.142 0.965 -14.142 0.244 74.722
15624 0.245 74.687 0.965 -14.181 0.965 -14.181 0.245 74.687
15648.958 0.246 74.652 0.965 -14.219 0.965 -14.219 0.246 74.652
15673.917 0.246 74.617 0.964 -14.257 0.964 -14.257 0.246 74.617
15698.875 0.247 74.581 0.964 -14.296 0.964 -14.296 0.247 74.581
15723.833 0.248 74.546 0.964 -14.334 0.964 -14.334 0.248 74.546
15748.792 0.248 74.511 0.964 -14.372 0.964 -14.372 0.248 74.511
15773.75 0.249 74.476 0.964 -14.41 0.964 -14.41 0.249 74.476
15798.708 0.25 74.441 0.964 -14.448 0.964 -14.448 0.25 74.441
15823.667 0.25 74.406 0.963 -14.486 0.963 -14.486 0.25 74.406
15848.625 0.251 74.371 0.963 -14.524 0.963 -14.524 0.251 74.371
15873.583 0.251 74.336 0.963 -14.562 0.963 -14.562 0.251 74.336
15898.542 0.252 74.301 0.963 -14.6 0.963 -14.6 0.252 74.301
15923.5 0.253 74.266 0.963 -14.638 0.963 -14.638 0.253 74.266
15948.458 0.253 74.231 0.963 -14.676 0.963 -14.676 0.253 74.231
15973.417 0.254 74.197 0.962 -14.714 0.962 -14.714 0.254 74.197
15998.375 0.255 74.162 0.962 -14.751 0.962 -14.751 0.255 74.162
16023.333 0.255 74.127 0.962 -14.789 0.962 -14.789 0.255 74.127
16048.292 0.256 74.092 0.962 -14.827 0.962 -14.827 0.256 74.092
16073.25 0.257 74.057 0.962 -14.865 0.962 -14.865 0.257 74.057
16098.208 0.257 74.022 0.962 -14.902 0.962 -14.902 0.257 74.022
16123.167 0.258 73.988 0.961 -14.94 0.961 -14.94 0.258 73.988
16148.125 0.258 73.953 0.961 -14.977 0.961 -14.977 0.258 73.953
16173.083 0.259 73.918 0.961 -15.015 0.961 -15.015 0.259 73.918
16198.042 0.26 73.883 0.961 -15.052 0.961 -15.052 0.26 73.883
16223 0.26 73.849 0.961 -15.09 0.961 -15.09 0.26 73.849
16247.958 0.261 73.814 0.961 -15.127 0.961 -15.127 0.261 73.814
16272.917 0.262 73.779 0.96 -15.165 0.96 -15.165 0.262 73.779
16297.875 0.262 73.745 0.96 -15.202 0.96 -15.202 0.262 73.745
16322.833 0.263 73.71 0.96 -15.239 0.96 -15.239 0.263 73.71
16347.792 0.264 73.676 0.96 -15.277 0.96 -15.277 0.264 73.676
16372.75 0.264 73.641 0.96 -15.314 0.96 -15.314 0.264 73.641
16397.708 0.265 73.606 0.96 -15.351 0.96 -15.351 0.265 73.606
16422.667 0.265 73.572 0.959 -15.388 0.959 -15.388 0.265 73.572
16447.625 0.266 73.537 0.959 -15.425 0.959 -15.425 0.266 73.537
16472.583 0.267 73.503 0.959 -15.462 0.959 -15.462 0.267 73.503
16497.542 0.267 73.469 0.959 -15.499 0.959 -15.499 0.267 73.469
16522.5 0.268 73.434 0.959 -15.537 0.959 -15.537 0.268 73.434
16547.458 0.269 73.4 0.958 -15.574 0.958 -15.574 0.269 73.4
16572.417 0.269 73.365 0.958 -15.61 0.958 -15.61 0.269 73.365
16597.375 0.27 73.331 0.958 -15.647 0.958 -15.647 0.27 73.331
16622.333 0.27 73.297 0.958 -15.684 0.958 -15.684 0.27 73.297
16647.292 0.271 73.262 0.958 -15.721 0.958 -15.721 0.271 73.262
16672.25 0.272 73.228 0.958 -15.758 0.958 -15.758 0.272 73.228
16697.208 0.272 73.194 0.957 -15.795 0.957 -15.795 0.272 73.194
16722.167 0.273 73.159 0.957 -15.831 0.957 -15.831 0.273 73.159
16747.125 0.273 73.125 0.957 -15.868 0.957 -15.868 0.273 73.125
16772.083 0.274 73.091 0.957 -15.905 0.957 -15.905 0.274 73.091
16797.042 0.275 73.057 0.957 -15.941 0.957 -15.941 0.275 73.057
16822 0.275 73.022 0.957 -15.978 0.957 -15.978 0.275 73.022
16846.958 0.276 72.988 0.956 -16.015 0.956 -16.015 0.276 72.988
16871.917 0.277 72.954 0.956 -16.051 0.956 -16.051 0.277 72.954
16896.875 0.277 72.92 0.956 -16.088 0.956 -16.088 0.277 72.92
16921.833 0.278 72.886 0.956 -16.124 0.956 -16.124 0.278 72.886
16946.792 0.278 72.852 0.956 -16.161 0.956 -16.161 0.278 72.852
16971.75 0.279 72.818 0.956 -16.197 0.956 -16.197 0.279 72.818
16996.708 0.28 72.784 0.955 -16.233 0.955 -16.233 0.28 72.784
17021.667 0.28 72.75 0.955 -16.27 0.955 -16.27 0.28 72.75
17046.625 0.281 72.716 0.955 -16.306 0.955 -16.306 0.281 72.716
17071.583 0.281 72.682 0.955 -16.342 0.955 -16.342 0.281 72.682
17096.542 0.282 72.648 0.955 -16.378 0.955 -16.378 0.282 72.648
17121.5 0.283 72.614 0.954 -16.415 0.954 -16.415 0.283 72.614
17146.458 0.283 72.58 0.954 -16.451 0.954 -16.451 0.283 72.58
17171.417 0.284 72.546 0.954 -16.487 0.954 -16.487 0.284 72.546
17196.375 0.284 72.512 0.954 -16.523 0.954 -16.523 0.284 72.512
17221.333 0.285 72.478 0.954 -16.559 0.954 -16.559 0.285 72.478
17246.292 0.286 72.445 0.954 -16.595 0.954 -16.595 0.286 72.445
17271.25 0.286 72.411 0.953 -16.631 0.953 -16.631 0.286 72.411
17296.208 0.287 72.377 0.953 -16.667 0.953 -16.667 0.287 72.377
17321.167 0.287 72.343 0.953 -16.703 0.953 -16.703 0.287 72.343
17346.125 0.288 72.31 0.953 -16.739 0.953 -16.739 0.288 72.31
17371.083 0.289 72.276 0.953 -16.775 0.953 -16.775 0.289 72.276
17396.042 0.289 72.242 0.952 -16.811 0.952 -16.811 0.289 72.242
17421 0.29 72.208 0.952 -16.846 0.952 -16.846 0.29 72.208
17445.958 0.29 72.175 0.952 -16.882 0.952 -16.882 0.29 72.175
17470.917 0.291 72.141 0.952 -16.918 0.952 -16.918 0.291 72.141
17495.875 0.292 72.108 0.952 -16.954 0.952 -16.954 0.292 72.108
17520.833 0.292 72.074 0.952 -16.989 0.952 -16.989 0.292 72.074
17545.792 0.293 72.04 0.951 -17.025 0.951 -17.025 0.293 72.04
17570.75 0.293 72.007 0.951 -17.061 0.951 -17.061 0.293 72.007
17595.708 0.294 71.973 0.951 -17.096 0.951 -17.096 0.294 71.973
17620.667 0.295 71.94 0.951 -17.132 0.951 -17.132 0.295 71.94
17645.625 0.295 71.906 0.951 -17.167 0.951 -17.167 0.295 71.906
17670.583 0.296 71.873 0.95 -17.203 0.95 -17.203 0.296 71.873
17695.542 0.296 71.84 0.95 -17.238 0.95 -17.238 0.296 71.84
17720.5 0.297 71.806 0.95 -17.274 0.95 -17.274 0.297 71.806
17745.458 0.298 71.773 0.95 -17.309 0.95 -17.309 0.298 71.773
17770.417 0.298 71.739 0.95 -17.344 0.95 -17.344 0.298 71.739
17795.375 0.299 71.706 0.95 -17.38 0.95 -17.38 0.299 71.706
17820.333 0.299 71.673 0.949 -17.415 0.949 -17.415 0.299 71.673
17845.292 0.3 71.639 0.949 -17.45 0.949 -17.45 0.3 71.639
17870.25 0.301 71.606 0.949 -17.485 0.949 -17.485 0.301 71.606
17895.208 0.301 71.573 0.949 -17.521 0.949 -17.521 0.301 71.573
17920.167 0.302 71.54 0.949 -17.556 0.949 -17.556 0.302 71.54
17945.125 0.302 71.506 0.948 -17.591 0.948 -17.591 0.302 71.506
17970.083 0.303 71.473 0.948 -17.626 0.948 -17.626 0.303 71.473
17995.042 0.303 71.44 0.948 -17.661 0.948 -17.661 0.303 71.44
18020 0.304 71.407 0.948 -17.696 0.948 -17.696 0.304 71.407
18044.958 0.305 71.374 0.948 -17.731 0.948 -17.731 0.305 71.374
18069.917 0.305 71.341 0.948 -17.766 0.948 -17.766 0.305 71.341
18094.875 0.306 71.308 0.947 -17.801 0.947 -17.801 0.306 71.308
18119.833 0.306 71.274 0.947 -17.836 0.947 -17.836 0.306 71.274
18144.792 0.307 71.241 0.947 -17.871 0.947 -17.871 0.307 71.241
18169.75 0.307 71.208 0.947 -17.906 0.947 -17.906 0.307 71.208
18194.708 0.308 71.175 0.947 -17.941 0.947 -17.941 0.308 71.175
18219.667 0.309 71.142 0.946 -17.975 0.946 -17.975 0.309 71.142
18244.625 0.309 71.109 0.946 -18.01 0.946 -18.01 0.309 71.109
18269.583 0.31 71.077 0.946 -18.045 0.946 -18.045 0.31 71.077
18294.542 0.31 71.044 0.946 -18.08 0.946 -18.08 0.31 71.044
18319.5 0.311 71.011 0.946 -18.114 0.946 -18.114 0.311 71.011
18344.458 0.312 70.978 0.946 -18.149 0.946 -18.149 0.312 70.978
18369.417 0.312 70.945 0.945 -18.184 0.945 -18.184 0.312 70.945
18394.375 0.313 70.912 0.945 -18.218 0.945 -18.218 0.313 70.912
18419.333 0.313 70.879 0.945 -18.253 0.945 -18.253 0.313 70.879
18444.292 0.314 70.847 0.945 -18.287 0.945 -18.287 0.314 70.847
18469.25 0.314 70.814 0.945 -18.322 0.945 -18.322 0.314 70.814
18494.208 0.315 70.781 0.944 -18.356 0.944 -18.356 0.315 70.781
18519.167 0.316 70.748 0.944 -18.391 0.944 -18.391 0.316 70.748
18544.125 0.316 70.716 0.944 -18.425 0.944 -18.425 0.316 70.716
18569.083 0.317 70.683 0.944 -18.46 0.944 -18.46 0.317 70.683
18594.042 0.317 70.65 0.944 -18.494 0.944 -18.494 0.317 70.65
18619 0.318 70.618 0.943 -18.528 0.943 -18.528 0.318 70.618
18643.958 0.318 70.585 0.943 -18.563 0.943 -18.563 0.318 70.585
18668.917 0.319 70.552 0.943 -18.597 0.943 -18.597 0.319 70.552
18693.875 0.32 70.52 0.943 -18.631 0.943 -18.631 0.32 70.52
18718.833 0.32 70.487 0.943 -18.666 0.943 -18.666 0.32 70.487
18743.792 0.321 70.455 0.942 -18.7 0.942 -18.7 0.321 70.455
18768.75 0.321 70.422 0.942 -18.734 0.942 -18.734 0.321 70.422
18793.708 0.322 70.39 0.942 -18.768 0.942 -18.768 0.322 70.39
18818.667 0.322 70.357 0.942 -18.802 0.942 -18.802 0.322 70.357
18843.625 0.323 70.325 0.942 -18.836 0.942 -18.836 0.323 70.325
18868.583 0.323 70.292 0.942 -18.87 0.942 -18.87 0.323 70.292
18893.542 0.324 70.26 0.941 -18.904 0.941 -18.904 0.324 70.26
18918.5 0.325 70.228 0.941 -18.938 0.941 -18.938 0.325 70.228
18943.458 0.325 70.195 0.941 -18.972 0.941 -18.972 0.325 70.195
18968.417 0.326 70.163 0.941 -19.006 0.941 -19.006 0.326 70.163
18993.375 0.326 70.131 0.941 -19.04 0.941 -19.04 0.326 70.131
19018.333 0.327 70.098 0.94 -19.074 0.94 -19.074 0.327 70.098
19043.292 0.327 70.066 0.94 -19.108 0.94 -19.108 0.327 70.066
19068.25 0.328 70.034 0.94 -19.142 0.94 -19.142 0.328 70.034
19093.208 0.328 70.001 0.94 -19.176 0.94 -19.176 0.328 70.001
19118.167 0.329 69.969 0.94 -19.209 0.94 -19.209 0.329 69.969
19143.125 0.33 69.937 0.939 -19.243 0.939 -19.243 0.33 69.937
19168.083 0.33 69.905 0.939 -19.277 0.939 -19.277 0.33 69.905
19193.042 0.331 69.873 0.939 -19.311 0.939 -19.311 0.331 69.873
19218 0.331 69.841 0.939 -19.344 0.939 -19.344 0.331 69.841
19242.958 0.332 69.808 0.939 -19.378 0.939 -19.378 0.332 69.808
19267.917 0.332 69.776 0.938 -19.411 0.938 -19.411 0.332 69.776
19292.875 0.333 69.744 0.938 -19.445 0.938 -19.445 0.333 69.744
19317.833 0.333 69.712 0.938 -19.479 0.938 -19.479 0.333 69.712
19342.792 0.334 69.68 0.938 -19.512 0.938 -19.512 0.334 69.68
19367.75 0.335 69.648 0.938 -19.546 0.938 -19.546 0.335 69.648
19392.708 0.335 69.616 0.937 -19.579 0.937 -19.579 0.335 69.616
19417.667 0.336 69.584 0.937 -19.613 0.937 -19.613 0.336 69.584
19442.625 0.336 69.552 0.937 -19.646 0.937 -19.646 0.336 69.552
19467.583 0.337 69.52 0.937 -19.679 0.937 -19.679 0.337 69.52
19492.542 0.337 69.489 0.937 -19.713 0.937 -19.713 0.337 69.489
19517.5 0.338 69.457 0.936 -19.746 0.936 -19.746 0.338 69.457
19542.458 0.338 69.425 0.936 -19.779 0.936 -19.779 0.338 69.425
19567.417 0.339 69.393 0.936 -19.813 0.936 -19.813 0.339 69.393
19592.375 0.34 69.361 0.936 -19.846 0.936 -19.846 0.34 69.361
19617.333 0.34 69.329 0.936 -19.879 0.936 -19.879 0.34 69.329
19642.292 0.341 69.298 0.936 -19.912 0.936 -19.912 0.341 69.298
19667.25 0.341 69.266 0.935 -19.946 0.935 -19.946 0.341 69.266
19692.208 0.342 69.234 0.935 -19.979 0.935 -19.979 0.342 69.234
19717.167 0.342 69.202 0.935 -20.012 0.935 -20.012 0.342 69.202
19742.125 0.343 69.171 0.935 -20.045 0.935 -20.045 0.343 69.171
19767.083 0.343 69.139 0.935 -20.078 0.935 -20.078 0.343 69.139
19792.042 0.344 69.107 0.934 -20.111 0.934 -20.111 0.344 69.107
19817 0.344 69.076 0.934 -20.144 0.934 -20.144 0.344 69.076
19841.958 0.345 69.044 0.934 -20.177 0.934 -20.177 0.345 69.044
19866.917 0.345 69.012 0.934 -20.21 0.934 -20.21 0.345 69.012
19891.875 0.346 68.981 0.934 -20.243 0.934 -20.243 0.346 68.981
19916.833 0.347 68.949 0.933 -20.276 0.933 -20.276 0.347 68.949
19941.792 0.347 68.918 0.933 -20.309 0.933 -20.309 0.347 68.918
19966.75 0.348 68.886 0.933 -20.342 0.933 -20.342 0.348 68.886
19991.708 0.348 68.855 0.933 -20.375 0.933 -20.375 0.348 68.855
20016.667 0.349 68.823 0.933 -20.407 0.933 -20.407 0.349 68.823
20041.625 0.349 68.792 0.932 -20.44 0.932 -20.44 0.349 68.792
20066.583 0.35 68.761 0.932 -20.473 0.932 -20.473 0.35 68.761
20091.542 0.35 68.729 0.932 -20.506 0.932 -20.506 0.35 68.729
20116.5 0.351 68.698 0.932 -20.538 0.932 -20.538 0.351 68.698
20141.458 0.351 68.666 0.932 -20.571 0.932 -20.571 0.351 68.666
20166.417 0.352 68.635 0.931 -20.604 0.931 -20.604 0.352 68.635
20191.375 0.352 68.604 0.931 -20.636 0.931 -20.636 0.352 68.604
20216.333 0.353 68.572 0.931 -20.669 0.931 -20.669 0.353 68.572
20241.292 0.354 68.541 0.931 -20.702 0.931 -20.702 0.354 68.541
20266.25 0.354 68.51 0.931 -20.734 0.931 -20.734 0.354 68.51
20291.208 0.355 68.479 0.93 -20.767 0.93 -20.767 0.355 68.479
20316.167 0.355 68.447 0.93 -20.799 0.93 -20.799 0.355 68.447
20341.125 0.356 68.416 0.93 -20.832 0.93 -20.832 0.356 68.416
20366.083 0.356 68.385 0.93 -20.864 0.93 -20.864 0.356 68.385
20391.042 0.357 68.354 0.93 -20.897 0.93 -20.897 0.357 68.354
20416 0.357 68.323 0.929 -20.929 0.929 -20.929 0.357 68.323
20440.958 0.358 68.292 0.929 -20.961 0.929 -20.961 0.358 68.292
20465.917 0.358 68.26 0.929 -20.994 0.929 -20.994 0.358 68.26
20490.875 0.359 68.229 0.929 -21.026 0.929 -21.026 0.359 68.229
20515.833 0.359 68.198 0.929 -21.058 0.929 -21.058 0.359 68.198
20540.792 0.36 68.167 0.928 -21.091 0.928 -21.091 0.36 68.167
20565.75 0.36 68.136 0.928 -21.123 0.928 -21.123 0.36 68.136
20590.708 0.361 68.105 0.928 -21.155 0.928 -21.155 0.361 68.105
20615.667 0.361 68.074 0.928 -21.187 0.928 -21.187 0.361 68.074
20640.625 0.362 68.043 0.928 -21.22 0.928 -21.22 0.362 68.043
20665.583 0.362 68.012 0.927 -21.252 0.927 -21.252 0.362 68.012
20690.542 0.363 67.981 0.927 -21.284 0.927 -21.284 0.363 67.981
20715.5 0.364 67.951 0.927 -21.316 0.927 -21.316 0.364 67.951
20740.458 0.364 67.92 0.927 -21.348 0.927 -21.348 0.364 67.92
20765.417 0.365 67.889 0.927 -21.38 0.927 -21.38 0.365 67.889
20790.375 0.365 67.858 0.926 -21.412 0.926 -21.412 0.365 67.858
20815.333 0.366 67.827 0.926 -21.444 0.926 -21.444 0.366 67.827
20840.292 0.366 67.796 0.926 -21.476 0.926 -21.476 0.366 67.796
20865.25 0.367 67.766 0.926 -21.508 0.926 -21.508 0.367 67.766
20890.208 0.367 67.735 0.926 -21.54 0.926 -21.54 0.367 67.735
20915.167 0.368 67.704 0.925 -21.572 0.925 -21.572 0.368 67.704
20940.125 0.368 67.673 0.925 -21.604 0.925 -21.604 0.368 67.673
20965.083 0.369 67.643 0.925 -21.636 0.925 -21.636 0.369 67.643
20990.042 0.369 67.612 0.925 -21.668 0.925 -21.668 0.369 67.612
21015 0.37 67.581 0.924 -21.699 0.924 -21.699 0.37 67.581
21039.958 0.37 67.551 0.924 -21.731 0.924 -21.731 0.37 67.551
21064.917 0.371 67.52 0.924 -21.763 0.924 -21.763 0.371 67.52
21089.875 0.371 67.49 0.924 -21.795 0.924 -21.795 0.371 67.49
21114.833 0.372 67.459 0.924 -21.826 0.924 -21.826 0.372 67.459
21139.792 0.372 67.428 0.923 -21.858 0.923 -21.858 0.372 67.428
21164.75 0.373 67.398 0.923 -21.89 0.923 -21.89 0.373 67.398
21189.708 0.373 67.367 0.923 -21.921 0.923 -21.921 0.373 67.367
21214.667 0.374 67.337 0.923 -21.953 0.923 -21.953 0.374 67.337
21239.625 0.374 67.306 0.923 -21.985 0.923 -21.985 0.374 67.306
21264.583 0.375 67.276 0.922 -22.016 0.922 -22.016 0.375 67.276
21289.542 0.375 67.245 0.922 -22.048 0.922 -22.048 0.375 67.245
21314.5 0.376 67.215 0.922 -22.079 0.922 -22.079 0.376 67.215
21339.458 0.376 67.185 0.922 -22.111 0.922 -22.111 0.376 67.185
21364.417 0.377 67.154 0.922 -22.142 0.922 -22.142 0.377 67.154
21389.375 0.377 67.124 0.921 -22.174 0.921 -22.174 0.377 67.124
21414.333 0.378 67.094 0.921 -22.205 0.921 -22.205 0.378 67.094
21439.292 0.378 67.063 0.921 -22.237 0.921 -22.237 0.378 67.063
21464.25 0.379 67.033 0.921 -22.268 0.921 -22.268 0.379 67.033
21489.208 0.379 67.003 0.921 -22.299 0.921 -22.299 0.379 67.003
21514.167 0.38 66.972 0.92 -22.331 0.92 -22.331 0.38 66.972
21539.125 0.38 66.942 0.92 -22.362 0.92 -22.362 0.38 66.942
21564.083 0.381 66.912 0.92 -22.393 0.92 -22.393 0.381 66.912
21589.042 0.381 66.882 0.92 -22.425 0.92 -22.425 0.381 66.882
21614 0.382 66.852 0.92 -22.456 0.92 -22.456 0.382 66.852
21638.958 0.383 66.821 0.919 -22.487 0.919 -22.487 0.383 66.821
21663.917 0.383 66.791 0.919 -22.518 0.919 -22.518 0.383 66.791
21688.875 0.384 66.761 0.919 -22.55 0.919 -22.55 0.384 66.761
21713.833 0.384 66.731 0.919 -22.581 0.919 -22.581 0.384 66.731
21738.792 0.385 66.701 0.919 -22.612 0.919 -22.612 0.385 66.701
21763.75 0.385 66.671 0.918 -22.643 0.918 -22.643 0.385 66.671
21788.708 0.386 66.641 0.918 -22.674 0.918 -22.674 0.386 66.641
21813.667 0.386 66.611 0.918 -22.705 0.918 -22.705 0.386 66.611
21838.625 0.387 66.581 0.918 -22.736 0.918 -22.736 0.387 66.581
21863.583 0.387 66.551 0.917 -22.767 0.917 -22.767 0.387 66.551
21888.542 0.388 66.521 0.917 -22.798 0.917 -22.798 0.388 66.521
21913.5 0.388 66.491 0.917 -22.829 0.917 -22.829 0.388 66.491
21938.458 0.389 66.461 0.917 -22.86 0.917 -22.86 0.389 66.461
21963.417 0.389 66.431 0.917 -22.891 0.917 -22.891 0.389 66.431
21988.375 0.39 66.401 0.916 -22.922 0.916 -22.922 0.39 66.401
22013.333 0.39 66.371 0.916 -22.953 0.916 -22.953 0.39 66.371
22038.292 0.39 66.341 0.916 -22.984 0.916 -22.984 0.39 66.341
22063.25 0.391 66.312 0.916 -23.015 0.916 -23.015 0.391 66.312
22088.208 0.391 66.282 0.916 -23.045 0.916 -23.045 0.391 66.282
22113.167 0.392 66.252 0.915 -23.076 0.915 -23.076 0.392 66.252
22138.125 0.392 66.222 0.915 -23.107 0.915 -23.107 0.392 66.222
22163.083 0.393 66.193 0.915 -23.138 0.915 -23.138 0.393 66.193
22188.042 0.393 66.163 0.915 -23.168 0.915 -23.168 0.393 66.163
22213 0.394 66.133 0.915 -23.199 0.915 -23.199 0.394 66.133
22237.958 0.394 66.103 0.914 -23.23 0.914 -23.23 0.394 66.103
22262.917 0.395 66.074 0.914 -23.26 0.914 -23.26 0.395 66.074
22287.875 0.395 66.044 0.914 -23.291 0.914 -23.291 0.395 66.044
22312.833 0.396 66.014 0.914 -23.322 0.914 -23.322 0.396 66.014
22337.792 0.396 65.985 0.913 -23.352 0.913 -23.352 0.396 65.985
22362.75 0.397 65.955 0.913 -23.383 0.913 -23.383 0.397 65.955
22387.708 0.397 65.926 0.913 -23.413 0.913 -23.413 0.397 65.926
22412.667 0.398 65.896 0.913 -23.444 0.913 -23.444 0.398 65.896
22437.625 0.398 65.866 0.913 -23.474 0.913 -23.474 0.398 65.866
22462.583 0.399 65.837 0.912 -23.505 0.912 -23.505 0.399 65.837
22487.542 0.399 65.807 0.912 -23.535 0.912 -23.535 0.399 65.807
22512.5 0.4 65.778 0.912 -23.566 0.912 -23.566 0.4 65.778
22537.458 0.4 65.748 0.912 -23.596 0.912 -23.596 0.4 65.748
22562.417 0.401 65.719 0.912 -23.627 0.912 -23.627 0.401 65.719
22587.375 0.401 65.69 0.911 -23.657 0.911 -23.657 0.401 65.69
22612.333 0.402 65.66 0.911 -23.687 0.911 -23.687 0.402 65.66
22637.292 0.402 65.631 0.911 -23.718 0.911 -23.718 0.402 65.631
22662.25 0.403 65.601 0.911 -23.748 0.911 -23.748 0.403 65.601
22687.208 0.403 65.572 0.911 -23.778 0.911 -23.778 0.403 65.572
22712.167 0.404 65.543 0.91 -23.809 0.91 -23.809 0.404 65.543
22737.125 0.404 65.513 0.91 -23.839 0.91 -23.839 0.404 65.513
22762.083 0.405 65.484 0.91 -23.869 0.91 -23.869 0.405 65.484
22787.042 0.405 65.455 0.91 -23.899 0.91 -23.899 0.405 65.455
22812 0.406 65.426 0.909 -23.929 0.909 -23.929 0.406 65.426
22836.958 0.406 65.396 0.909 -23.96 0.909 -23.96 0.406 65.396
22861.917 0.407 65.367 0.909 -23.99 0.909 -23.99 0.407 65.367
22886.875 0.407 65.338 0.909 -24.02 0.909 -24.02 0.407 65.338
22911.833 0.408 65.309 0.909 -24.05 0.909 -24.05 0.408 65.309
22936.792 0.408 65.28 0.908 -24.08 0.908 -24.08 0.408 65.28
22961.75 0.409 65.25 0.908 -24.11 0.908 -24.11 0.409 65.25
22986.708 0.409 65.221 0.908 -24.14 0.908 -24.14 0.409 65.221
23011.667 0.409 65.192 0.908 -24.17 0.908 -24.17 0.409 65.192
23036.625 0.41 65.163 0.908 -24.2 0.908 -24.2 0.41 65.163
23061.583 0.41 65.134 0.907 -24.23 0.907 -24.23 0.41 65.134
23086.542 0.411 65.105 0.907 -24.26 0.907 -24.26 0.411 65.105
23111.5 0.411 65.076 0.907 -24.29 0.907 -24.29 0.411 65.076
23136.458 0.412 65.047 0.907 -24.32 0.907 -24.32 0.412 65.047
23161.417 0.412 65.018 0.906 -24.35 0.906 -24.35 0.412 65.018
23186.375 0.413 64.989 0.906 -24.38 0.906 -24.38 0.413 64.989
23211.333 0.413 64.96 0.906 -24.409 0.906 -24.409 0.413 64.96
23236.292 0.414 64.931 0.906 -24.439 0.906 -24.439 0.414 64.931
23261.25 0.414 64.902 0.906 -24.469 0.906 -24.469 0.414 64.902
23286.208 0.415 64.873 0.905 -24.499 0.905 -24.499 0.415 64.873
23311.167 0.415 64.844 0.905 -24.528 0.905 -24.528 0.415 64.844
23336.125 0.416 64.815 0.905 -24.558 0.905 -24.558 0.416 64.815
23361.083 0.416 64.787 0.905 -24.588 0.905 -24.588 0.416 64.787
23386.042 0.417 64.758 0.905 -24.618 0.905 -24.618 0.417 64.758
23411 0.417 64.729 0.904 -24.647 0.904 -24.647 0.417 64.729
23435.958 0.418 64.7 0.904 -24.677 0.904 -24.677 0.418 64.7
23460.917 0.418 64.671 0.904 -24.707 0.904 -24.707 0.418 64.671
23485.875 0.418 64.643 0.904 -24.736 0.904 -24.736 0.418 64.643
23510.833 0.419 64.614 0.903 -24.766 0.903 -24.766 0.419 64.614
23535.792 0.419 64.585 0.903 -24.795 0.903 -24.795 0.419 64.585
23560.75 0.42 64.556 0.903 -24.825 0.903 -24.825 0.42 64.556
23585.708 0.42 64.528 0.903 -24.854 0.903 -24.854 0.42 64.528
23610.667 0.421 64.499 0.903 -24.884 0.903 -24.884 0.421 64.499
23635.625 0.421 64.471 0.902 -24.913 0.902 -24.913 0.421 64.471
23660.583 0.422 64.442 0.902 -24.943 0.902 -24.943 0.422 64.442
23685.542 0.422 64.413 0.902 -24.972 0.902 -24.972 0.422 64.413
23710.5 0.423 64.385 0.902 -25.002 0.902 -25.002 0.423 64.385
23735.458 0.423 64.356 0.902 -25.031 0.902 -25.031 0.423 64.356
23760.417 0.424 64.328 0.901 -25.06 0.901 -25.06 0.424 64.328
23785.375 0.424 64.299 0.901 -25.09 0.901 -25.09 0.424 64.299
23810.333 0.425 64.27 0.901 -25.119 0.901 -25.119 0.425 64.27
23835.292 0.425 64.242 0.901 -25.148 0.901 -25.148 0.425 64.242
23860.25 0.425 64.214 0.9 -25.178 0.9 -25.178 0.425 64.214
23885.208 0.426 64.185 0.9 -25.207 0.9 -25.207 0.426 64.185
23910.167 0.426 64.157 0.9 -25.236 0.9 -25.236 0.426 64.157
23935.125 0.427 64.128 0.9 -25.265 0.9 -25.265 0.427 64.128
23960.083 0.427 64.1 0.9 -25.295 0.9 -25.295 0.427 64.1
23985.042 0.428 64.071 0.899 -25.324 0.899 -25.324 0.428 64.071
24010 0.428 64.043 0.899 -25.353 0.899 -25.353 0.428 64.043
24034.958 0.429 64.015 0.899 -25.382 0.899 -25.382 0.429 64.015
24059.917 0.429 63.986 0.899 -25.411 0.899 -25.411 0.429 63.986
24084.875 0.43 63.958 0.899 -25.44 0.899 -25.44 0.43 63.958
24109.833 0.43 63.93 0.898 -25.469 0.898 -25.469 0.43 63.93
24134.792 0.431 63.901 0.898 -25.498 0.898 -25.498 0.431 63.901
24159.75 0.431 63.873 0.898 -25.528 0.898 -25.528 0.431 63.873
24184.708 0.431 63.845 0.898 -25.557 0.898 -25.557 0.431 63.845
24209.667 0.432 63.817 0.897 -25.586 0.897 -25.586 0.432 63.817
24234.625 0.432 63.788 0.897 -25.615 0.897 -25.615 0.432 63.788
24259.583 0.433 63.76 0.897 -25.643 0.897 -25.643 0.433 63.76
24284.542 0.433 63.732 0.897 -25.672 0.897 -25.672 0.433 63.732
24309.5 0.434 63.704 0.897 -25.701 0.897 -25.701 0.434 63.704
24334.458 0.434 63.676 0.896 -25.73 0.896 -25.73 0.434 63.676
24359.417 0.435 63.648 0.896 -25.759 0.896 -25.759 0.435 63.648
24384.375 0.435 63.62 0.896 -25.788 0.896 -25.788 0.435 63.62
24409.333 0.436 63.592 0.896 -25.817 0.896 -25.817 0.436 63.592
24434.292 0.436 63.563 0.895 -25.846 0.895 -25.846 0.436 63.563
24459.25 0.436 63.535 0.895 -25.874 0.895 -25.874 0.436 63.535
24484.208 0.437 63.507 0.895 -25.903 0.895 -25.903 0.437 63.507
24509.167 0.437 63.479 0.895 -25.932 0.895 -25.932 0.437 63.479
24534.125 0.438 63.451 0.895 -25.961 0.895 -25.961 0.438 63.451
24559.083 0.438 63.423 0.894 -25.989 0.894 -25.989 0.438 63.423
24584.042 0.439 63.395 0.894 -26.018 0.894 -26.018 0.439 63.395
24609 0.439 63.368 0.894 -26.047 0.894 -26.047 0.439 63.368
24633.958 0.44 63.34 0.894 -26.076 0.894 -26.076 0.44 63.34
24658.917 0.44 63.312 0.894 -26.104 0.894 -26.104 0.44 63.312
24683.875 0.44 63.284 0.893 -26.133 0.893 -26.133 0.44 63.284
24708.833 0.441 63.256 0.893 -26.161 0.893 -26.161 0.441 63.256
24733.792 0.441 63.228 0.893 -26.19 0.893 -26.19 0.441 63.228
24758.75 0.442 63.2 0.893 -26.219 0.893 -26.219 0.442 63.2
24783.708 0.442 63.172 0.892 -26.247 0.892 -26.247 0.442 63.172
24808.667 0.443 63.145 0.892 -26.276 0.892 -26.276 0.443 63.145
24833.625 0.443 63.117 0.892 -26.304 0.892 -26.304 0.443 63.117
24858.583 0.444 63.089 0.892 -26.333 0.892 -26.333 0.444 63.089
24883.542 0.444 63.061 0.892 -26.361 0.892 -26.361 0.444 63.061
24908.5 0.444 63.034 0.891 -26.39 0.891 -26.39 0.444 63.034
24933.458 0.445 63.006 0.891 -26.418 0.891 -26.418 0.445 63.006
24958.417 0.445 62.978 0.891 -26.446 0.891 -26.446 0.445 62.978
24983.375 0.446 62.951 0.891 -26.475 0.891 -26.475 0.446 62.951
25008.333 0.446 62.923 0.89 -26.503 0.89 -26.503 0.446 62.923
25033.292 0.447 62.895 0.89 -26.531 0.89 -26.531 0.447 62.895
25058.25 0.447 62.868 0.89 -26.56 0.89 -26.56 0.447 62.868
25083.208 0.448 62.84 0.89 -26.588 0.89 -26.588 0.448 62.84
25108.167 0.448 62.812 0.89 -26.616 0.89 -26.616 0.448 62.812
25133.125 0.448 62.785 0.889 -26.645 0.889 -26.645 0.448 62.785
25158.083 0.449 62.757 0.889 -26.673 0.889 -26.673 0.449 62.757
25183.042 0.449 62.73 0.889 -26.701 0.889 -26.701 0.449 62.73
25208 0.45 62.702 0.889 -26.729 0.889 -26.729 0.45 62.702
25232.958 0.45 62.675 0.888 -26.758 0.888 -26.758 0.45 62.675
25257.917 0.451 62.647 0.888 -26.786 0.888 -26.786 0.451 62.647
25282.875 0.451 62.62 0.888 -26.814 0.888 -26.814 0.451 62.62
25307.833 0.452 62.592 0.888 -26.842 0.888 -26.842 0.452 62.592
25332.792 0.452 62.565 0.888 -26.87 0.888 -26.87 0.452 62.565
25357.75 0.452 62.538 0.887 -26.898 0.887 -26.898 0.452 62.538
25382.708 0.453 62.51 0.887 -26.926 0.887 -26.926 0.453 62.51
25407.667 0.453 62.483 0.887 -26.954 0.887 -26.954 0.453 62.483
25432.625 0.454 62.455 0.887 -26.982 0.887 -26.982 0.454 62.455
25457.583 0.454 62.428 0.886 -27.01 0.886 -27.01 0.454 62.428
25482.542 0.455 62.401 0.886 -27.038 0.886 -27.038 0.455 62.401
25507.5 0.455 62.373 0.886 -27.066 0.886 -27.066 0.455 62.373
25532.458 0.455 62.346 0.886 -27.094 0.886 -27.094 0.455 62.346
25557.417 0.456 62.319 0.886 -27.122 0.886 -27.122 0.456 62.319
25582.375 0.456 62.292 0.885 -27.15 0.885 -27.15 0.456 62.292
25607.333 0.457 62.264 0.885 -27.178 0.885 -27.178 0.457 62.264
25632.292 0.457 62.237 0.885 -27.206 0.885 -27.206 0.457 62.237
25657.25 0.458 62.21 0.885 -27.234 0.885 -27.234 0.458 62.21
25682.208 0.458 62.183 0.884 -27.262 0.884 -27.262 0.458 62.183
25707.167 0.459 62.156 0.884 -27.29 0.884 -27.29 0.459 62.156
25732.125 0.459 62.128 0.884 -27.317 0.884 -27.317 0.459 62.128
25757.083 0.459 62.101 0.884 -27.345 0.884 -27.345 0.459 62.101
25782.042 0.46 62.074 0.884 -27.373 0.884 -27.373 0.46 62.074
25807 0.46 62.047 0.883 -27.401 0.883 -27.401 0.46 62.047
25831.958 0.461 62.02 0.883 -27.428 0.883 -27.428 0.461 62.02
25856.917 0.461 61.993 0.883 -27.456 0.883 -27.456 0.461 61.993
25881.875 0.462 61.966 0.883 -27.484 0.883 -27.484 0.462 61.966
25906.833 0.462 61.939 0.882 -27.512 0.882 -27.512 0.462 61.939
25931.792 0.462 61.912 0.882 -27.539 0.882 -27.539 0.462 61.912
25956.75 0.463 61.885 0.882 -27.567 0.882 -27.567 0.463 61.885
25981.708 0.463 61.858 0.882 -27.594 0.882 -27.594 0.463 61.858
26006.667 0.464 61.831 0.882 -27.622 0.882 -27.622 0.464 61.831
26031.625 0.464 61.804 0.881 -27.65 0.881 -27.65 0.464 61.804
26056.583 0.465 61.777 0.881 -27.677 0.881 -27.677 0.465 61.777
26081.542 0.465 61.75 0.881 -27.705 0.881 -27.705 0.465 61.75
26106.5 0.465 61.723 0.881 -27.732 0.881 -27.732 0.465 61.723
26131.458 0.466 61.696 0.88 -27.76 0.88 -27.76 0.466 61.696
26156.417 0.466 61.67 0.88 -27.787 0.88 -27.787 0.466 61.67
26181.375 0.467 61.643 0.88 -27.815 0.88 -27.815 0.467 61.643
26206.333 0.467 61.616 0.88 -27.842 0.88 -27.842 0.467 61.616
26231.292 0.467 61.589 0.88 -27.87 0.88 -27.87 0.467 61.589
26256.25 0.468 61.562 0.879 -27.897 0.879 -27.897 0.468 61.562
26281.208 0.468 61.535 0.879 -27.925 0.879 -27.925 0.468 61.535
26306.167 0.469 61.509 0.879 -27.952 0.879 -27.952 0.469 61.509
26331.125 0.469 61.482 0.879 -27.979 0.879 -27.979 0.469 61.482
26356.083 0.47 61.455 0.878 -28.007 0.878 -28.007 0.47 61.455
26381.042 0.47 61.429 0.878 -28.034 0.878 -28.034 0.47 61.429
26406 0.47 61.402 0.878 -28.061 0.878 -28.061 0.47 61.402
26430.958 0.471 61.375 0.878 -28.089 0.878 -28.089 0.471 61.375
26455.917 0.471 61.349 0.878 -28.116 0.878 -28.116 0.471 61.349
26480.875 0.472 61.322 0.877 -28.143 0.877 -28.143 0.472 61.322
26505.833 0.472 61.295 0.877 -28.17 0.877 -28.17 0.472 61.295
26530.792 0.473 61.269 0.877 -28.197 0.877 -28.197 0.473 61.269
26555.75 0.473 61.242 0.877 -28.225 0.877 -28.225 0.473 61.242
26580.708 0.473 61.215 0.876 -28.252 0.876 -28.252 0.473 61.215
26605.667 0.474 61.189 0.876 -28.279 0.876 -28.279 0.474 61.189
26630.625 0.474 61.162 0.876 -28.306 0.876 -28.306 0.474 61.162
26655.583 0.475 61.136 0.876 -28.333 0.876 -28.333 0.475 61.136
26680.542 0.475 61.109 0.876 -28.36 0.876 -28.36 0.475 61.109
26705.5 0.475 61.083 0.875 -28.387 0.875 -28.387 0.475 61.083
26730.458 0.476 61.056 0.875 -28.415 0.875 -28.415 0.476 61.056
26755.417 0.476 61.03 0.875 -28.442 0.875 -28.442 0.476 61.03
26780.375 0.477 61.004 0.875 -28.469 0.875 -28.469 0.477 61.004
26805.333 0.477 60.977 0.874 -28.496 0.874 -28.496 0.477 60.977
26830.292 0.478 60.951 0.874 -28.523 0.874 -28.523 0.478 60.951
26855.25 0.478 60.924 0.874 -28.55 0.874 -28.55 0.478 60.924
26880.208 0.478 60.898 0.874 -28.577 0.874 -28.577 0.478 60.898
26905.167 0.479 60.872 0.874 -28.604 0.874 -28.604 0.479 60.872
26930.125 0.479 60.845 0.873 -28.63 0.873 -28.63 0.479 60.845
26955.083 0.48 60.819 0.873 -28.657 0.873 -28.657 0.48 60.819
26980.042 0.48 60.793 0.873 -28.684 0.873 -28.684 0.48 60.793
27005 0.48 60.766 0.873 -28.711 0.873 -28.711 0.48 60.766
27029.958 0.481 60.74 0.872 -28.738 0.872 -28.738 0.481 60.74
27054.917 0.481 60.714 0.872 -28.765 0.872 -28.765 0.481 60.714
27079.875 0.482 60.688 0.872 -28.792 0.872 -28.792 0.482 60.688
27104.833 0.482 60.661 0.872 -28.818 0.872 -28.818 0.482 60.661
27129.792 0.482 60.635 0.872 -28.845 0.872 -28.845 0.482 60.635
27154.75 0.483 60.609 0.871 -28.872 0.871 -28.872 0.483 60.609
27179.708 0.483 60.583 0.871 -28.899 0.871 -28.899 0.483 60.583
27204.667 0.484 60.557 0.871 -28.925 0.871 -28.925 0.484 60.557
27229.625 0.484 60.53 0.871 -28.952 0.871 -28.952 0.484 60.53
27254.583 0.485 60.504 0.87 -28.979 0.87 -28.979 0.485 60.504
27279.542 0.485 60.478 0.87 -29.005 0.87 -29.005 0.485 60.478
27304.5 0.485 60.452 0.87 -29.032 0.87 -29.032 0.485 60.452
27329.458 0.486 60.426 0.87 -29.059 0.87 -29.059 0.486 60.426
27354.417 0.486 60.4 0.87 -29.085 0.87 -29.085 0.486 60.4
27379.375 0.487 60.374 0.869 -29.112 0.869 -29.112 0.487 60.374
27404.333 0.487 60.348 0.869 -29.139 0.869 -29.139 0.487 60.348
27429.292 0.487 60.322 0.869 -29.165 0.869 -29.165 0.487 60.322
27454.25 0.488 60.296 0.869 -29.192 0.869 -29.192 0.488 60.296
27479.208 0.488 60.27 0.868 -29.218 0.868 -29.218 0.488 60.27
27504.167 0.489 60.244 0.868 -29.245 0.868 -29.245 0.489 60.244
27529.125 0.489 60.218 0.868 -29.271 0.868 -29.271 0.489 60.218
27554.083 0.489 60.192 0.868 -29.298 0.868 -29.298 0.489 60.192
27579.042 0.49 60.166 0.868 -29.324 0.868 -29.324 0.49 60.166
27604 0.49 60.14 0.867 -29.351 0.867 -29.351 0.49 60.14
27628.958 0.491 60.115 0.867 -29.377 0.867 -29.377 0.491 60.115
27653.917 0.491 60.089 0.867 -29.403 0.867 -29.403 0.491 60.089
27678.875 0.491 60.063 0.867 -29.43 0.867 -29.43 0.491 60.063
27703.833 0.492 60.037 0.866 -29.456 0.866 -29.456 0.492 60.037
27728.792 0.492 60.011 0.866 -29.483 0.866 -29.483 0.492 60.011
27753.75 0.493 59.985 0.866 -29.509 0.866 -29.509 0.493 59.985
27778.708 0.493 59.96 0.866 -29.535 0.866 -29.535 0.493 59.96
27803.667 0.493 59.934 0.865 -29.562 0.865 -29.562 0.493 59.934
27828.625 0.494 59.908 0.865 -29.588 0.865 -29.588 0.494 59.908
27853.583 0.494 59.882 0.865 -29.614 0.865 -29.614 0.494 59.882
27878.542 0.495 59.857 0.865 -29.64 0.865 -29.64 0.495 59.857
27903.5 0.495 59.831 0.865 -29.667 0.865 -29.667 0.495 59.831
27928.458 0.495 59.805 0.864 -29.693 0.864 -29.693 0.495 59.805
27953.417 0.496 59.78 0.864 -29.719 0.864 -29.719 0.496 59.78
27978.375 0.496 59.754 0.864 -29.745 0.864 -29.745 0.496 59.754
28003.333 0.497 59.728 0.864 -29.771 0.864 -29.771 0.497 59.728
28028.292 0.497 59.703 0.863 -29.797 0.863 -29.797 0.497 59.703
28053.25 0.497 59.677 0.863 -29.824 0.863 -29.824 0.497 59.677
28078.208 0.498 59.652 0.863 -29.85 0.863 -29.85 0.498 59.652
28103.167 0.498 59.626 0.863 -29.876 0.863 -29.876 0.498 59.626
28128.125 0.499 59.6 0.863 -29.902 0.863 -29.902 0.499 59.6
28153.083 0.499 59.575 0.862 -29.928 0.862 -29.928 0.499 59.575
28178.042 0.499 59.549 0.862 -29.954 0.862 -29.954 0.499 59.549
28203 0.5 59.524 0.862 -29.98 0.862 -29.98 0.5 59.524
28227.958 0.5 59.498 0.862 -30.006 0.862 -30.006 0.5 59.498
28252.917 0.501 59.473 0.861 -30.032 0.861 -30.032 0.501 59.473
28277.875 0.501 59.447 0.861 -30.058 0.861 -30.058 0.501 59.447
28302.833 0.501 59.422 0.861 -30.084 0.861 -30.084 0.501 59.422
28327.792 0.502 59.397 0.861 -30.11 0.861 -30.11 0.502 59.397
28352.75 0.502 59.371 0.861 -30.136 0.861 -30.136 0.502 59.371
28377.708 0.502 59.346 0.86 -30.162 0.86 -30.162 0.502 59.346
28402.667 0.503 59.32 0.86 -30.188 0.86 -30.188 0.503 59.32
28427.625 0.503 59.295 0.86 -30.213 0.86 -30.213 0.503 59.295
28452.583 0.504 59.27 0.86 -30.239 0.86 -30.239 0.504 59.27
28477.542 0.504 59.244 0.859 -30.265 0.859 -30.265 0.504 59.244
28502.5 0.504 59.219 0.859 -30.291 0.859 -30.291 0.504 59.219
28527.458 0.505 59.194 0.859 -30.317 0.859 -30.317 0.505 59.194
28552.417 0.505 59.168 0.859 -30.343 0.859 -30.343 0.505 59.168
28577.375 0.506 59.143 0.858 -30.368 0.858 -30.368 0.506 59.143
28602.333 0.506 59.118 0.858 -30.394 0.858 -30.394 0.506 59.118
28627.292 0.506 59.093 0.858 -30.42 0.858 -30.42 0.506 59.093
28652.25 0.507 59.068 0.858 -30.445 0.858 -30.445 0.507 59.068
28677.208 0.507 59.042 0.858 -30.471 0.858 -30.471 0.507 59.042
28702.167 0.508 59.017 0.857 -30.497 0.857 -30.497 0.508 59.017
28727.125 0.508 58.992 0.857 -30.523 0.857 -30.523 0.508 58.992
28752.083 0.508 58.967 0.857 -30.548 0.857 -30.548 0.508 58.967
28777.042 0.509 58.942 0.857 -30.574 0.857 -30.574 0.509 58.942
28802 0.509 58.917 0.856 -30.599 0.856 -30.599 0.509 58.917
28826.958 0.509 58.891 0.856 -30.625 0.856 -30.625 0.509 58.891
28851.917 0.51 58.866 0.856 -30.651 0.856 -30.651 0.51 58.866
28876.875 0.51 58.841 0.856 -30.676 0.856 -30.676 0.51 58.841
28901.833 0.511 58.816 0.856 -30.702 0.856 -30.702 0.511 58.816
28926.792 0.511 58.791 0.855 -30.727 0.855 -30.727 0.511 58.791
28951.75 0.511 58.766 0.855 -30.753 0.855 -30.753 0.511 58.766
28976.708 0.512 58.741 0.855 -30.778 0.855 -30.778 0.512 58.741
29001.667 0.512 58.716 0.855 -30.804 0.855 -30.804 0.512 58.716
29026.625 0.512 58.691 0.854 -30.829 0.854 -30.829 0.512 58.691
29051.583 0.513 58.666 0.854 -30.855 0.854 -30.855 0.513 58.666
29076.542 0.513 58.641 0.854 -30.88 0.854 -30.88 0.513 58.641
29101.5 0.514 58.616 0.854 -30.906 0.854 -30.906 0.514 58.616
29126.458 0.514 58.591 0.854 -30.931 0.854 -30.931 0.514 58.591
29151.417 0.514 58.567 0.853 -30.956 0.853 -30.956 0.514 58.567
29176.375 0.515 58.542 0.853 -30.982 0.853 -30.982 0.515 58.542
29201.333 0.515 58.517 0.853 -31.007 0.853 -31.007 0.515 58.517
29226.292 0.516 58.492 0.853 -31.032 0.853 -31.032 0.516 58.492
29251.25 0.516 58.467 0.852 -31.058 0.852 -31.058 0.516 58.467
29276.208 0.516 58.442 0.852 -31.083 0.852 -31.083 0.516 58.442
29301.167 0.517 58.417 0.852 -31.108 0.852 -31.108 0.517 58.417
29326.125 0.517 58.393 0.852 -31.133 0.852 -31.133 0.517 58.393
29351.083 0.517 58.368 0.851 -31.159 0.851 -31.159 0.517 58.368
29376.042 0.518 58.343 0.851 -31.184 0.851 -31.184 0.518 58.343
29401 0.518 58.318 0.851 -31.209 0.851 -31.209 0.518 58.318
29425.958 0.519 58.294 0.851 -31.234 0.851 -31.234 0.519 58.294
29450.917 0.519 58.269 0.851 -31.26 0.851 -31.26 0.519 58.269
29475.875 0.519 58.244 0.85 -31.285 0.85 -31.285 0.519 58.244
29500.833 0.52 58.22 0.85 -31.31 0.85 -31.31 0.52 58.22
29525.792 0.52 58.195 0.85 -31.335 0.85 -31.335 0.52 58.195
29550.75 0.52 58.17 0.85 -31.36 0.85 -31.36 0.52 58.17
29575.708 0.521 58.146 0.849 -31.385 0.849 -31.385 0.521 58.146
29600.667 0.521 58.121 0.849 -31.41 0.849 -31.41 0.521 58.121
29625.625 0.522 58.096 0.849 -31.435 0.849 -31.435 0.522 58.096
29650.583 0.522 58.072 0.849 -31.46 0.849 -31.46 0.522 58.072
29675.542 0.522 58.047 0.849 -31.485 0.849 -31.485 0.522 58.047
29700.5 0.523 58.023 0.848 -31.51 0.848 -31.51 0.523 58.023
29725.458 0.523 57.998 0.848 -31.535 0.848 -31.535 0.523 57.998
29750.417 0.523 57.974 0.848 -31.56 0.848 -31.56 0.523 57.974
29775.375 0.524 57.949 0.848 -31.585 0.848 -31.585 0.524 57.949
29800.333 0.524 57.925 0.847 -31.61 0.847 -31.61 0.524 57.925
29825.292 0.525 57.9 0.847 -31.635 0.847 -31.635 0.525 57.9
29850.25 0.525 57.876 0.847 -31.66 0.847 -31.66 0.525 57.876
29875.208 0.525 57.851 0.847 -31.685 0.847 -31.685 0.525 57.851
29900.167 0.526 57.827 0.846 -31.71 0.846 -31.71 0.526 57.827
29925.125 0.526 57.802 0.846 -31.735 0.846 -31.735 0.526 57.802
29950.083 0.526 57.778 0.846 -31.76 0.846 -31.76 0.526 57.778
29975.042 0.527 57.754 0.846 -31.785 0.846 -31.785 0.527 57.754
30000 0.527 57.729 0.846 -31.809 0.846 -31.809 0.527 57.729
