!	AVX Thin Film Operation 	Date: April 2014		
!	Description: Accu-P® Series, Thin Film  SMD RF Capacitor
!	Part Number: 02013J3R0QBSTR					
!								
# MHZ S MA R 50

50 0.996 -5.385 0.094 84.602 0.094 84.602 0.996 -5.385
74.958 0.99 -8.044 0.14 81.936 0.14 81.936 0.99 -8.044
99.917 0.983 -10.669 0.185 79.304 0.185 79.304 0.983 -10.669
124.875 0.973 -13.252 0.229 76.715 0.229 76.715 0.973 -13.252
149.833 0.962 -15.782 0.272 74.178 0.272 74.178 0.962 -15.782
174.792 0.949 -18.253 0.313 71.701 0.313 71.701 0.949 -18.253
199.75 0.935 -20.657 0.353 69.29 0.353 69.29 0.935 -20.657
224.708 0.92 -22.99 0.391 66.95 0.391 66.95 0.92 -22.99
249.667 0.904 -25.248 0.427 64.686 0.427 64.686 0.904 -25.248
274.625 0.887 -27.427 0.461 62.5 0.461 62.5 0.887 -27.427
299.583 0.869 -29.526 0.493 60.394 0.493 60.394 0.869 -29.526
324.542 0.851 -31.545 0.523 58.369 0.523 58.369 0.851 -31.545
349.5 0.833 -33.483 0.552 56.424 0.552 56.424 0.833 -33.483
374.458 0.815 -35.341 0.578 54.559 0.578 54.559 0.815 -35.341
399.417 0.796 -37.12 0.603 52.773 0.603 52.773 0.796 -37.12
424.375 0.778 -38.823 0.627 51.063 0.627 51.063 0.778 -38.823
449.333 0.76 -40.452 0.649 49.428 0.649 49.428 0.76 -40.452
474.292 0.742 -42.009 0.669 47.865 0.669 47.865 0.742 -42.009
499.25 0.724 -43.496 0.688 46.37 0.688 46.37 0.724 -43.496
524.208 0.706 -44.917 0.706 44.942 0.706 44.942 0.706 -44.917
549.167 0.689 -46.275 0.723 43.578 0.723 43.578 0.689 -46.275
574.125 0.673 -47.571 0.738 42.275 0.738 42.275 0.673 -47.571
599.083 0.656 -48.81 0.753 41.029 0.753 41.029 0.656 -48.81
624.042 0.641 -49.994 0.766 39.838 0.766 39.838 0.641 -49.994
649 0.625 -51.126 0.779 38.699 0.779 38.699 0.625 -51.126
673.958 0.61 -52.209 0.79 37.61 0.79 37.61 0.61 -52.209
698.917 0.596 -53.244 0.801 36.567 0.801 36.567 0.596 -53.244
723.875 0.582 -54.235 0.811 35.569 0.811 35.569 0.582 -54.235
748.833 0.568 -55.183 0.821 34.614 0.821 34.614 0.568 -55.183
773.792 0.555 -56.092 0.83 33.698 0.83 33.698 0.555 -56.092
798.75 0.542 -56.963 0.838 32.819 0.838 32.819 0.542 -56.963
823.708 0.53 -57.799 0.846 31.977 0.846 31.977 0.53 -57.799
848.667 0.518 -58.6 0.854 31.168 0.854 31.168 0.518 -58.6
873.625 0.506 -59.37 0.86 30.392 0.86 30.392 0.506 -59.37
898.583 0.495 -60.109 0.867 29.645 0.867 29.645 0.495 -60.109
923.542 0.484 -60.819 0.873 28.928 0.873 28.928 0.484 -60.819
948.5 0.473 -61.502 0.879 28.237 0.879 28.237 0.473 -61.502
973.458 0.463 -62.159 0.884 27.572 0.884 27.572 0.463 -62.159
998.417 0.453 -62.792 0.889 26.932 0.889 26.932 0.453 -62.792
1023.375 0.443 -63.402 0.894 26.315 0.894 26.315 0.443 -63.402
1048.333 0.434 -63.99 0.899 25.72 0.899 25.72 0.434 -63.99
1073.292 0.425 -64.556 0.903 25.145 0.903 25.145 0.425 -64.556
1098.25 0.416 -65.103 0.907 24.591 0.907 24.591 0.416 -65.103
1123.208 0.408 -65.631 0.911 24.055 0.911 24.055 0.408 -65.631
1148.167 0.399 -66.141 0.915 23.538 0.915 23.538 0.399 -66.141
1173.125 0.391 -66.634 0.918 23.037 0.918 23.037 0.391 -66.634
1198.083 0.384 -67.11 0.921 22.553 0.921 22.553 0.384 -67.11
1223.042 0.376 -67.571 0.924 22.084 0.924 22.084 0.376 -67.571
1248 0.369 -68.017 0.927 21.629 0.927 21.629 0.369 -68.017
1272.958 0.361 -68.45 0.93 21.189 0.93 21.189 0.361 -68.45
1297.917 0.354 -68.868 0.933 20.762 0.933 20.762 0.354 -68.868
1322.875 0.348 -69.274 0.935 20.348 0.935 20.348 0.348 -69.274
1347.833 0.341 -69.668 0.938 19.946 0.938 19.946 0.341 -69.668
1372.792 0.335 -70.05 0.94 19.556 0.94 19.556 0.335 -70.05
1397.75 0.328 -70.42 0.942 19.177 0.942 19.177 0.328 -70.42
1422.708 0.322 -70.78 0.944 18.808 0.944 18.808 0.322 -70.78
1447.667 0.316 -71.13 0.946 18.45 0.946 18.45 0.316 -71.13
1472.625 0.311 -71.47 0.948 18.102 0.948 18.102 0.311 -71.47
1497.583 0.305 -71.8 0.95 17.762 0.95 17.762 0.305 -71.8
1522.542 0.3 -72.122 0.952 17.432 0.952 17.432 0.3 -72.122
1547.5 0.294 -72.435 0.953 17.111 0.953 17.111 0.294 -72.435
1572.458 0.289 -72.739 0.955 16.797 0.955 16.797 0.289 -72.739
1597.417 0.284 -73.035 0.957 16.492 0.957 16.492 0.284 -73.035
1622.375 0.279 -73.324 0.958 16.194 0.958 16.194 0.279 -73.324
1647.333 0.274 -73.605 0.959 15.903 0.959 15.903 0.274 -73.605
1672.292 0.269 -73.88 0.961 15.619 0.961 15.619 0.269 -73.88
1697.25 0.265 -74.147 0.962 15.342 0.962 15.342 0.265 -74.147
1722.208 0.26 -74.408 0.963 15.072 0.963 15.072 0.26 -74.408
1747.167 0.256 -74.663 0.964 14.808 0.964 14.808 0.256 -74.663
1772.125 0.251 -74.911 0.966 14.549 0.966 14.549 0.251 -74.911
1797.083 0.247 -75.154 0.967 14.297 0.967 14.297 0.247 -75.154
1822.042 0.243 -75.39 0.968 14.05 0.968 14.05 0.243 -75.39
1847 0.239 -75.622 0.969 13.808 0.969 13.808 0.239 -75.622
1871.958 0.235 -75.848 0.97 13.572 0.97 13.572 0.235 -75.848
1896.917 0.231 -76.069 0.971 13.341 0.971 13.341 0.231 -76.069
1921.875 0.227 -76.285 0.972 13.114 0.972 13.114 0.227 -76.285
1946.833 0.223 -76.496 0.972 12.892 0.972 12.892 0.223 -76.496
1971.792 0.219 -76.703 0.973 12.675 0.973 12.675 0.219 -76.703
1996.75 0.216 -76.905 0.974 12.461 0.974 12.461 0.216 -76.905
2021.708 0.212 -77.103 0.975 12.252 0.975 12.252 0.212 -77.103
2046.667 0.209 -77.296 0.976 12.047 0.976 12.047 0.209 -77.296
2071.625 0.205 -77.486 0.976 11.846 0.976 11.846 0.205 -77.486
2096.583 0.202 -77.672 0.977 11.649 0.977 11.649 0.202 -77.672
2121.542 0.199 -77.853 0.978 11.455 0.978 11.455 0.199 -77.853
2146.5 0.195 -78.032 0.978 11.265 0.978 11.265 0.195 -78.032
2171.458 0.192 -78.206 0.979 11.079 0.979 11.079 0.192 -78.206
2196.417 0.189 -78.377 0.98 10.895 0.98 10.895 0.189 -78.377
2221.375 0.186 -78.545 0.98 10.715 0.98 10.715 0.186 -78.545
2246.333 0.183 -78.709 0.981 10.538 0.981 10.538 0.183 -78.709
2271.292 0.18 -78.87 0.981 10.364 0.981 10.364 0.18 -78.87
2296.25 0.177 -79.028 0.982 10.193 0.982 10.193 0.177 -79.028
2321.208 0.174 -79.183 0.982 10.025 0.982 10.025 0.174 -79.183
2346.167 0.171 -79.334 0.983 9.86 0.983 9.86 0.171 -79.334
2371.125 0.168 -79.483 0.983 9.697 0.983 9.697 0.168 -79.483
2396.083 0.166 -79.63 0.984 9.537 0.984 9.537 0.166 -79.63
2421.042 0.163 -79.773 0.984 9.379 0.984 9.379 0.163 -79.773
2446 0.16 -79.914 0.985 9.224 0.985 9.224 0.16 -79.914
2470.958 0.158 -80.052 0.985 9.071 0.985 9.071 0.158 -80.052
2495.917 0.155 -80.187 0.985 8.921 0.985 8.921 0.155 -80.187
2520.875 0.153 -80.32 0.986 8.773 0.986 8.773 0.153 -80.32
2545.833 0.15 -80.45 0.986 8.626 0.986 8.626 0.15 -80.45
2570.792 0.148 -80.578 0.987 8.483 0.987 8.483 0.148 -80.578
2595.75 0.145 -80.704 0.987 8.341 0.987 8.341 0.145 -80.704
2620.708 0.143 -80.827 0.987 8.201 0.987 8.201 0.143 -80.827
2645.667 0.14 -80.949 0.988 8.063 0.988 8.063 0.14 -80.949
2670.625 0.138 -81.067 0.988 7.927 0.988 7.927 0.138 -81.067
2695.583 0.136 -81.184 0.988 7.793 0.988 7.793 0.136 -81.184
2720.542 0.133 -81.298 0.989 7.661 0.989 7.661 0.133 -81.298
2745.5 0.131 -81.411 0.989 7.53 0.989 7.53 0.131 -81.411
2770.458 0.129 -81.521 0.989 7.401 0.989 7.401 0.129 -81.521
2795.417 0.127 -81.629 0.99 7.274 0.99 7.274 0.127 -81.629
2820.375 0.124 -81.735 0.99 7.149 0.99 7.149 0.124 -81.735
2845.333 0.122 -81.839 0.99 7.025 0.99 7.025 0.122 -81.839
2870.292 0.12 -81.941 0.99 6.902 0.99 6.902 0.12 -81.941
2895.25 0.118 -82.041 0.991 6.781 0.991 6.781 0.118 -82.041
2920.208 0.116 -82.139 0.991 6.662 0.991 6.662 0.116 -82.139
2945.167 0.114 -82.235 0.991 6.544 0.991 6.544 0.114 -82.235
2970.125 0.112 -82.33 0.991 6.427 0.991 6.427 0.112 -82.33
2995.083 0.11 -82.422 0.992 6.312 0.992 6.312 0.11 -82.422
3020.042 0.108 -82.512 0.992 6.198 0.992 6.198 0.108 -82.512
3045 0.106 -82.601 0.992 6.086 0.992 6.086 0.106 -82.601
3069.958 0.104 -82.688 0.992 5.975 0.992 5.975 0.104 -82.688
3094.917 0.102 -82.772 0.992 5.865 0.992 5.865 0.102 -82.772
3119.875 0.1 -82.855 0.993 5.756 0.993 5.756 0.1 -82.855
3144.833 0.098 -82.936 0.993 5.648 0.993 5.648 0.098 -82.936
3169.792 0.097 -83.015 0.993 5.542 0.993 5.542 0.097 -83.015
3194.75 0.095 -83.092 0.993 5.436 0.993 5.436 0.095 -83.092
3219.708 0.093 -83.168 0.993 5.332 0.993 5.332 0.093 -83.168
3244.667 0.091 -83.241 0.993 5.229 0.993 5.229 0.091 -83.241
3269.625 0.089 -83.313 0.994 5.127 0.994 5.127 0.089 -83.313
3294.583 0.088 -83.382 0.994 5.026 0.994 5.026 0.088 -83.382
3319.542 0.086 -83.45 0.994 4.926 0.994 4.926 0.086 -83.45
3344.5 0.084 -83.515 0.994 4.827 0.994 4.827 0.084 -83.515
3369.458 0.082 -83.579 0.994 4.729 0.994 4.729 0.082 -83.579
3394.417 0.081 -83.64 0.994 4.632 0.994 4.632 0.081 -83.64
3419.375 0.079 -83.699 0.994 4.536 0.994 4.536 0.079 -83.699
3444.333 0.077 -83.757 0.995 4.441 0.995 4.441 0.077 -83.757
3469.292 0.076 -83.812 0.995 4.346 0.995 4.346 0.076 -83.812
3494.25 0.074 -83.865 0.995 4.253 0.995 4.253 0.074 -83.865
3519.208 0.073 -83.915 0.995 4.16 0.995 4.16 0.073 -83.915
3544.167 0.071 -83.963 0.995 4.068 0.995 4.068 0.071 -83.963
3569.125 0.069 -84.009 0.995 3.978 0.995 3.978 0.069 -84.009
3594.083 0.068 -84.053 0.995 3.887 0.995 3.887 0.068 -84.053
3619.042 0.066 -84.093 0.995 3.798 0.995 3.798 0.066 -84.093
3644 0.065 -84.131 0.995 3.71 0.995 3.71 0.065 -84.131
3668.958 0.063 -84.167 0.996 3.622 0.996 3.622 0.063 -84.167
3693.917 0.062 -84.199 0.996 3.535 0.996 3.535 0.062 -84.199
3718.875 0.06 -84.229 0.996 3.448 0.996 3.448 0.06 -84.229
3743.833 0.059 -84.255 0.996 3.363 0.996 3.363 0.059 -84.255
3768.792 0.057 -84.278 0.996 3.278 0.996 3.278 0.057 -84.278
3793.75 0.056 -84.298 0.996 3.194 0.996 3.194 0.056 -84.298
3818.708 0.054 -84.314 0.996 3.11 0.996 3.11 0.054 -84.314
3843.667 0.053 -84.327 0.996 3.027 0.996 3.027 0.053 -84.327
3868.625 0.051 -84.335 0.996 2.945 0.996 2.945 0.051 -84.335
3893.583 0.05 -84.339 0.996 2.863 0.996 2.863 0.05 -84.339
3918.542 0.049 -84.338 0.996 2.782 0.996 2.782 0.049 -84.338
3943.5 0.047 -84.333 0.996 2.702 0.996 2.702 0.047 -84.333
3968.458 0.046 -84.323 0.997 2.622 0.997 2.622 0.046 -84.323
3993.417 0.044 -84.307 0.997 2.543 0.997 2.543 0.044 -84.307
4018.375 0.043 -84.285 0.997 2.465 0.997 2.465 0.043 -84.285
4043.333 0.042 -84.257 0.997 2.387 0.997 2.387 0.042 -84.257
4068.292 0.04 -84.222 0.997 2.309 0.997 2.309 0.04 -84.222
4093.25 0.039 -84.18 0.997 2.232 0.997 2.232 0.039 -84.18
4118.208 0.038 -84.129 0.997 2.156 0.997 2.156 0.038 -84.129
4143.167 0.036 -84.07 0.997 2.08 0.997 2.08 0.036 -84.07
4168.125 0.035 -84.001 0.997 2.005 0.997 2.005 0.035 -84.001
4193.083 0.034 -83.922 0.997 1.93 0.997 1.93 0.034 -83.922
4218.042 0.032 -83.83 0.997 1.856 0.997 1.856 0.032 -83.83
4243 0.031 -83.726 0.997 1.782 0.997 1.782 0.031 -83.726
4267.958 0.03 -83.608 0.997 1.709 0.997 1.709 0.03 -83.608
4292.917 0.029 -83.473 0.997 1.636 0.997 1.636 0.029 -83.473
4317.875 0.027 -83.32 0.997 1.564 0.997 1.564 0.027 -83.32
4342.833 0.026 -83.147 0.997 1.492 0.997 1.492 0.026 -83.147
4367.792 0.025 -82.95 0.997 1.421 0.997 1.421 0.025 -82.95
4392.75 0.024 -82.727 0.997 1.35 0.997 1.35 0.024 -82.727
4417.708 0.022 -82.474 0.997 1.279 0.997 1.279 0.022 -82.474
4442.667 0.021 -82.185 0.997 1.209 0.997 1.209 0.021 -82.185
4467.625 0.02 -81.854 0.997 1.139 0.997 1.139 0.02 -81.854
4492.583 0.019 -81.475 0.997 1.07 0.997 1.07 0.019 -81.475
4517.542 0.018 -81.038 0.997 1.001 0.997 1.001 0.018 -81.038
4542.5 0.016 -80.531 0.997 0.933 0.997 0.933 0.016 -80.531
4567.458 0.015 -79.938 0.997 0.865 0.997 0.865 0.015 -79.938
4592.417 0.014 -79.241 0.997 0.797 0.997 0.797 0.014 -79.241
4617.375 0.013 -78.412 0.997 0.73 0.997 0.73 0.013 -78.412
4642.333 0.012 -77.414 0.997 0.663 0.997 0.663 0.012 -77.414
4667.292 0.011 -76.197 0.998 0.597 0.998 0.597 0.011 -76.197
4692.25 9.579e-3 -74.686 0.998 0.531 0.998 0.531 9.579e-3 -74.686
4717.208 8.474e-3 -72.772 0.998 0.465 0.998 0.465 8.474e-3 -72.772
4742.167 7.389e-3 -70.285 0.998 0.4 0.998 0.4 7.389e-3 -70.285
4767.125 6.329e-3 -66.95 0.998 0.335 0.998 0.335 6.329e-3 -66.95
4792.083 5.306e-3 -62.302 0.998 0.27 0.998 0.27 5.306e-3 -62.302
4817.042 4.34e-3 -55.522 0.998 0.206 0.998 0.206 4.34e-3 -55.522
4842 3.475e-3 -45.158 0.998 0.142 0.998 0.142 3.475e-3 -45.158
4866.958 2.797e-3 -28.992 0.998 0.078 0.998 0.078 2.797e-3 -28.992
4891.917 2.457e-3 -5.903 0.998 0.015 0.998 0.015 2.457e-3 -5.903
4916.875 2.587e-3 19.053 0.998 -0.048 0.998 -0.048 2.587e-3 19.053
4941.833 3.121e-3 38.338 0.998 -0.111 0.998 -0.111 3.121e-3 38.338
4966.792 3.893e-3 50.929 0.998 -0.174 0.998 -0.174 3.893e-3 50.929
4991.75 4.784e-3 59.042 0.998 -0.236 0.998 -0.236 4.784e-3 59.042
5016.708 5.738e-3 64.489 0.998 -0.297 0.998 -0.297 5.738e-3 64.489
5041.667 6.724e-3 68.325 0.998 -0.359 0.998 -0.359 6.724e-3 68.325
5066.625 7.728e-3 71.142 0.998 -0.42 0.998 -0.42 7.728e-3 71.142
5091.583 8.743e-3 73.285 0.998 -0.481 0.998 -0.481 8.743e-3 73.285
5116.542 9.762e-3 74.96 0.998 -0.542 0.998 -0.542 9.762e-3 74.96
5141.5 0.011 76.3 0.998 -0.602 0.998 -0.602 0.011 76.3
5166.458 0.012 77.392 0.997 -0.662 0.997 -0.662 0.012 77.392
5191.417 0.013 78.296 0.997 -0.722 0.997 -0.722 0.013 78.296
5216.375 0.014 79.055 0.997 -0.781 0.997 -0.781 0.014 79.055
5241.333 0.015 79.699 0.997 -0.84 0.997 -0.84 0.015 79.699
5266.292 0.016 80.25 0.997 -0.899 0.997 -0.899 0.016 80.25
5291.25 0.017 80.726 0.997 -0.958 0.997 -0.958 0.017 80.726
5316.208 0.018 81.14 0.997 -1.016 0.997 -1.016 0.018 81.14
5341.167 0.019 81.501 0.997 -1.075 0.997 -1.075 0.019 81.501
5366.125 0.02 81.819 0.997 -1.133 0.997 -1.133 0.02 81.819
5391.083 0.021 82.1 0.997 -1.19 0.997 -1.19 0.021 82.1
5416.042 0.022 82.349 0.997 -1.248 0.997 -1.248 0.022 82.349
5441 0.023 82.57 0.997 -1.305 0.997 -1.305 0.023 82.57
5465.958 0.024 82.768 0.997 -1.362 0.997 -1.362 0.024 82.768
5490.917 0.025 82.944 0.997 -1.419 0.997 -1.419 0.025 82.944
5515.875 0.026 83.103 0.997 -1.475 0.997 -1.475 0.026 83.103
5540.833 0.027 83.245 0.997 -1.531 0.997 -1.531 0.027 83.245
5565.792 0.028 83.372 0.997 -1.587 0.997 -1.587 0.028 83.372
5590.75 0.029 83.487 0.997 -1.643 0.997 -1.643 0.029 83.487
5615.708 0.03 83.59 0.997 -1.699 0.997 -1.699 0.03 83.59
5640.667 0.031 83.683 0.997 -1.754 0.997 -1.754 0.031 83.683
5665.625 0.032 83.766 0.997 -1.809 0.997 -1.809 0.032 83.766
5690.583 0.033 83.841 0.997 -1.864 0.997 -1.864 0.033 83.841
5715.542 0.034 83.909 0.997 -1.919 0.997 -1.919 0.034 83.909
5740.5 0.035 83.969 0.997 -1.974 0.997 -1.974 0.035 83.969
5765.458 0.035 84.023 0.997 -2.028 0.997 -2.028 0.035 84.023
5790.417 0.036 84.072 0.997 -2.082 0.997 -2.082 0.036 84.072
5815.375 0.037 84.115 0.997 -2.136 0.997 -2.136 0.037 84.115
5840.333 0.038 84.153 0.997 -2.19 0.997 -2.19 0.038 84.153
5865.292 0.039 84.186 0.997 -2.243 0.997 -2.243 0.039 84.186
5890.25 0.04 84.216 0.997 -2.297 0.997 -2.297 0.04 84.216
5915.208 0.041 84.241 0.997 -2.35 0.997 -2.35 0.041 84.241
5940.167 0.042 84.264 0.997 -2.403 0.997 -2.403 0.042 84.264
5965.125 0.043 84.282 0.997 -2.456 0.997 -2.456 0.043 84.282
5990.083 0.044 84.298 0.997 -2.508 0.997 -2.508 0.044 84.298
6015.042 0.045 84.311 0.997 -2.561 0.997 -2.561 0.045 84.311
6040 0.046 84.321 0.997 -2.613 0.997 -2.613 0.046 84.321
6064.958 0.047 84.329 0.996 -2.665 0.996 -2.665 0.047 84.329
6089.917 0.047 84.335 0.996 -2.717 0.996 -2.717 0.047 84.335
6114.875 0.048 84.338 0.996 -2.769 0.996 -2.769 0.048 84.338
6139.833 0.049 84.339 0.996 -2.821 0.996 -2.821 0.049 84.339
6164.792 0.05 84.339 0.996 -2.872 0.996 -2.872 0.05 84.339
6189.75 0.051 84.336 0.996 -2.923 0.996 -2.923 0.051 84.336
6214.708 0.052 84.332 0.996 -2.974 0.996 -2.974 0.052 84.332
6239.667 0.053 84.327 0.996 -3.025 0.996 -3.025 0.053 84.327
6264.625 0.054 84.32 0.996 -3.076 0.996 -3.076 0.054 84.32
6289.583 0.055 84.311 0.996 -3.127 0.996 -3.127 0.055 84.311
6314.542 0.055 84.302 0.996 -3.177 0.996 -3.177 0.055 84.302
6339.5 0.056 84.291 0.996 -3.227 0.996 -3.227 0.056 84.291
6364.458 0.057 84.278 0.996 -3.277 0.996 -3.277 0.057 84.278
6389.417 0.058 84.265 0.996 -3.327 0.996 -3.327 0.058 84.265
6414.375 0.059 84.251 0.996 -3.377 0.996 -3.377 0.059 84.251
6439.333 0.06 84.236 0.996 -3.427 0.996 -3.427 0.06 84.236
6464.292 0.061 84.22 0.996 -3.477 0.996 -3.477 0.061 84.22
6489.25 0.062 84.202 0.996 -3.526 0.996 -3.526 0.062 84.202
6514.208 0.062 84.185 0.996 -3.575 0.996 -3.575 0.062 84.185
6539.167 0.063 84.166 0.996 -3.624 0.996 -3.624 0.063 84.166
6564.125 0.064 84.146 0.996 -3.673 0.996 -3.673 0.064 84.146
6589.083 0.065 84.126 0.995 -3.722 0.995 -3.722 0.065 84.126
6614.042 0.066 84.105 0.995 -3.771 0.995 -3.771 0.066 84.105
6639 0.067 84.084 0.995 -3.819 0.995 -3.819 0.067 84.084
6663.958 0.068 84.062 0.995 -3.868 0.995 -3.868 0.068 84.062
6688.917 0.068 84.039 0.995 -3.916 0.995 -3.916 0.068 84.039
6713.875 0.069 84.016 0.995 -3.964 0.995 -3.964 0.069 84.016
6738.833 0.07 83.992 0.995 -4.012 0.995 -4.012 0.07 83.992
6763.792 0.071 83.968 0.995 -4.06 0.995 -4.06 0.071 83.968
6788.75 0.072 83.943 0.995 -4.108 0.995 -4.108 0.072 83.943
6813.708 0.073 83.918 0.995 -4.156 0.995 -4.156 0.073 83.918
6838.667 0.073 83.892 0.995 -4.203 0.995 -4.203 0.073 83.892
6863.625 0.074 83.866 0.995 -4.251 0.995 -4.251 0.074 83.866
6888.583 0.075 83.839 0.995 -4.298 0.995 -4.298 0.075 83.839
6913.542 0.076 83.812 0.995 -4.345 0.995 -4.345 0.076 83.812
6938.5 0.077 83.785 0.995 -4.392 0.995 -4.392 0.077 83.785
6963.458 0.077 83.758 0.995 -4.439 0.995 -4.439 0.077 83.758
6988.417 0.078 83.73 0.994 -4.486 0.994 -4.486 0.078 83.73
7013.375 0.079 83.701 0.994 -4.533 0.994 -4.533 0.079 83.701
7038.333 0.08 83.673 0.994 -4.579 0.994 -4.579 0.08 83.673
7063.292 0.081 83.644 0.994 -4.626 0.994 -4.626 0.081 83.644
7088.25 0.081 83.615 0.994 -4.672 0.994 -4.672 0.081 83.615
7113.208 0.082 83.585 0.994 -4.718 0.994 -4.718 0.082 83.585
7138.167 0.083 83.556 0.994 -4.764 0.994 -4.764 0.083 83.556
7163.125 0.084 83.526 0.994 -4.811 0.994 -4.811 0.084 83.526
7188.083 0.085 83.496 0.994 -4.856 0.994 -4.856 0.085 83.496
7213.042 0.085 83.465 0.994 -4.902 0.994 -4.902 0.085 83.465
7238 0.086 83.435 0.994 -4.948 0.994 -4.948 0.086 83.435
7262.958 0.087 83.404 0.994 -4.994 0.994 -4.994 0.087 83.404
7287.917 0.088 83.373 0.994 -5.039 0.994 -5.039 0.088 83.373
7312.875 0.089 83.342 0.994 -5.084 0.994 -5.084 0.089 83.342
7337.833 0.089 83.311 0.994 -5.13 0.994 -5.13 0.089 83.311
7362.792 0.09 83.279 0.993 -5.175 0.993 -5.175 0.09 83.279
7387.75 0.091 83.247 0.993 -5.22 0.993 -5.22 0.091 83.247
7412.708 0.092 83.216 0.993 -5.265 0.993 -5.265 0.092 83.216
7437.667 0.093 83.184 0.993 -5.31 0.993 -5.31 0.093 83.184
7462.625 0.093 83.152 0.993 -5.355 0.993 -5.355 0.093 83.152
7487.583 0.094 83.119 0.993 -5.399 0.993 -5.399 0.094 83.119
7512.542 0.095 83.087 0.993 -5.444 0.993 -5.444 0.095 83.087
7537.5 0.096 83.054 0.993 -5.488 0.993 -5.488 0.096 83.054
7562.458 0.096 83.022 0.993 -5.533 0.993 -5.533 0.096 83.022
7587.417 0.097 82.989 0.993 -5.577 0.993 -5.577 0.097 82.989
7612.375 0.098 82.956 0.993 -5.621 0.993 -5.621 0.098 82.956
7637.333 0.099 82.923 0.993 -5.666 0.993 -5.666 0.099 82.923
7662.292 0.1 82.89 0.993 -5.71 0.993 -5.71 0.1 82.89
7687.25 0.1 82.857 0.993 -5.754 0.993 -5.754 0.1 82.857
7712.208 0.101 82.823 0.992 -5.797 0.992 -5.797 0.101 82.823
7737.167 0.102 82.79 0.992 -5.841 0.992 -5.841 0.102 82.79
7762.125 0.103 82.757 0.992 -5.885 0.992 -5.885 0.103 82.757
7787.083 0.103 82.723 0.992 -5.929 0.992 -5.929 0.103 82.723
7812.042 0.104 82.689 0.992 -5.972 0.992 -5.972 0.104 82.689
7837 0.105 82.656 0.992 -6.015 0.992 -6.015 0.105 82.656
7861.958 0.106 82.622 0.992 -6.059 0.992 -6.059 0.106 82.622
7886.917 0.106 82.588 0.992 -6.102 0.992 -6.102 0.106 82.588
7911.875 0.107 82.554 0.992 -6.145 0.992 -6.145 0.107 82.554
7936.833 0.108 82.52 0.992 -6.188 0.992 -6.188 0.108 82.52
7961.792 0.109 82.486 0.992 -6.231 0.992 -6.231 0.109 82.486
7986.75 0.109 82.452 0.992 -6.274 0.992 -6.274 0.109 82.452
8011.708 0.11 82.418 0.991 -6.317 0.991 -6.317 0.11 82.418
8036.667 0.111 82.384 0.991 -6.36 0.991 -6.36 0.111 82.384
8061.625 0.112 82.35 0.991 -6.403 0.991 -6.403 0.112 82.35
8086.583 0.112 82.315 0.991 -6.445 0.991 -6.445 0.112 82.315
8111.542 0.113 82.281 0.991 -6.488 0.991 -6.488 0.113 82.281
8136.5 0.114 82.246 0.991 -6.53 0.991 -6.53 0.114 82.246
8161.458 0.114 82.212 0.991 -6.573 0.991 -6.573 0.114 82.212
8186.417 0.115 82.178 0.991 -6.615 0.991 -6.615 0.115 82.178
8211.375 0.116 82.143 0.991 -6.657 0.991 -6.657 0.116 82.143
8236.333 0.117 82.109 0.991 -6.699 0.991 -6.699 0.117 82.109
8261.292 0.117 82.074 0.991 -6.741 0.991 -6.741 0.117 82.074
8286.25 0.118 82.039 0.991 -6.783 0.991 -6.783 0.118 82.039
8311.208 0.119 82.005 0.99 -6.825 0.99 -6.825 0.119 82.005
8336.167 0.12 81.97 0.99 -6.867 0.99 -6.867 0.12 81.97
8361.125 0.12 81.935 0.99 -6.909 0.99 -6.909 0.12 81.935
8386.083 0.121 81.901 0.99 -6.951 0.99 -6.951 0.121 81.901
8411.042 0.122 81.866 0.99 -6.992 0.99 -6.992 0.122 81.866
8436 0.122 81.831 0.99 -7.034 0.99 -7.034 0.122 81.831
8460.958 0.123 81.796 0.99 -7.076 0.99 -7.076 0.123 81.796
8485.917 0.124 81.761 0.99 -7.117 0.99 -7.117 0.124 81.761
8510.875 0.125 81.727 0.99 -7.158 0.99 -7.158 0.125 81.727
8535.833 0.125 81.692 0.99 -7.2 0.99 -7.2 0.125 81.692
8560.792 0.126 81.657 0.99 -7.241 0.99 -7.241 0.126 81.657
8585.75 0.127 81.622 0.99 -7.282 0.99 -7.282 0.127 81.622
8610.708 0.127 81.587 0.989 -7.323 0.989 -7.323 0.127 81.587
8635.667 0.128 81.552 0.989 -7.364 0.989 -7.364 0.128 81.552
8660.625 0.129 81.517 0.989 -7.405 0.989 -7.405 0.129 81.517
8685.583 0.13 81.482 0.989 -7.446 0.989 -7.446 0.13 81.482
8710.542 0.13 81.447 0.989 -7.487 0.989 -7.487 0.13 81.447
8735.5 0.131 81.413 0.989 -7.528 0.989 -7.528 0.131 81.413
8760.458 0.132 81.378 0.989 -7.569 0.989 -7.569 0.132 81.378
8785.417 0.132 81.343 0.989 -7.609 0.989 -7.609 0.132 81.343
8810.375 0.133 81.308 0.989 -7.65 0.989 -7.65 0.133 81.308
8835.333 0.134 81.273 0.989 -7.69 0.989 -7.69 0.134 81.273
8860.292 0.135 81.238 0.988 -7.731 0.988 -7.731 0.135 81.238
8885.25 0.135 81.203 0.988 -7.771 0.988 -7.771 0.135 81.203
8910.208 0.136 81.168 0.988 -7.812 0.988 -7.812 0.136 81.168
8935.167 0.137 81.133 0.988 -7.852 0.988 -7.852 0.137 81.133
8960.125 0.137 81.098 0.988 -7.892 0.988 -7.892 0.137 81.098
8985.083 0.138 81.063 0.988 -7.932 0.988 -7.932 0.138 81.063
9010.042 0.139 81.028 0.988 -7.972 0.988 -7.972 0.139 81.028
9035 0.139 80.993 0.988 -8.012 0.988 -8.012 0.139 80.993
9059.958 0.14 80.958 0.988 -8.052 0.988 -8.052 0.14 80.958
9084.917 0.141 80.923 0.988 -8.092 0.988 -8.092 0.141 80.923
9109.875 0.141 80.888 0.988 -8.132 0.988 -8.132 0.141 80.888
9134.833 0.142 80.853 0.987 -8.172 0.987 -8.172 0.142 80.853
9159.792 0.143 80.818 0.987 -8.212 0.987 -8.212 0.143 80.818
9184.75 0.144 80.783 0.987 -8.252 0.987 -8.252 0.144 80.783
9209.708 0.144 80.748 0.987 -8.291 0.987 -8.291 0.144 80.748
9234.667 0.145 80.713 0.987 -8.331 0.987 -8.331 0.145 80.713
9259.625 0.146 80.678 0.987 -8.37 0.987 -8.37 0.146 80.678
9284.583 0.146 80.643 0.987 -8.41 0.987 -8.41 0.146 80.643
9309.542 0.147 80.608 0.987 -8.449 0.987 -8.449 0.147 80.608
9334.5 0.148 80.573 0.987 -8.489 0.987 -8.489 0.148 80.573
9359.458 0.148 80.538 0.987 -8.528 0.987 -8.528 0.148 80.538
9384.417 0.149 80.503 0.986 -8.567 0.986 -8.567 0.149 80.503
9409.375 0.15 80.468 0.986 -8.607 0.986 -8.607 0.15 80.468
9434.333 0.15 80.433 0.986 -8.646 0.986 -8.646 0.15 80.433
9459.292 0.151 80.398 0.986 -8.685 0.986 -8.685 0.151 80.398
9484.25 0.152 80.363 0.986 -8.724 0.986 -8.724 0.152 80.363
9509.208 0.152 80.329 0.986 -8.763 0.986 -8.763 0.152 80.329
9534.167 0.153 80.294 0.986 -8.802 0.986 -8.802 0.153 80.294
9559.125 0.154 80.259 0.986 -8.841 0.986 -8.841 0.154 80.259
9584.083 0.154 80.224 0.986 -8.88 0.986 -8.88 0.154 80.224
9609.042 0.155 80.189 0.985 -8.919 0.985 -8.919 0.155 80.189
9634 0.156 80.154 0.985 -8.957 0.985 -8.957 0.156 80.154
9658.958 0.156 80.119 0.985 -8.996 0.985 -8.996 0.156 80.119
9683.917 0.157 80.085 0.985 -9.035 0.985 -9.035 0.157 80.085
9708.875 0.158 80.05 0.985 -9.073 0.985 -9.073 0.158 80.05
9733.833 0.158 80.015 0.985 -9.112 0.985 -9.112 0.158 80.015
9758.792 0.159 79.98 0.985 -9.15 0.985 -9.15 0.159 79.98
9783.75 0.16 79.945 0.985 -9.189 0.985 -9.189 0.16 79.945
9808.708 0.16 79.911 0.985 -9.227 0.985 -9.227 0.16 79.911
9833.667 0.161 79.876 0.985 -9.266 0.985 -9.266 0.161 79.876
9858.625 0.162 79.841 0.984 -9.304 0.984 -9.304 0.162 79.841
9883.583 0.162 79.807 0.984 -9.342 0.984 -9.342 0.162 79.807
9908.542 0.163 79.772 0.984 -9.38 0.984 -9.38 0.163 79.772
9933.5 0.164 79.737 0.984 -9.419 0.984 -9.419 0.164 79.737
9958.458 0.164 79.702 0.984 -9.457 0.984 -9.457 0.164 79.702
9983.417 0.165 79.668 0.984 -9.495 0.984 -9.495 0.165 79.668
10008.375 0.166 79.633 0.984 -9.533 0.984 -9.533 0.166 79.633
10033.333 0.166 79.598 0.984 -9.571 0.984 -9.571 0.166 79.598
10058.292 0.167 79.564 0.984 -9.609 0.984 -9.609 0.167 79.564
10083.25 0.168 79.529 0.983 -9.647 0.983 -9.647 0.168 79.529
10108.208 0.168 79.495 0.983 -9.685 0.983 -9.685 0.168 79.495
10133.167 0.169 79.46 0.983 -9.723 0.983 -9.723 0.169 79.46
10158.125 0.17 79.426 0.983 -9.76 0.983 -9.76 0.17 79.426
10183.083 0.17 79.391 0.983 -9.798 0.983 -9.798 0.17 79.391
10208.042 0.171 79.356 0.983 -9.836 0.983 -9.836 0.171 79.356
10233 0.171 79.322 0.983 -9.873 0.983 -9.873 0.171 79.322
10257.958 0.172 79.287 0.983 -9.911 0.983 -9.911 0.172 79.287
10282.917 0.173 79.253 0.983 -9.949 0.983 -9.949 0.173 79.253
10307.875 0.173 79.218 0.982 -9.986 0.982 -9.986 0.173 79.218
10332.833 0.174 79.184 0.982 -10.024 0.982 -10.024 0.174 79.184
10357.792 0.175 79.15 0.982 -10.061 0.982 -10.061 0.175 79.15
10382.75 0.175 79.115 0.982 -10.099 0.982 -10.099 0.175 79.115
10407.708 0.176 79.081 0.982 -10.136 0.982 -10.136 0.176 79.081
10432.667 0.177 79.046 0.982 -10.173 0.982 -10.173 0.177 79.046
10457.625 0.177 79.012 0.982 -10.211 0.982 -10.211 0.177 79.012
10482.583 0.178 78.978 0.982 -10.248 0.982 -10.248 0.178 78.978
10507.542 0.179 78.943 0.982 -10.285 0.982 -10.285 0.179 78.943
10532.5 0.179 78.909 0.981 -10.322 0.981 -10.322 0.179 78.909
10557.458 0.18 78.875 0.981 -10.359 0.981 -10.359 0.18 78.875
10582.417 0.18 78.84 0.981 -10.396 0.981 -10.396 0.18 78.84
10607.375 0.181 78.806 0.981 -10.433 0.981 -10.433 0.181 78.806
10632.333 0.182 78.772 0.981 -10.47 0.981 -10.47 0.182 78.772
10657.292 0.182 78.738 0.981 -10.507 0.981 -10.507 0.182 78.738
10682.25 0.183 78.703 0.981 -10.544 0.981 -10.544 0.183 78.703
10707.208 0.184 78.669 0.981 -10.581 0.981 -10.581 0.184 78.669
10732.167 0.184 78.635 0.98 -10.618 0.98 -10.618 0.184 78.635
10757.125 0.185 78.601 0.98 -10.655 0.98 -10.655 0.185 78.601
10782.083 0.186 78.567 0.98 -10.692 0.98 -10.692 0.186 78.567
10807.042 0.186 78.533 0.98 -10.728 0.98 -10.728 0.186 78.533
10832 0.187 78.498 0.98 -10.765 0.98 -10.765 0.187 78.498
10856.958 0.187 78.464 0.98 -10.802 0.98 -10.802 0.187 78.464
10881.917 0.188 78.43 0.98 -10.838 0.98 -10.838 0.188 78.43
10906.875 0.189 78.396 0.98 -10.875 0.98 -10.875 0.189 78.396
10931.833 0.189 78.362 0.98 -10.911 0.98 -10.911 0.189 78.362
10956.792 0.19 78.328 0.979 -10.948 0.979 -10.948 0.19 78.328
10981.75 0.191 78.294 0.979 -10.984 0.979 -10.984 0.191 78.294
11006.708 0.191 78.26 0.979 -11.021 0.979 -11.021 0.191 78.26
11031.667 0.192 78.226 0.979 -11.057 0.979 -11.057 0.192 78.226
11056.625 0.192 78.192 0.979 -11.094 0.979 -11.094 0.192 78.192
11081.583 0.193 78.158 0.979 -11.13 0.979 -11.13 0.193 78.158
11106.542 0.194 78.124 0.979 -11.166 0.979 -11.166 0.194 78.124
11131.5 0.194 78.09 0.979 -11.202 0.979 -11.202 0.194 78.09
11156.458 0.195 78.057 0.978 -11.239 0.978 -11.239 0.195 78.057
11181.417 0.196 78.023 0.978 -11.275 0.978 -11.275 0.196 78.023
11206.375 0.196 77.989 0.978 -11.311 0.978 -11.311 0.196 77.989
11231.333 0.197 77.955 0.978 -11.347 0.978 -11.347 0.197 77.955
11256.292 0.197 77.921 0.978 -11.383 0.978 -11.383 0.197 77.921
11281.25 0.198 77.887 0.978 -11.419 0.978 -11.419 0.198 77.887
11306.208 0.199 77.854 0.978 -11.455 0.978 -11.455 0.199 77.854
11331.167 0.199 77.82 0.978 -11.491 0.978 -11.491 0.199 77.82
11356.125 0.2 77.786 0.977 -11.527 0.977 -11.527 0.2 77.786
11381.083 0.2 77.753 0.977 -11.563 0.977 -11.563 0.2 77.753
11406.042 0.201 77.719 0.977 -11.599 0.977 -11.599 0.201 77.719
11431 0.202 77.685 0.977 -11.635 0.977 -11.635 0.202 77.685
11455.958 0.202 77.651 0.977 -11.671 0.977 -11.671 0.202 77.651
11480.917 0.203 77.618 0.977 -11.706 0.977 -11.706 0.203 77.618
11505.875 0.204 77.584 0.977 -11.742 0.977 -11.742 0.204 77.584
11530.833 0.204 77.551 0.977 -11.778 0.977 -11.778 0.204 77.551
11555.792 0.205 77.517 0.976 -11.813 0.976 -11.813 0.205 77.517
11580.75 0.205 77.483 0.976 -11.849 0.976 -11.849 0.205 77.483
11605.708 0.206 77.45 0.976 -11.885 0.976 -11.885 0.206 77.45
11630.667 0.207 77.416 0.976 -11.92 0.976 -11.92 0.207 77.416
11655.625 0.207 77.383 0.976 -11.956 0.976 -11.956 0.207 77.383
11680.583 0.208 77.349 0.976 -11.991 0.976 -11.991 0.208 77.349
11705.542 0.208 77.316 0.976 -12.027 0.976 -12.027 0.208 77.316
11730.5 0.209 77.282 0.976 -12.062 0.976 -12.062 0.209 77.282
11755.458 0.21 77.249 0.975 -12.098 0.975 -12.098 0.21 77.249
11780.417 0.21 77.216 0.975 -12.133 0.975 -12.133 0.21 77.216
11805.375 0.211 77.182 0.975 -12.168 0.975 -12.168 0.211 77.182
11830.333 0.211 77.149 0.975 -12.204 0.975 -12.204 0.211 77.149
11855.292 0.212 77.115 0.975 -12.239 0.975 -12.239 0.212 77.115
11880.25 0.213 77.082 0.975 -12.274 0.975 -12.274 0.213 77.082
11905.208 0.213 77.049 0.975 -12.309 0.975 -12.309 0.213 77.049
11930.167 0.214 77.015 0.974 -12.345 0.974 -12.345 0.214 77.015
11955.125 0.214 76.982 0.974 -12.38 0.974 -12.38 0.214 76.982
11980.083 0.215 76.949 0.974 -12.415 0.974 -12.415 0.215 76.949
12005.042 0.216 76.916 0.974 -12.45 0.974 -12.45 0.216 76.916
12030 0.216 76.882 0.974 -12.485 0.974 -12.485 0.216 76.882
12054.958 0.217 76.849 0.974 -12.52 0.974 -12.52 0.217 76.849
12079.917 0.217 76.816 0.974 -12.555 0.974 -12.555 0.217 76.816
12104.875 0.218 76.783 0.974 -12.59 0.974 -12.59 0.218 76.783
12129.833 0.219 76.75 0.973 -12.625 0.973 -12.625 0.219 76.75
12154.792 0.219 76.716 0.973 -12.66 0.973 -12.66 0.219 76.716
12179.75 0.22 76.683 0.973 -12.695 0.973 -12.695 0.22 76.683
12204.708 0.22 76.65 0.973 -12.73 0.973 -12.73 0.22 76.65
12229.667 0.221 76.617 0.973 -12.765 0.973 -12.765 0.221 76.617
12254.625 0.222 76.584 0.973 -12.8 0.973 -12.8 0.222 76.584
12279.583 0.222 76.551 0.973 -12.834 0.973 -12.834 0.222 76.551
12304.542 0.223 76.518 0.972 -12.869 0.972 -12.869 0.223 76.518
12329.5 0.223 76.485 0.972 -12.904 0.972 -12.904 0.223 76.485
12354.458 0.224 76.452 0.972 -12.938 0.972 -12.938 0.224 76.452
12379.417 0.225 76.419 0.972 -12.973 0.972 -12.973 0.225 76.419
12404.375 0.225 76.386 0.972 -13.008 0.972 -13.008 0.225 76.386
12429.333 0.226 76.353 0.972 -13.042 0.972 -13.042 0.226 76.353
12454.292 0.226 76.32 0.972 -13.077 0.972 -13.077 0.226 76.32
12479.25 0.227 76.287 0.972 -13.111 0.972 -13.111 0.227 76.287
12504.208 0.227 76.254 0.971 -13.146 0.971 -13.146 0.227 76.254
12529.167 0.228 76.221 0.971 -13.181 0.971 -13.181 0.228 76.221
12554.125 0.229 76.189 0.971 -13.215 0.971 -13.215 0.229 76.189
12579.083 0.229 76.156 0.971 -13.249 0.971 -13.249 0.229 76.156
12604.042 0.23 76.123 0.971 -13.284 0.971 -13.284 0.23 76.123
12629 0.23 76.09 0.971 -13.318 0.971 -13.318 0.23 76.09
12653.958 0.231 76.057 0.971 -13.353 0.971 -13.353 0.231 76.057
12678.917 0.232 76.025 0.97 -13.387 0.97 -13.387 0.232 76.025
12703.875 0.232 75.992 0.97 -13.421 0.97 -13.421 0.232 75.992
12728.833 0.233 75.959 0.97 -13.455 0.97 -13.455 0.233 75.959
12753.792 0.233 75.927 0.97 -13.49 0.97 -13.49 0.233 75.927
12778.75 0.234 75.894 0.97 -13.524 0.97 -13.524 0.234 75.894
12803.708 0.234 75.861 0.97 -13.558 0.97 -13.558 0.234 75.861
12828.667 0.235 75.829 0.97 -13.592 0.97 -13.592 0.235 75.829
12853.625 0.236 75.796 0.969 -13.626 0.969 -13.626 0.236 75.796
12878.583 0.236 75.763 0.969 -13.661 0.969 -13.661 0.236 75.763
12903.542 0.237 75.731 0.969 -13.695 0.969 -13.695 0.237 75.731
12928.5 0.237 75.698 0.969 -13.729 0.969 -13.729 0.237 75.698
12953.458 0.238 75.666 0.969 -13.763 0.969 -13.763 0.238 75.666
12978.417 0.238 75.633 0.969 -13.797 0.969 -13.797 0.238 75.633
13003.375 0.239 75.6 0.969 -13.831 0.969 -13.831 0.239 75.6
13028.333 0.24 75.568 0.968 -13.865 0.968 -13.865 0.24 75.568
13053.292 0.24 75.535 0.968 -13.899 0.968 -13.899 0.24 75.535
13078.25 0.241 75.503 0.968 -13.932 0.968 -13.932 0.241 75.503
13103.208 0.241 75.471 0.968 -13.966 0.968 -13.966 0.241 75.471
13128.167 0.242 75.438 0.968 -14 0.968 -14 0.242 75.438
13153.125 0.243 75.406 0.968 -14.034 0.968 -14.034 0.243 75.406
13178.083 0.243 75.373 0.968 -14.068 0.968 -14.068 0.243 75.373
13203.042 0.244 75.341 0.967 -14.102 0.967 -14.102 0.244 75.341
13228 0.244 75.309 0.967 -14.135 0.967 -14.135 0.244 75.309
13252.958 0.245 75.276 0.967 -14.169 0.967 -14.169 0.245 75.276
13277.917 0.245 75.244 0.967 -14.203 0.967 -14.203 0.245 75.244
13302.875 0.246 75.212 0.967 -14.236 0.967 -14.236 0.246 75.212
13327.833 0.247 75.179 0.967 -14.27 0.967 -14.27 0.247 75.179
13352.792 0.247 75.147 0.967 -14.304 0.967 -14.304 0.247 75.147
13377.75 0.248 75.115 0.966 -14.337 0.966 -14.337 0.248 75.115
13402.708 0.248 75.083 0.966 -14.371 0.966 -14.371 0.248 75.083
13427.667 0.249 75.05 0.966 -14.404 0.966 -14.404 0.249 75.05
13452.625 0.249 75.018 0.966 -14.438 0.966 -14.438 0.249 75.018
13477.583 0.25 74.986 0.966 -14.471 0.966 -14.471 0.25 74.986
13502.542 0.25 74.954 0.966 -14.505 0.966 -14.505 0.25 74.954
13527.5 0.251 74.922 0.966 -14.538 0.966 -14.538 0.251 74.922
13552.458 0.252 74.889 0.965 -14.572 0.965 -14.572 0.252 74.889
13577.417 0.252 74.857 0.965 -14.605 0.965 -14.605 0.252 74.857
13602.375 0.253 74.825 0.965 -14.639 0.965 -14.639 0.253 74.825
13627.333 0.253 74.793 0.965 -14.672 0.965 -14.672 0.253 74.793
13652.292 0.254 74.761 0.965 -14.705 0.965 -14.705 0.254 74.761
13677.25 0.254 74.729 0.965 -14.739 0.965 -14.739 0.254 74.729
13702.208 0.255 74.697 0.965 -14.772 0.965 -14.772 0.255 74.697
13727.167 0.256 74.665 0.964 -14.805 0.964 -14.805 0.256 74.665
13752.125 0.256 74.633 0.964 -14.838 0.964 -14.838 0.256 74.633
13777.083 0.257 74.601 0.964 -14.872 0.964 -14.872 0.257 74.601
13802.042 0.257 74.569 0.964 -14.905 0.964 -14.905 0.257 74.569
13827 0.258 74.537 0.964 -14.938 0.964 -14.938 0.258 74.537
13851.958 0.258 74.505 0.964 -14.971 0.964 -14.971 0.258 74.505
13876.917 0.259 74.473 0.964 -15.004 0.964 -15.004 0.259 74.473
13901.875 0.259 74.441 0.963 -15.037 0.963 -15.037 0.259 74.441
13926.833 0.26 74.41 0.963 -15.07 0.963 -15.07 0.26 74.41
13951.792 0.261 74.378 0.963 -15.103 0.963 -15.103 0.261 74.378
13976.75 0.261 74.346 0.963 -15.136 0.963 -15.136 0.261 74.346
14001.708 0.262 74.314 0.963 -15.169 0.963 -15.169 0.262 74.314
14026.667 0.262 74.282 0.963 -15.202 0.963 -15.202 0.262 74.282
14051.625 0.263 74.251 0.962 -15.235 0.962 -15.235 0.263 74.251
14076.583 0.263 74.219 0.962 -15.268 0.962 -15.268 0.263 74.219
14101.542 0.264 74.187 0.962 -15.301 0.962 -15.301 0.264 74.187
14126.5 0.264 74.155 0.962 -15.334 0.962 -15.334 0.264 74.155
14151.458 0.265 74.124 0.962 -15.367 0.962 -15.367 0.265 74.124
14176.417 0.266 74.092 0.962 -15.4 0.962 -15.4 0.266 74.092
14201.375 0.266 74.06 0.962 -15.432 0.962 -15.432 0.266 74.06
14226.333 0.267 74.029 0.961 -15.465 0.961 -15.465 0.267 74.029
14251.292 0.267 73.997 0.961 -15.498 0.961 -15.498 0.267 73.997
14276.25 0.268 73.965 0.961 -15.531 0.961 -15.531 0.268 73.965
14301.208 0.268 73.934 0.961 -15.564 0.961 -15.564 0.268 73.934
14326.167 0.269 73.902 0.961 -15.596 0.961 -15.596 0.269 73.902
14351.125 0.269 73.87 0.961 -15.629 0.961 -15.629 0.269 73.87
14376.083 0.27 73.839 0.961 -15.662 0.961 -15.662 0.27 73.839
14401.042 0.271 73.807 0.96 -15.694 0.96 -15.694 0.271 73.807
14426 0.271 73.776 0.96 -15.727 0.96 -15.727 0.271 73.776
14450.958 0.272 73.744 0.96 -15.759 0.96 -15.759 0.272 73.744
14475.917 0.272 73.713 0.96 -15.792 0.96 -15.792 0.272 73.713
14500.875 0.273 73.681 0.96 -15.825 0.96 -15.825 0.273 73.681
14525.833 0.273 73.65 0.96 -15.857 0.96 -15.857 0.273 73.65
14550.792 0.274 73.618 0.959 -15.89 0.959 -15.89 0.274 73.618
14575.75 0.274 73.587 0.959 -15.922 0.959 -15.922 0.274 73.587
14600.708 0.275 73.556 0.959 -15.954 0.959 -15.954 0.275 73.556
14625.667 0.275 73.524 0.959 -15.987 0.959 -15.987 0.275 73.524
14650.625 0.276 73.493 0.959 -16.019 0.959 -16.019 0.276 73.493
14675.583 0.277 73.462 0.959 -16.052 0.959 -16.052 0.277 73.462
14700.542 0.277 73.43 0.959 -16.084 0.959 -16.084 0.277 73.43
14725.5 0.278 73.399 0.958 -16.116 0.958 -16.116 0.278 73.399
14750.458 0.278 73.368 0.958 -16.149 0.958 -16.149 0.278 73.368
14775.417 0.279 73.336 0.958 -16.181 0.958 -16.181 0.279 73.336
14800.375 0.279 73.305 0.958 -16.213 0.958 -16.213 0.279 73.305
14825.333 0.28 73.274 0.958 -16.246 0.958 -16.246 0.28 73.274
14850.292 0.28 73.243 0.958 -16.278 0.958 -16.278 0.28 73.243
14875.25 0.281 73.211 0.957 -16.31 0.957 -16.31 0.281 73.211
14900.208 0.281 73.18 0.957 -16.342 0.957 -16.342 0.281 73.18
14925.167 0.282 73.149 0.957 -16.374 0.957 -16.374 0.282 73.149
14950.125 0.282 73.118 0.957 -16.407 0.957 -16.407 0.282 73.118
14975.083 0.283 73.087 0.957 -16.439 0.957 -16.439 0.283 73.087
15000.042 0.284 73.055 0.957 -16.471 0.957 -16.471 0.284 73.055
15025 0.284 73.024 0.956 -16.503 0.956 -16.503 0.284 73.024
15049.958 0.285 72.993 0.956 -16.535 0.956 -16.535 0.285 72.993
15074.917 0.285 72.962 0.956 -16.567 0.956 -16.567 0.285 72.962
15099.875 0.286 72.931 0.956 -16.599 0.956 -16.599 0.286 72.931
15124.833 0.286 72.9 0.956 -16.631 0.956 -16.631 0.286 72.9
15149.792 0.287 72.869 0.956 -16.663 0.956 -16.663 0.287 72.869
15174.75 0.287 72.838 0.956 -16.695 0.956 -16.695 0.287 72.838
15199.708 0.288 72.807 0.955 -16.727 0.955 -16.727 0.288 72.807
15224.667 0.288 72.776 0.955 -16.759 0.955 -16.759 0.288 72.776
15249.625 0.289 72.745 0.955 -16.791 0.955 -16.791 0.289 72.745
15274.583 0.289 72.714 0.955 -16.823 0.955 -16.823 0.289 72.714
15299.542 0.29 72.683 0.955 -16.855 0.955 -16.855 0.29 72.683
15324.5 0.29 72.652 0.955 -16.887 0.955 -16.887 0.29 72.652
15349.458 0.291 72.621 0.954 -16.918 0.954 -16.918 0.291 72.621
15374.417 0.292 72.59 0.954 -16.95 0.954 -16.95 0.292 72.59
15399.375 0.292 72.559 0.954 -16.982 0.954 -16.982 0.292 72.559
15424.333 0.293 72.529 0.954 -17.014 0.954 -17.014 0.293 72.529
15449.292 0.293 72.498 0.954 -17.045 0.954 -17.045 0.293 72.498
15474.25 0.294 72.467 0.954 -17.077 0.954 -17.077 0.294 72.467
15499.208 0.294 72.436 0.953 -17.109 0.953 -17.109 0.294 72.436
15524.167 0.295 72.405 0.953 -17.141 0.953 -17.141 0.295 72.405
15549.125 0.295 72.375 0.953 -17.172 0.953 -17.172 0.295 72.375
15574.083 0.296 72.344 0.953 -17.204 0.953 -17.204 0.296 72.344
15599.042 0.296 72.313 0.953 -17.236 0.953 -17.236 0.296 72.313
15624 0.297 72.282 0.953 -17.267 0.953 -17.267 0.297 72.282
15648.958 0.297 72.252 0.952 -17.299 0.952 -17.299 0.297 72.252
15673.917 0.298 72.221 0.952 -17.33 0.952 -17.33 0.298 72.221
15698.875 0.298 72.19 0.952 -17.362 0.952 -17.362 0.298 72.19
15723.833 0.299 72.16 0.952 -17.393 0.952 -17.393 0.299 72.16
15748.792 0.299 72.129 0.952 -17.425 0.952 -17.425 0.299 72.129
15773.75 0.3 72.098 0.952 -17.456 0.952 -17.456 0.3 72.098
15798.708 0.301 72.068 0.951 -17.488 0.951 -17.488 0.301 72.068
15823.667 0.301 72.037 0.951 -17.519 0.951 -17.519 0.301 72.037
15848.625 0.302 72.006 0.951 -17.551 0.951 -17.551 0.302 72.006
15873.583 0.302 71.976 0.951 -17.582 0.951 -17.582 0.302 71.976
15898.542 0.303 71.945 0.951 -17.614 0.951 -17.614 0.303 71.945
15923.5 0.303 71.915 0.951 -17.645 0.951 -17.645 0.303 71.915
15948.458 0.304 71.884 0.95 -17.676 0.95 -17.676 0.304 71.884
15973.417 0.304 71.854 0.95 -17.708 0.95 -17.708 0.304 71.854
15998.375 0.305 71.823 0.95 -17.739 0.95 -17.739 0.305 71.823
16023.333 0.305 71.793 0.95 -17.77 0.95 -17.77 0.305 71.793
16048.292 0.306 71.762 0.95 -17.801 0.95 -17.801 0.306 71.762
16073.25 0.306 71.732 0.95 -17.833 0.95 -17.833 0.306 71.732
16098.208 0.307 71.702 0.949 -17.864 0.949 -17.864 0.307 71.702
16123.167 0.307 71.671 0.949 -17.895 0.949 -17.895 0.307 71.671
16148.125 0.308 71.641 0.949 -17.926 0.949 -17.926 0.308 71.641
16173.083 0.308 71.61 0.949 -17.958 0.949 -17.958 0.308 71.61
16198.042 0.309 71.58 0.949 -17.989 0.949 -17.989 0.309 71.58
16223 0.309 71.55 0.949 -18.02 0.949 -18.02 0.309 71.55
16247.958 0.31 71.519 0.948 -18.051 0.948 -18.051 0.31 71.519
16272.917 0.31 71.489 0.948 -18.082 0.948 -18.082 0.31 71.489
16297.875 0.311 71.459 0.948 -18.113 0.948 -18.113 0.311 71.459
16322.833 0.311 71.428 0.948 -18.144 0.948 -18.144 0.311 71.428
16347.792 0.312 71.398 0.948 -18.175 0.948 -18.175 0.312 71.398
16372.75 0.312 71.368 0.948 -18.206 0.948 -18.206 0.312 71.368
16397.708 0.313 71.338 0.947 -18.237 0.947 -18.237 0.313 71.338
16422.667 0.313 71.307 0.947 -18.268 0.947 -18.268 0.313 71.307
16447.625 0.314 71.277 0.947 -18.299 0.947 -18.299 0.314 71.277
16472.583 0.315 71.247 0.947 -18.33 0.947 -18.33 0.315 71.247
16497.542 0.315 71.217 0.947 -18.361 0.947 -18.361 0.315 71.217
16522.5 0.316 71.187 0.947 -18.392 0.947 -18.392 0.316 71.187
16547.458 0.316 71.157 0.946 -18.423 0.946 -18.423 0.316 71.157
16572.417 0.317 71.126 0.946 -18.454 0.946 -18.454 0.317 71.126
16597.375 0.317 71.096 0.946 -18.485 0.946 -18.485 0.317 71.096
16622.333 0.318 71.066 0.946 -18.516 0.946 -18.516 0.318 71.066
16647.292 0.318 71.036 0.946 -18.546 0.946 -18.546 0.318 71.036
16672.25 0.319 71.006 0.946 -18.577 0.946 -18.577 0.319 71.006
16697.208 0.319 70.976 0.945 -18.608 0.945 -18.608 0.319 70.976
16722.167 0.32 70.946 0.945 -18.639 0.945 -18.639 0.32 70.946
16747.125 0.32 70.916 0.945 -18.669 0.945 -18.669 0.32 70.916
16772.083 0.321 70.886 0.945 -18.7 0.945 -18.7 0.321 70.886
16797.042 0.321 70.856 0.945 -18.731 0.945 -18.731 0.321 70.856
16822 0.322 70.826 0.945 -18.762 0.945 -18.762 0.322 70.826
16846.958 0.322 70.796 0.944 -18.792 0.944 -18.792 0.322 70.796
16871.917 0.323 70.766 0.944 -18.823 0.944 -18.823 0.323 70.766
16896.875 0.323 70.736 0.944 -18.854 0.944 -18.854 0.323 70.736
16921.833 0.324 70.706 0.944 -18.884 0.944 -18.884 0.324 70.706
16946.792 0.324 70.677 0.944 -18.915 0.944 -18.915 0.324 70.677
16971.75 0.325 70.647 0.944 -18.945 0.944 -18.945 0.325 70.647
16996.708 0.325 70.617 0.943 -18.976 0.943 -18.976 0.325 70.617
17021.667 0.326 70.587 0.943 -19.006 0.943 -19.006 0.326 70.587
17046.625 0.326 70.557 0.943 -19.037 0.943 -19.037 0.326 70.557
17071.583 0.327 70.527 0.943 -19.068 0.943 -19.068 0.327 70.527
17096.542 0.327 70.498 0.943 -19.098 0.943 -19.098 0.327 70.498
17121.5 0.328 70.468 0.942 -19.128 0.942 -19.128 0.328 70.468
17146.458 0.328 70.438 0.942 -19.159 0.942 -19.159 0.328 70.438
17171.417 0.329 70.408 0.942 -19.189 0.942 -19.189 0.329 70.408
17196.375 0.329 70.378 0.942 -19.22 0.942 -19.22 0.329 70.378
17221.333 0.33 70.349 0.942 -19.25 0.942 -19.25 0.33 70.349
17246.292 0.33 70.319 0.942 -19.281 0.942 -19.281 0.33 70.319
17271.25 0.331 70.289 0.941 -19.311 0.941 -19.311 0.331 70.289
17296.208 0.331 70.26 0.941 -19.341 0.941 -19.341 0.331 70.26
17321.167 0.332 70.23 0.941 -19.372 0.941 -19.372 0.332 70.23
17346.125 0.332 70.2 0.941 -19.402 0.941 -19.402 0.332 70.2
17371.083 0.333 70.171 0.941 -19.432 0.941 -19.432 0.333 70.171
17396.042 0.333 70.141 0.941 -19.463 0.941 -19.463 0.333 70.141
17421 0.334 70.112 0.94 -19.493 0.94 -19.493 0.334 70.112
17445.958 0.334 70.082 0.94 -19.523 0.94 -19.523 0.334 70.082
17470.917 0.335 70.052 0.94 -19.553 0.94 -19.553 0.335 70.052
17495.875 0.335 70.023 0.94 -19.583 0.94 -19.583 0.335 70.023
17520.833 0.336 69.993 0.94 -19.614 0.94 -19.614 0.336 69.993
17545.792 0.336 69.964 0.939 -19.644 0.939 -19.644 0.336 69.964
17570.75 0.337 69.934 0.939 -19.674 0.939 -19.674 0.337 69.934
17595.708 0.337 69.905 0.939 -19.704 0.939 -19.704 0.337 69.905
17620.667 0.338 69.875 0.939 -19.734 0.939 -19.734 0.338 69.875
17645.625 0.338 69.846 0.939 -19.764 0.939 -19.764 0.338 69.846
17670.583 0.339 69.816 0.939 -19.794 0.939 -19.794 0.339 69.816
17695.542 0.339 69.787 0.938 -19.825 0.938 -19.825 0.339 69.787
17720.5 0.34 69.758 0.938 -19.855 0.938 -19.855 0.34 69.758
17745.458 0.34 69.728 0.938 -19.885 0.938 -19.885 0.34 69.728
17770.417 0.341 69.699 0.938 -19.915 0.938 -19.915 0.341 69.699
17795.375 0.341 69.669 0.938 -19.945 0.938 -19.945 0.341 69.669
17820.333 0.342 69.64 0.938 -19.975 0.938 -19.975 0.342 69.64
17845.292 0.342 69.611 0.937 -20.005 0.937 -20.005 0.342 69.611
17870.25 0.343 69.581 0.937 -20.034 0.937 -20.034 0.343 69.581
17895.208 0.343 69.552 0.937 -20.064 0.937 -20.064 0.343 69.552
17920.167 0.344 69.523 0.937 -20.094 0.937 -20.094 0.344 69.523
17945.125 0.344 69.494 0.937 -20.124 0.937 -20.124 0.344 69.494
17970.083 0.345 69.464 0.936 -20.154 0.936 -20.154 0.345 69.464
17995.042 0.345 69.435 0.936 -20.184 0.936 -20.184 0.345 69.435
18020 0.346 69.406 0.936 -20.214 0.936 -20.214 0.346 69.406
18044.958 0.346 69.377 0.936 -20.244 0.936 -20.244 0.346 69.377
18069.917 0.347 69.347 0.936 -20.273 0.936 -20.273 0.347 69.347
18094.875 0.347 69.318 0.936 -20.303 0.936 -20.303 0.347 69.318
18119.833 0.347 69.289 0.935 -20.333 0.935 -20.333 0.347 69.289
18144.792 0.348 69.26 0.935 -20.363 0.935 -20.363 0.348 69.26
18169.75 0.348 69.231 0.935 -20.393 0.935 -20.393 0.348 69.231
18194.708 0.349 69.202 0.935 -20.422 0.935 -20.422 0.349 69.202
18219.667 0.349 69.172 0.935 -20.452 0.935 -20.452 0.349 69.172
18244.625 0.35 69.143 0.934 -20.482 0.934 -20.482 0.35 69.143
18269.583 0.35 69.114 0.934 -20.511 0.934 -20.511 0.35 69.114
18294.542 0.351 69.085 0.934 -20.541 0.934 -20.541 0.351 69.085
18319.5 0.351 69.056 0.934 -20.571 0.934 -20.571 0.351 69.056
18344.458 0.352 69.027 0.934 -20.6 0.934 -20.6 0.352 69.027
18369.417 0.352 68.998 0.934 -20.63 0.934 -20.63 0.352 68.998
18394.375 0.353 68.969 0.933 -20.659 0.933 -20.659 0.353 68.969
18419.333 0.353 68.94 0.933 -20.689 0.933 -20.689 0.353 68.94
18444.292 0.354 68.911 0.933 -20.719 0.933 -20.719 0.354 68.911
18469.25 0.354 68.882 0.933 -20.748 0.933 -20.748 0.354 68.882
18494.208 0.355 68.853 0.933 -20.778 0.933 -20.778 0.355 68.853
18519.167 0.355 68.824 0.932 -20.807 0.932 -20.807 0.355 68.824
18544.125 0.356 68.795 0.932 -20.837 0.932 -20.837 0.356 68.795
18569.083 0.356 68.766 0.932 -20.866 0.932 -20.866 0.356 68.766
18594.042 0.357 68.738 0.932 -20.896 0.932 -20.896 0.357 68.738
18619 0.357 68.709 0.932 -20.925 0.932 -20.925 0.357 68.709
18643.958 0.358 68.68 0.932 -20.954 0.932 -20.954 0.358 68.68
18668.917 0.358 68.651 0.931 -20.984 0.931 -20.984 0.358 68.651
18693.875 0.359 68.622 0.931 -21.013 0.931 -21.013 0.359 68.622
18718.833 0.359 68.593 0.931 -21.043 0.931 -21.043 0.359 68.593
18743.792 0.36 68.565 0.931 -21.072 0.931 -21.072 0.36 68.565
18768.75 0.36 68.536 0.931 -21.101 0.931 -21.101 0.36 68.536
18793.708 0.361 68.507 0.93 -21.131 0.93 -21.131 0.361 68.507
18818.667 0.361 68.478 0.93 -21.16 0.93 -21.16 0.361 68.478
18843.625 0.361 68.45 0.93 -21.189 0.93 -21.189 0.361 68.45
18868.583 0.362 68.421 0.93 -21.218 0.93 -21.218 0.362 68.421
18893.542 0.362 68.392 0.93 -21.248 0.93 -21.248 0.362 68.392
18918.5 0.363 68.363 0.93 -21.277 0.93 -21.277 0.363 68.363
18943.458 0.363 68.335 0.929 -21.306 0.929 -21.306 0.363 68.335
18968.417 0.364 68.306 0.929 -21.335 0.929 -21.335 0.364 68.306
18993.375 0.364 68.277 0.929 -21.365 0.929 -21.365 0.364 68.277
19018.333 0.365 68.249 0.929 -21.394 0.929 -21.394 0.365 68.249
19043.292 0.365 68.22 0.929 -21.423 0.929 -21.423 0.365 68.22
19068.25 0.366 68.192 0.928 -21.452 0.928 -21.452 0.366 68.192
19093.208 0.366 68.163 0.928 -21.481 0.928 -21.481 0.366 68.163
19118.167 0.367 68.134 0.928 -21.51 0.928 -21.51 0.367 68.134
19143.125 0.367 68.106 0.928 -21.539 0.928 -21.539 0.367 68.106
19168.083 0.368 68.077 0.928 -21.568 0.928 -21.568 0.368 68.077
19193.042 0.368 68.049 0.928 -21.598 0.928 -21.598 0.368 68.049
19218 0.369 68.02 0.927 -21.627 0.927 -21.627 0.369 68.02
19242.958 0.369 67.992 0.927 -21.656 0.927 -21.656 0.369 67.992
19267.917 0.37 67.963 0.927 -21.685 0.927 -21.685 0.37 67.963
19292.875 0.37 67.935 0.927 -21.714 0.927 -21.714 0.37 67.935
19317.833 0.37 67.906 0.927 -21.743 0.927 -21.743 0.37 67.906
19342.792 0.371 67.878 0.926 -21.772 0.926 -21.772 0.371 67.878
19367.75 0.371 67.849 0.926 -21.8 0.926 -21.8 0.371 67.849
19392.708 0.372 67.821 0.926 -21.829 0.926 -21.829 0.372 67.821
19417.667 0.372 67.793 0.926 -21.858 0.926 -21.858 0.372 67.793
19442.625 0.373 67.764 0.926 -21.887 0.926 -21.887 0.373 67.764
19467.583 0.373 67.736 0.925 -21.916 0.925 -21.916 0.373 67.736
19492.542 0.374 67.707 0.925 -21.945 0.925 -21.945 0.374 67.707
19517.5 0.374 67.679 0.925 -21.974 0.925 -21.974 0.374 67.679
19542.458 0.375 67.651 0.925 -22.003 0.925 -22.003 0.375 67.651
19567.417 0.375 67.622 0.925 -22.031 0.925 -22.031 0.375 67.622
19592.375 0.376 67.594 0.925 -22.06 0.925 -22.06 0.376 67.594
19617.333 0.376 67.566 0.924 -22.089 0.924 -22.089 0.376 67.566
19642.292 0.377 67.538 0.924 -22.118 0.924 -22.118 0.377 67.538
19667.25 0.377 67.509 0.924 -22.147 0.924 -22.147 0.377 67.509
19692.208 0.377 67.481 0.924 -22.175 0.924 -22.175 0.377 67.481
19717.167 0.378 67.453 0.924 -22.204 0.924 -22.204 0.378 67.453
19742.125 0.378 67.425 0.923 -22.233 0.923 -22.233 0.378 67.425
19767.083 0.379 67.396 0.923 -22.261 0.923 -22.261 0.379 67.396
19792.042 0.379 67.368 0.923 -22.29 0.923 -22.29 0.379 67.368
19817 0.38 67.34 0.923 -22.319 0.923 -22.319 0.38 67.34
19841.958 0.38 67.312 0.923 -22.347 0.923 -22.347 0.38 67.312
19866.917 0.381 67.284 0.922 -22.376 0.922 -22.376 0.381 67.284
19891.875 0.381 67.256 0.922 -22.405 0.922 -22.405 0.381 67.256
19916.833 0.382 67.228 0.922 -22.433 0.922 -22.433 0.382 67.228
19941.792 0.382 67.199 0.922 -22.462 0.922 -22.462 0.382 67.199
19966.75 0.383 67.171 0.922 -22.49 0.922 -22.49 0.383 67.171
19991.708 0.383 67.143 0.921 -22.519 0.921 -22.519 0.383 67.143
20016.667 0.383 67.115 0.921 -22.547 0.921 -22.547 0.383 67.115
20041.625 0.384 67.087 0.921 -22.576 0.921 -22.576 0.384 67.087
20066.583 0.384 67.059 0.921 -22.604 0.921 -22.604 0.384 67.059
20091.542 0.385 67.031 0.921 -22.633 0.921 -22.633 0.385 67.031
20116.5 0.385 67.003 0.921 -22.661 0.921 -22.661 0.385 67.003
20141.458 0.386 66.975 0.92 -22.69 0.92 -22.69 0.386 66.975
20166.417 0.386 66.947 0.92 -22.718 0.92 -22.718 0.386 66.947
20191.375 0.387 66.919 0.92 -22.747 0.92 -22.747 0.387 66.919
20216.333 0.387 66.891 0.92 -22.775 0.92 -22.775 0.387 66.891
20241.292 0.388 66.863 0.92 -22.803 0.92 -22.803 0.388 66.863
20266.25 0.388 66.835 0.919 -22.832 0.919 -22.832 0.388 66.835
20291.208 0.388 66.808 0.919 -22.86 0.919 -22.86 0.388 66.808
20316.167 0.389 66.78 0.919 -22.889 0.919 -22.889 0.389 66.78
20341.125 0.389 66.752 0.919 -22.917 0.919 -22.917 0.389 66.752
20366.083 0.39 66.724 0.919 -22.945 0.919 -22.945 0.39 66.724
20391.042 0.39 66.696 0.918 -22.973 0.918 -22.973 0.39 66.696
20416 0.391 66.668 0.918 -23.002 0.918 -23.002 0.391 66.668
20440.958 0.391 66.64 0.918 -23.03 0.918 -23.03 0.391 66.64
20465.917 0.392 66.613 0.918 -23.058 0.918 -23.058 0.392 66.613
20490.875 0.392 66.585 0.918 -23.087 0.918 -23.087 0.392 66.585
20515.833 0.393 66.557 0.917 -23.115 0.917 -23.115 0.393 66.557
20540.792 0.393 66.529 0.917 -23.143 0.917 -23.143 0.393 66.529
20565.75 0.393 66.502 0.917 -23.171 0.917 -23.171 0.393 66.502
20590.708 0.394 66.474 0.917 -23.199 0.917 -23.199 0.394 66.474
20615.667 0.394 66.446 0.917 -23.227 0.917 -23.227 0.394 66.446
20640.625 0.395 66.419 0.917 -23.256 0.917 -23.256 0.395 66.419
20665.583 0.395 66.391 0.916 -23.284 0.916 -23.284 0.395 66.391
20690.542 0.396 66.363 0.916 -23.312 0.916 -23.312 0.396 66.363
20715.5 0.396 66.336 0.916 -23.34 0.916 -23.34 0.396 66.336
20740.458 0.397 66.308 0.916 -23.368 0.916 -23.368 0.397 66.308
20765.417 0.397 66.28 0.916 -23.396 0.916 -23.396 0.397 66.28
20790.375 0.398 66.253 0.915 -23.424 0.915 -23.424 0.398 66.253
20815.333 0.398 66.225 0.915 -23.452 0.915 -23.452 0.398 66.225
20840.292 0.398 66.197 0.915 -23.48 0.915 -23.48 0.398 66.197
20865.25 0.399 66.17 0.915 -23.508 0.915 -23.508 0.399 66.17
20890.208 0.399 66.142 0.915 -23.536 0.915 -23.536 0.399 66.142
20915.167 0.4 66.115 0.914 -23.564 0.914 -23.564 0.4 66.115
20940.125 0.4 66.087 0.914 -23.592 0.914 -23.592 0.4 66.087
20965.083 0.401 66.06 0.914 -23.62 0.914 -23.62 0.401 66.06
20990.042 0.401 66.032 0.914 -23.648 0.914 -23.648 0.401 66.032
21015 0.402 66.005 0.914 -23.676 0.914 -23.676 0.402 66.005
21039.958 0.402 65.977 0.913 -23.704 0.913 -23.704 0.402 65.977
21064.917 0.402 65.95 0.913 -23.732 0.913 -23.732 0.402 65.95
21089.875 0.403 65.922 0.913 -23.759 0.913 -23.759 0.403 65.922
21114.833 0.403 65.895 0.913 -23.787 0.913 -23.787 0.403 65.895
21139.792 0.404 65.868 0.913 -23.815 0.913 -23.815 0.404 65.868
21164.75 0.404 65.84 0.912 -23.843 0.912 -23.843 0.404 65.84
21189.708 0.405 65.813 0.912 -23.871 0.912 -23.871 0.405 65.813
21214.667 0.405 65.785 0.912 -23.899 0.912 -23.899 0.405 65.785
21239.625 0.406 65.758 0.912 -23.926 0.912 -23.926 0.406 65.758
21264.583 0.406 65.731 0.912 -23.954 0.912 -23.954 0.406 65.731
21289.542 0.406 65.703 0.911 -23.982 0.911 -23.982 0.406 65.703
21314.5 0.407 65.676 0.911 -24.009 0.911 -24.009 0.407 65.676
21339.458 0.407 65.649 0.911 -24.037 0.911 -24.037 0.407 65.649
21364.417 0.408 65.621 0.911 -24.065 0.911 -24.065 0.408 65.621
21389.375 0.408 65.594 0.911 -24.093 0.911 -24.093 0.408 65.594
21414.333 0.409 65.567 0.91 -24.12 0.91 -24.12 0.409 65.567
21439.292 0.409 65.54 0.91 -24.148 0.91 -24.148 0.409 65.54
21464.25 0.41 65.512 0.91 -24.176 0.91 -24.176 0.41 65.512
21489.208 0.41 65.485 0.91 -24.203 0.91 -24.203 0.41 65.485
21514.167 0.41 65.458 0.91 -24.231 0.91 -24.231 0.41 65.458
21539.125 0.411 65.431 0.909 -24.258 0.909 -24.258 0.411 65.431
21564.083 0.411 65.404 0.909 -24.286 0.909 -24.286 0.411 65.404
21589.042 0.412 65.377 0.909 -24.313 0.909 -24.313 0.412 65.377
21614 0.412 65.349 0.909 -24.341 0.909 -24.341 0.412 65.349
21638.958 0.413 65.322 0.909 -24.369 0.909 -24.369 0.413 65.322
21663.917 0.413 65.295 0.908 -24.396 0.908 -24.396 0.413 65.295
21688.875 0.413 65.268 0.908 -24.424 0.908 -24.424 0.413 65.268
21713.833 0.414 65.241 0.908 -24.451 0.908 -24.451 0.414 65.241
21738.792 0.414 65.214 0.908 -24.478 0.908 -24.478 0.414 65.214
21763.75 0.415 65.187 0.908 -24.506 0.908 -24.506 0.415 65.187
21788.708 0.415 65.16 0.907 -24.533 0.907 -24.533 0.415 65.16
21813.667 0.416 65.133 0.907 -24.561 0.907 -24.561 0.416 65.133
21838.625 0.416 65.106 0.907 -24.588 0.907 -24.588 0.416 65.106
21863.583 0.417 65.079 0.907 -24.616 0.907 -24.616 0.417 65.079
21888.542 0.417 65.052 0.907 -24.643 0.907 -24.643 0.417 65.052
21913.5 0.417 65.025 0.907 -24.67 0.907 -24.67 0.417 65.025
21938.458 0.418 64.998 0.906 -24.698 0.906 -24.698 0.418 64.998
21963.417 0.418 64.971 0.906 -24.725 0.906 -24.725 0.418 64.971
21988.375 0.419 64.944 0.906 -24.752 0.906 -24.752 0.419 64.944
22013.333 0.419 64.917 0.906 -24.78 0.906 -24.78 0.419 64.917
22038.292 0.42 64.89 0.906 -24.807 0.906 -24.807 0.42 64.89
22063.25 0.42 64.863 0.905 -24.834 0.905 -24.834 0.42 64.863
22088.208 0.42 64.836 0.905 -24.861 0.905 -24.861 0.42 64.836
22113.167 0.421 64.809 0.905 -24.889 0.905 -24.889 0.421 64.809
22138.125 0.421 64.783 0.905 -24.916 0.905 -24.916 0.421 64.783
22163.083 0.422 64.756 0.905 -24.943 0.905 -24.943 0.422 64.756
22188.042 0.422 64.729 0.904 -24.97 0.904 -24.97 0.422 64.729
22213 0.423 64.702 0.904 -24.998 0.904 -24.998 0.423 64.702
22237.958 0.423 64.675 0.904 -25.025 0.904 -25.025 0.423 64.675
22262.917 0.423 64.649 0.904 -25.052 0.904 -25.052 0.423 64.649
22287.875 0.424 64.622 0.904 -25.079 0.904 -25.079 0.424 64.622
22312.833 0.424 64.595 0.903 -25.106 0.903 -25.106 0.424 64.595
22337.792 0.425 64.568 0.903 -25.133 0.903 -25.133 0.425 64.568
22362.75 0.425 64.542 0.903 -25.16 0.903 -25.16 0.425 64.542
22387.708 0.426 64.515 0.903 -25.187 0.903 -25.187 0.426 64.515
22412.667 0.426 64.488 0.903 -25.214 0.903 -25.214 0.426 64.488
22437.625 0.426 64.461 0.902 -25.242 0.902 -25.242 0.426 64.461
22462.583 0.427 64.435 0.902 -25.269 0.902 -25.269 0.427 64.435
22487.542 0.427 64.408 0.902 -25.296 0.902 -25.296 0.427 64.408
22512.5 0.428 64.381 0.902 -25.323 0.902 -25.323 0.428 64.381
22537.458 0.428 64.355 0.902 -25.35 0.902 -25.35 0.428 64.355
22562.417 0.429 64.328 0.901 -25.377 0.901 -25.377 0.429 64.328
22587.375 0.429 64.302 0.901 -25.403 0.901 -25.403 0.429 64.302
22612.333 0.429 64.275 0.901 -25.43 0.901 -25.43 0.429 64.275
22637.292 0.43 64.248 0.901 -25.457 0.901 -25.457 0.43 64.248
22662.25 0.43 64.222 0.9 -25.484 0.9 -25.484 0.43 64.222
22687.208 0.431 64.195 0.9 -25.511 0.9 -25.511 0.431 64.195
22712.167 0.431 64.169 0.9 -25.538 0.9 -25.538 0.431 64.169
22737.125 0.432 64.142 0.9 -25.565 0.9 -25.565 0.432 64.142
22762.083 0.432 64.116 0.9 -25.592 0.9 -25.592 0.432 64.116
22787.042 0.432 64.089 0.899 -25.619 0.899 -25.619 0.432 64.089
22812 0.433 64.063 0.899 -25.645 0.899 -25.645 0.433 64.063
22836.958 0.433 64.036 0.899 -25.672 0.899 -25.672 0.433 64.036
22861.917 0.434 64.01 0.899 -25.699 0.899 -25.699 0.434 64.01
22886.875 0.434 63.983 0.899 -25.726 0.899 -25.726 0.434 63.983
22911.833 0.434 63.957 0.898 -25.753 0.898 -25.753 0.434 63.957
22936.792 0.435 63.931 0.898 -25.779 0.898 -25.779 0.435 63.931
22961.75 0.435 63.904 0.898 -25.806 0.898 -25.806 0.435 63.904
22986.708 0.436 63.878 0.898 -25.833 0.898 -25.833 0.436 63.878
23011.667 0.436 63.851 0.898 -25.86 0.898 -25.86 0.436 63.851
23036.625 0.437 63.825 0.897 -25.886 0.897 -25.886 0.437 63.825
23061.583 0.437 63.799 0.897 -25.913 0.897 -25.913 0.437 63.799
23086.542 0.437 63.772 0.897 -25.94 0.897 -25.94 0.437 63.772
23111.5 0.438 63.746 0.897 -25.966 0.897 -25.966 0.438 63.746
23136.458 0.438 63.72 0.897 -25.993 0.897 -25.993 0.438 63.72
23161.417 0.439 63.694 0.896 -26.02 0.896 -26.02 0.439 63.694
23186.375 0.439 63.667 0.896 -26.046 0.896 -26.046 0.439 63.667
23211.333 0.44 63.641 0.896 -26.073 0.896 -26.073 0.44 63.641
23236.292 0.44 63.615 0.896 -26.099 0.896 -26.099 0.44 63.615
23261.25 0.44 63.589 0.896 -26.126 0.896 -26.126 0.44 63.589
23286.208 0.441 63.562 0.895 -26.152 0.895 -26.152 0.441 63.562
23311.167 0.441 63.536 0.895 -26.179 0.895 -26.179 0.441 63.536
23336.125 0.442 63.51 0.895 -26.206 0.895 -26.206 0.442 63.51
23361.083 0.442 63.484 0.895 -26.232 0.895 -26.232 0.442 63.484
23386.042 0.442 63.458 0.895 -26.259 0.895 -26.259 0.442 63.458
23411 0.443 63.431 0.894 -26.285 0.894 -26.285 0.443 63.431
23435.958 0.443 63.405 0.894 -26.311 0.894 -26.311 0.443 63.405
23460.917 0.444 63.379 0.894 -26.338 0.894 -26.338 0.444 63.379
23485.875 0.444 63.353 0.894 -26.364 0.894 -26.364 0.444 63.353
23510.833 0.444 63.327 0.894 -26.391 0.894 -26.391 0.444 63.327
23535.792 0.445 63.301 0.893 -26.417 0.893 -26.417 0.445 63.301
23560.75 0.445 63.275 0.893 -26.444 0.893 -26.444 0.445 63.275
23585.708 0.446 63.249 0.893 -26.47 0.893 -26.47 0.446 63.249
23610.667 0.446 63.223 0.893 -26.496 0.893 -26.496 0.446 63.223
23635.625 0.447 63.197 0.893 -26.523 0.893 -26.523 0.447 63.197
23660.583 0.447 63.171 0.892 -26.549 0.892 -26.549 0.447 63.171
23685.542 0.447 63.145 0.892 -26.575 0.892 -26.575 0.447 63.145
23710.5 0.448 63.119 0.892 -26.602 0.892 -26.602 0.448 63.119
23735.458 0.448 63.093 0.892 -26.628 0.892 -26.628 0.448 63.093
23760.417 0.449 63.067 0.892 -26.654 0.892 -26.654 0.449 63.067
23785.375 0.449 63.041 0.891 -26.68 0.891 -26.68 0.449 63.041
23810.333 0.449 63.015 0.891 -26.707 0.891 -26.707 0.449 63.015
23835.292 0.45 62.989 0.891 -26.733 0.891 -26.733 0.45 62.989
23860.25 0.45 62.963 0.891 -26.759 0.891 -26.759 0.45 62.963
23885.208 0.451 62.937 0.891 -26.785 0.891 -26.785 0.451 62.937
23910.167 0.451 62.911 0.89 -26.812 0.89 -26.812 0.451 62.911
23935.125 0.451 62.885 0.89 -26.838 0.89 -26.838 0.451 62.885
23960.083 0.452 62.86 0.89 -26.864 0.89 -26.864 0.452 62.86
23985.042 0.452 62.834 0.89 -26.89 0.89 -26.89 0.452 62.834
24010 0.453 62.808 0.889 -26.916 0.889 -26.916 0.453 62.808
24034.958 0.453 62.782 0.889 -26.942 0.889 -26.942 0.453 62.782
24059.917 0.454 62.756 0.889 -26.968 0.889 -26.968 0.454 62.756
24084.875 0.454 62.731 0.889 -26.995 0.889 -26.995 0.454 62.731
24109.833 0.454 62.705 0.889 -27.021 0.889 -27.021 0.454 62.705
24134.792 0.455 62.679 0.888 -27.047 0.888 -27.047 0.455 62.679
24159.75 0.455 62.653 0.888 -27.073 0.888 -27.073 0.455 62.653
24184.708 0.456 62.628 0.888 -27.099 0.888 -27.099 0.456 62.628
24209.667 0.456 62.602 0.888 -27.125 0.888 -27.125 0.456 62.602
24234.625 0.456 62.576 0.888 -27.151 0.888 -27.151 0.456 62.576
24259.583 0.457 62.55 0.887 -27.177 0.887 -27.177 0.457 62.55
24284.542 0.457 62.525 0.887 -27.203 0.887 -27.203 0.457 62.525
24309.5 0.458 62.499 0.887 -27.229 0.887 -27.229 0.458 62.499
24334.458 0.458 62.473 0.887 -27.255 0.887 -27.255 0.458 62.473
24359.417 0.458 62.448 0.887 -27.281 0.887 -27.281 0.458 62.448
24384.375 0.459 62.422 0.886 -27.307 0.886 -27.307 0.459 62.422
24409.333 0.459 62.397 0.886 -27.332 0.886 -27.332 0.459 62.397
24434.292 0.46 62.371 0.886 -27.358 0.886 -27.358 0.46 62.371
24459.25 0.46 62.345 0.886 -27.384 0.886 -27.384 0.46 62.345
24484.208 0.46 62.32 0.886 -27.41 0.886 -27.41 0.46 62.32
24509.167 0.461 62.294 0.885 -27.436 0.885 -27.436 0.461 62.294
24534.125 0.461 62.269 0.885 -27.462 0.885 -27.462 0.461 62.269
24559.083 0.462 62.243 0.885 -27.488 0.885 -27.488 0.462 62.243
24584.042 0.462 62.218 0.885 -27.513 0.885 -27.513 0.462 62.218
24609 0.462 62.192 0.885 -27.539 0.885 -27.539 0.462 62.192
24633.958 0.463 62.167 0.884 -27.565 0.884 -27.565 0.463 62.167
24658.917 0.463 62.141 0.884 -27.591 0.884 -27.591 0.463 62.141
24683.875 0.464 62.116 0.884 -27.617 0.884 -27.617 0.464 62.116
24708.833 0.464 62.09 0.884 -27.642 0.884 -27.642 0.464 62.09
24733.792 0.464 62.065 0.883 -27.668 0.883 -27.668 0.464 62.065
24758.75 0.465 62.039 0.883 -27.694 0.883 -27.694 0.465 62.039
24783.708 0.465 62.014 0.883 -27.719 0.883 -27.719 0.465 62.014
24808.667 0.466 61.989 0.883 -27.745 0.883 -27.745 0.466 61.989
24833.625 0.466 61.963 0.883 -27.771 0.883 -27.771 0.466 61.963
24858.583 0.466 61.938 0.882 -27.796 0.882 -27.796 0.466 61.938
24883.542 0.467 61.913 0.882 -27.822 0.882 -27.822 0.467 61.913
24908.5 0.467 61.887 0.882 -27.848 0.882 -27.848 0.467 61.887
24933.458 0.468 61.862 0.882 -27.873 0.882 -27.873 0.468 61.862
24958.417 0.468 61.837 0.882 -27.899 0.882 -27.899 0.468 61.837
24983.375 0.468 61.811 0.881 -27.924 0.881 -27.924 0.468 61.811
25008.333 0.469 61.786 0.881 -27.95 0.881 -27.95 0.469 61.786
25033.292 0.469 61.761 0.881 -27.976 0.881 -27.976 0.469 61.761
25058.25 0.469 61.735 0.881 -28.001 0.881 -28.001 0.469 61.735
25083.208 0.47 61.71 0.881 -28.027 0.881 -28.027 0.47 61.71
25108.167 0.47 61.685 0.88 -28.052 0.88 -28.052 0.47 61.685
25133.125 0.471 61.66 0.88 -28.078 0.88 -28.078 0.471 61.66
25158.083 0.471 61.635 0.88 -28.103 0.88 -28.103 0.471 61.635
25183.042 0.471 61.609 0.88 -28.129 0.88 -28.129 0.471 61.609
25208 0.472 61.584 0.88 -28.154 0.88 -28.154 0.472 61.584
25232.958 0.472 61.559 0.879 -28.18 0.879 -28.18 0.472 61.559
25257.917 0.473 61.534 0.879 -28.205 0.879 -28.205 0.473 61.534
25282.875 0.473 61.509 0.879 -28.23 0.879 -28.23 0.473 61.509
25307.833 0.473 61.484 0.879 -28.256 0.879 -28.256 0.473 61.484
25332.792 0.474 61.459 0.878 -28.281 0.878 -28.281 0.474 61.459
25357.75 0.474 61.433 0.878 -28.307 0.878 -28.307 0.474 61.433
25382.708 0.475 61.408 0.878 -28.332 0.878 -28.332 0.475 61.408
25407.667 0.475 61.383 0.878 -28.357 0.878 -28.357 0.475 61.383
25432.625 0.475 61.358 0.878 -28.383 0.878 -28.383 0.475 61.358
25457.583 0.476 61.333 0.877 -28.408 0.877 -28.408 0.476 61.333
25482.542 0.476 61.308 0.877 -28.433 0.877 -28.433 0.476 61.308
25507.5 0.477 61.283 0.877 -28.458 0.877 -28.458 0.477 61.283
25532.458 0.477 61.258 0.877 -28.484 0.877 -28.484 0.477 61.258
25557.417 0.477 61.233 0.877 -28.509 0.877 -28.509 0.477 61.233
25582.375 0.478 61.208 0.876 -28.534 0.876 -28.534 0.478 61.208
25607.333 0.478 61.183 0.876 -28.56 0.876 -28.56 0.478 61.183
25632.292 0.478 61.158 0.876 -28.585 0.876 -28.585 0.478 61.158
25657.25 0.479 61.133 0.876 -28.61 0.876 -28.61 0.479 61.133
25682.208 0.479 61.108 0.876 -28.635 0.876 -28.635 0.479 61.108
25707.167 0.48 61.083 0.875 -28.66 0.875 -28.66 0.48 61.083
25732.125 0.48 61.059 0.875 -28.685 0.875 -28.685 0.48 61.059
25757.083 0.48 61.034 0.875 -28.711 0.875 -28.711 0.48 61.034
25782.042 0.481 61.009 0.875 -28.736 0.875 -28.736 0.481 61.009
25807 0.481 60.984 0.874 -28.761 0.874 -28.761 0.481 60.984
25831.958 0.482 60.959 0.874 -28.786 0.874 -28.786 0.482 60.959
25856.917 0.482 60.934 0.874 -28.811 0.874 -28.811 0.482 60.934
25881.875 0.482 60.909 0.874 -28.836 0.874 -28.836 0.482 60.909
25906.833 0.483 60.885 0.874 -28.861 0.874 -28.861 0.483 60.885
25931.792 0.483 60.86 0.873 -28.886 0.873 -28.886 0.483 60.86
25956.75 0.483 60.835 0.873 -28.911 0.873 -28.911 0.483 60.835
25981.708 0.484 60.81 0.873 -28.936 0.873 -28.936 0.484 60.81
26006.667 0.484 60.785 0.873 -28.961 0.873 -28.961 0.484 60.785
26031.625 0.485 60.761 0.873 -28.986 0.873 -28.986 0.485 60.761
26056.583 0.485 60.736 0.872 -29.011 0.872 -29.011 0.485 60.736
26081.542 0.485 60.711 0.872 -29.036 0.872 -29.036 0.485 60.711
26106.5 0.486 60.687 0.872 -29.061 0.872 -29.061 0.486 60.687
26131.458 0.486 60.662 0.872 -29.086 0.872 -29.086 0.486 60.662
26156.417 0.487 60.637 0.872 -29.111 0.872 -29.111 0.487 60.637
26181.375 0.487 60.613 0.871 -29.136 0.871 -29.136 0.487 60.613
26206.333 0.487 60.588 0.871 -29.161 0.871 -29.161 0.487 60.588
26231.292 0.488 60.563 0.871 -29.186 0.871 -29.186 0.488 60.563
26256.25 0.488 60.539 0.871 -29.211 0.871 -29.211 0.488 60.539
26281.208 0.488 60.514 0.87 -29.236 0.87 -29.236 0.488 60.514
26306.167 0.489 60.489 0.87 -29.261 0.87 -29.261 0.489 60.489
26331.125 0.489 60.465 0.87 -29.285 0.87 -29.285 0.489 60.465
26356.083 0.49 60.44 0.87 -29.31 0.87 -29.31 0.49 60.44
26381.042 0.49 60.416 0.87 -29.335 0.87 -29.335 0.49 60.416
26406 0.49 60.391 0.869 -29.36 0.869 -29.36 0.49 60.391
26430.958 0.491 60.367 0.869 -29.385 0.869 -29.385 0.491 60.367
26455.917 0.491 60.342 0.869 -29.409 0.869 -29.409 0.491 60.342
26480.875 0.491 60.318 0.869 -29.434 0.869 -29.434 0.491 60.318
26505.833 0.492 60.293 0.869 -29.459 0.869 -29.459 0.492 60.293
26530.792 0.492 60.269 0.868 -29.484 0.868 -29.484 0.492 60.269
26555.75 0.493 60.244 0.868 -29.508 0.868 -29.508 0.493 60.244
26580.708 0.493 60.22 0.868 -29.533 0.868 -29.533 0.493 60.22
26605.667 0.493 60.195 0.868 -29.558 0.868 -29.558 0.493 60.195
26630.625 0.494 60.171 0.868 -29.582 0.868 -29.582 0.494 60.171
26655.583 0.494 60.146 0.867 -29.607 0.867 -29.607 0.494 60.146
26680.542 0.494 60.122 0.867 -29.632 0.867 -29.632 0.494 60.122
26705.5 0.495 60.098 0.867 -29.656 0.867 -29.656 0.495 60.098
26730.458 0.495 60.073 0.867 -29.681 0.867 -29.681 0.495 60.073
26755.417 0.496 60.049 0.866 -29.706 0.866 -29.706 0.496 60.049
26780.375 0.496 60.025 0.866 -29.73 0.866 -29.73 0.496 60.025
26805.333 0.496 60 0.866 -29.755 0.866 -29.755 0.496 60
26830.292 0.497 59.976 0.866 -29.779 0.866 -29.779 0.497 59.976
26855.25 0.497 59.952 0.866 -29.804 0.866 -29.804 0.497 59.952
26880.208 0.497 59.927 0.865 -29.828 0.865 -29.828 0.497 59.927
26905.167 0.498 59.903 0.865 -29.853 0.865 -29.853 0.498 59.903
26930.125 0.498 59.879 0.865 -29.877 0.865 -29.877 0.498 59.879
26955.083 0.499 59.855 0.865 -29.902 0.865 -29.902 0.499 59.855
26980.042 0.499 59.83 0.865 -29.926 0.865 -29.926 0.499 59.83
27005 0.499 59.806 0.864 -29.951 0.864 -29.951 0.499 59.806
27029.958 0.5 59.782 0.864 -29.975 0.864 -29.975 0.5 59.782
27054.917 0.5 59.758 0.864 -30 0.864 -30 0.5 59.758
27079.875 0.5 59.733 0.864 -30.024 0.864 -30.024 0.5 59.733
27104.833 0.501 59.709 0.863 -30.049 0.863 -30.049 0.501 59.709
27129.792 0.501 59.685 0.863 -30.073 0.863 -30.073 0.501 59.685
27154.75 0.501 59.661 0.863 -30.097 0.863 -30.097 0.501 59.661
27179.708 0.502 59.637 0.863 -30.122 0.863 -30.122 0.502 59.637
27204.667 0.502 59.613 0.863 -30.146 0.863 -30.146 0.502 59.613
27229.625 0.503 59.589 0.862 -30.171 0.862 -30.171 0.503 59.589
27254.583 0.503 59.564 0.862 -30.195 0.862 -30.195 0.503 59.564
27279.542 0.503 59.54 0.862 -30.219 0.862 -30.219 0.503 59.54
27304.5 0.504 59.516 0.862 -30.243 0.862 -30.243 0.504 59.516
27329.458 0.504 59.492 0.862 -30.268 0.862 -30.268 0.504 59.492
27354.417 0.504 59.468 0.861 -30.292 0.861 -30.292 0.504 59.468
27379.375 0.505 59.444 0.861 -30.316 0.861 -30.316 0.505 59.444
27404.333 0.505 59.42 0.861 -30.341 0.861 -30.341 0.505 59.42
27429.292 0.506 59.396 0.861 -30.365 0.861 -30.365 0.506 59.396
27454.25 0.506 59.372 0.861 -30.389 0.861 -30.389 0.506 59.372
27479.208 0.506 59.348 0.86 -30.413 0.86 -30.413 0.506 59.348
27504.167 0.507 59.324 0.86 -30.437 0.86 -30.437 0.507 59.324
27529.125 0.507 59.3 0.86 -30.462 0.86 -30.462 0.507 59.3
27554.083 0.507 59.276 0.86 -30.486 0.86 -30.486 0.507 59.276
27579.042 0.508 59.252 0.859 -30.51 0.859 -30.51 0.508 59.252
27604 0.508 59.228 0.859 -30.534 0.859 -30.534 0.508 59.228
27628.958 0.508 59.204 0.859 -30.558 0.859 -30.558 0.508 59.204
27653.917 0.509 59.181 0.859 -30.582 0.859 -30.582 0.509 59.181
27678.875 0.509 59.157 0.859 -30.607 0.859 -30.607 0.509 59.157
27703.833 0.51 59.133 0.858 -30.631 0.858 -30.631 0.51 59.133
27728.792 0.51 59.109 0.858 -30.655 0.858 -30.655 0.51 59.109
27753.75 0.51 59.085 0.858 -30.679 0.858 -30.679 0.51 59.085
27778.708 0.511 59.061 0.858 -30.703 0.858 -30.703 0.511 59.061
27803.667 0.511 59.037 0.858 -30.727 0.858 -30.727 0.511 59.037
27828.625 0.511 59.014 0.857 -30.751 0.857 -30.751 0.511 59.014
27853.583 0.512 58.99 0.857 -30.775 0.857 -30.775 0.512 58.99
27878.542 0.512 58.966 0.857 -30.799 0.857 -30.799 0.512 58.966
27903.5 0.512 58.942 0.857 -30.823 0.857 -30.823 0.512 58.942
27928.458 0.513 58.919 0.856 -30.847 0.856 -30.847 0.513 58.919
27953.417 0.513 58.895 0.856 -30.871 0.856 -30.871 0.513 58.895
27978.375 0.513 58.871 0.856 -30.895 0.856 -30.895 0.513 58.871
28003.333 0.514 58.847 0.856 -30.919 0.856 -30.919 0.514 58.847
28028.292 0.514 58.824 0.856 -30.943 0.856 -30.943 0.514 58.824
28053.25 0.515 58.8 0.855 -30.967 0.855 -30.967 0.515 58.8
28078.208 0.515 58.776 0.855 -30.99 0.855 -30.99 0.515 58.776
28103.167 0.515 58.753 0.855 -31.014 0.855 -31.014 0.515 58.753
28128.125 0.516 58.729 0.855 -31.038 0.855 -31.038 0.516 58.729
28153.083 0.516 58.705 0.855 -31.062 0.855 -31.062 0.516 58.705
28178.042 0.516 58.682 0.854 -31.086 0.854 -31.086 0.516 58.682
28203 0.517 58.658 0.854 -31.11 0.854 -31.11 0.517 58.658
28227.958 0.517 58.635 0.854 -31.134 0.854 -31.134 0.517 58.635
28252.917 0.517 58.611 0.854 -31.157 0.854 -31.157 0.517 58.611
28277.875 0.518 58.587 0.853 -31.181 0.853 -31.181 0.518 58.587
28302.833 0.518 58.564 0.853 -31.205 0.853 -31.205 0.518 58.564
28327.792 0.518 58.54 0.853 -31.229 0.853 -31.229 0.518 58.54
28352.75 0.519 58.517 0.853 -31.252 0.853 -31.252 0.519 58.517
28377.708 0.519 58.493 0.853 -31.276 0.853 -31.276 0.519 58.493
28402.667 0.52 58.47 0.852 -31.3 0.852 -31.3 0.52 58.47
28427.625 0.52 58.446 0.852 -31.324 0.852 -31.324 0.52 58.446
28452.583 0.52 58.423 0.852 -31.347 0.852 -31.347 0.52 58.423
28477.542 0.521 58.399 0.852 -31.371 0.852 -31.371 0.521 58.399
28502.5 0.521 58.376 0.852 -31.395 0.852 -31.395 0.521 58.376
28527.458 0.521 58.352 0.851 -31.418 0.851 -31.418 0.521 58.352
28552.417 0.522 58.329 0.851 -31.442 0.851 -31.442 0.522 58.329
28577.375 0.522 58.305 0.851 -31.466 0.851 -31.466 0.522 58.305
28602.333 0.522 58.282 0.851 -31.489 0.851 -31.489 0.522 58.282
28627.292 0.523 58.259 0.85 -31.513 0.85 -31.513 0.523 58.259
28652.25 0.523 58.235 0.85 -31.536 0.85 -31.536 0.523 58.235
28677.208 0.523 58.212 0.85 -31.56 0.85 -31.56 0.523 58.212
28702.167 0.524 58.189 0.85 -31.584 0.85 -31.584 0.524 58.189
28727.125 0.524 58.165 0.85 -31.607 0.85 -31.607 0.524 58.165
28752.083 0.524 58.142 0.849 -31.631 0.849 -31.631 0.524 58.142
28777.042 0.525 58.119 0.849 -31.654 0.849 -31.654 0.525 58.119
28802 0.525 58.095 0.849 -31.678 0.849 -31.678 0.525 58.095
28826.958 0.525 58.072 0.849 -31.701 0.849 -31.701 0.525 58.072
28851.917 0.526 58.049 0.849 -31.725 0.849 -31.725 0.526 58.049
28876.875 0.526 58.025 0.848 -31.748 0.848 -31.748 0.526 58.025
28901.833 0.527 58.002 0.848 -31.772 0.848 -31.772 0.527 58.002
28926.792 0.527 57.979 0.848 -31.795 0.848 -31.795 0.527 57.979
28951.75 0.527 57.956 0.848 -31.819 0.848 -31.819 0.527 57.956
28976.708 0.528 57.932 0.847 -31.842 0.847 -31.842 0.528 57.932
29001.667 0.528 57.909 0.847 -31.865 0.847 -31.865 0.528 57.909
29026.625 0.528 57.886 0.847 -31.889 0.847 -31.889 0.528 57.886
29051.583 0.529 57.863 0.847 -31.912 0.847 -31.912 0.529 57.863
29076.542 0.529 57.84 0.847 -31.936 0.847 -31.936 0.529 57.84
29101.5 0.529 57.817 0.846 -31.959 0.846 -31.959 0.529 57.817
29126.458 0.53 57.793 0.846 -31.982 0.846 -31.982 0.53 57.793
29151.417 0.53 57.77 0.846 -32.006 0.846 -32.006 0.53 57.77
29176.375 0.53 57.747 0.846 -32.029 0.846 -32.029 0.53 57.747
29201.333 0.531 57.724 0.845 -32.052 0.845 -32.052 0.531 57.724
29226.292 0.531 57.701 0.845 -32.076 0.845 -32.076 0.531 57.701
29251.25 0.531 57.678 0.845 -32.099 0.845 -32.099 0.531 57.678
29276.208 0.532 57.655 0.845 -32.122 0.845 -32.122 0.532 57.655
29301.167 0.532 57.632 0.845 -32.145 0.845 -32.145 0.532 57.632
29326.125 0.532 57.609 0.844 -32.169 0.844 -32.169 0.532 57.609
29351.083 0.533 57.586 0.844 -32.192 0.844 -32.192 0.533 57.586
29376.042 0.533 57.563 0.844 -32.215 0.844 -32.215 0.533 57.563
29401 0.533 57.54 0.844 -32.238 0.844 -32.238 0.533 57.54
29425.958 0.534 57.517 0.844 -32.261 0.844 -32.261 0.534 57.517
29450.917 0.534 57.494 0.843 -32.285 0.843 -32.285 0.534 57.494
29475.875 0.534 57.471 0.843 -32.308 0.843 -32.308 0.534 57.471
29500.833 0.535 57.448 0.843 -32.331 0.843 -32.331 0.535 57.448
29525.792 0.535 57.425 0.843 -32.354 0.843 -32.354 0.535 57.425
29550.75 0.535 57.402 0.842 -32.377 0.842 -32.377 0.535 57.402
29575.708 0.536 57.379 0.842 -32.4 0.842 -32.4 0.536 57.379
29600.667 0.536 57.356 0.842 -32.423 0.842 -32.423 0.536 57.356
29625.625 0.537 57.333 0.842 -32.447 0.842 -32.447 0.537 57.333
29650.583 0.537 57.31 0.842 -32.47 0.842 -32.47 0.537 57.31
29675.542 0.537 57.287 0.841 -32.493 0.841 -32.493 0.537 57.287
29700.5 0.538 57.265 0.841 -32.516 0.841 -32.516 0.538 57.265
29725.458 0.538 57.242 0.841 -32.539 0.841 -32.539 0.538 57.242
29750.417 0.538 57.219 0.841 -32.562 0.841 -32.562 0.538 57.219
29775.375 0.539 57.196 0.841 -32.585 0.841 -32.585 0.539 57.196
29800.333 0.539 57.173 0.84 -32.608 0.84 -32.608 0.539 57.173
29825.292 0.539 57.15 0.84 -32.631 0.84 -32.631 0.539 57.15
29850.25 0.54 57.128 0.84 -32.654 0.84 -32.654 0.54 57.128
29875.208 0.54 57.105 0.84 -32.677 0.84 -32.677 0.54 57.105
29900.167 0.54 57.082 0.839 -32.7 0.839 -32.7 0.54 57.082
29925.125 0.541 57.059 0.839 -32.723 0.839 -32.723 0.541 57.059
29950.083 0.541 57.037 0.839 -32.746 0.839 -32.746 0.541 57.037
29975.042 0.541 57.014 0.839 -32.768 0.839 -32.768 0.541 57.014
30000 0.542 56.991 0.839 -32.791 0.839 -32.791 0.542 56.991
