!	AVX Thin Film Operation 	Date: April 2014		
!	Description: Accu-P® Series, Thin Film  SMD RF Capacitor
!	Part Number: 02015JA15PBSTR					
!								
# MHZ S MA R 50

50 0.999 -2.069 0.036 87.921 0.036 87.921 0.999 -2.069
74.958 0.999 -3.1 0.054 86.885 0.054 86.885 0.999 -3.1
99.917 0.997 -4.13 0.072 85.851 0.072 85.851 0.997 -4.13
124.875 0.996 -5.157 0.09 84.819 0.09 84.819 0.996 -5.157
149.833 0.994 -6.181 0.108 83.79 0.108 83.79 0.994 -6.181
174.792 0.992 -7.201 0.125 82.765 0.125 82.765 0.992 -7.201
199.75 0.99 -8.217 0.143 81.744 0.143 81.744 0.99 -8.217
224.708 0.987 -9.229 0.16 80.728 0.16 80.728 0.987 -9.229
249.667 0.984 -10.235 0.178 79.717 0.178 79.717 0.984 -10.235
274.625 0.981 -11.235 0.195 78.712 0.195 78.712 0.981 -11.235
299.583 0.977 -12.229 0.212 77.713 0.212 77.713 0.977 -12.229
324.542 0.973 -13.216 0.229 76.721 0.229 76.721 0.973 -13.216
349.5 0.969 -14.196 0.245 75.736 0.245 75.736 0.969 -14.196
374.458 0.965 -15.168 0.262 74.759 0.262 74.759 0.965 -15.168
399.417 0.96 -16.132 0.278 73.79 0.278 73.79 0.96 -16.132
424.375 0.955 -17.087 0.294 72.83 0.294 72.83 0.955 -17.087
449.333 0.95 -18.034 0.31 71.878 0.31 71.878 0.95 -18.034
474.292 0.945 -18.971 0.325 70.936 0.325 70.936 0.945 -18.971
499.25 0.94 -19.899 0.34 70.003 0.34 70.003 0.94 -19.899
524.208 0.934 -20.817 0.355 69.08 0.355 69.08 0.934 -20.817
549.167 0.928 -21.725 0.37 68.167 0.37 68.167 0.928 -21.725
574.125 0.922 -22.623 0.385 67.265 0.385 67.265 0.922 -22.623
599.083 0.916 -23.51 0.399 66.373 0.399 66.373 0.916 -23.51
624.042 0.91 -24.387 0.413 65.491 0.413 65.491 0.91 -24.387
649 0.903 -25.252 0.427 64.621 0.427 64.621 0.903 -25.252
673.958 0.897 -26.107 0.44 63.761 0.44 63.761 0.897 -26.107
698.917 0.89 -26.95 0.453 62.913 0.453 62.913 0.89 -26.95
723.875 0.884 -27.782 0.466 62.076 0.466 62.076 0.884 -27.782
748.833 0.877 -28.603 0.479 61.25 0.479 61.25 0.877 -28.603
773.792 0.87 -29.412 0.491 60.436 0.491 60.436 0.87 -29.412
798.75 0.863 -30.21 0.503 59.633 0.503 59.633 0.863 -30.21
823.708 0.856 -30.997 0.515 58.841 0.515 58.841 0.856 -30.997
848.667 0.849 -31.772 0.527 58.061 0.527 58.061 0.849 -31.772
873.625 0.841 -32.535 0.538 57.293 0.538 57.293 0.841 -32.535
898.583 0.834 -33.288 0.549 56.535 0.549 56.535 0.834 -33.288
923.542 0.827 -34.028 0.56 55.79 0.56 55.79 0.827 -34.028
948.5 0.82 -34.758 0.57 55.055 0.57 55.055 0.82 -34.758
973.458 0.812 -35.476 0.58 54.332 0.58 54.332 0.812 -35.476
998.417 0.805 -36.183 0.59 53.62 0.59 53.62 0.805 -36.183
1023.375 0.798 -36.879 0.6 52.919 0.6 52.919 0.798 -36.879
1048.333 0.79 -37.564 0.61 52.229 0.61 52.229 0.79 -37.564
1073.292 0.783 -38.237 0.619 51.55 0.619 51.55 0.783 -38.237
1098.25 0.776 -38.9 0.628 50.882 0.628 50.882 0.776 -38.9
1123.208 0.769 -39.553 0.637 50.224 0.637 50.224 0.769 -39.553
1148.167 0.761 -40.195 0.645 49.578 0.645 49.578 0.761 -40.195
1173.125 0.754 -40.826 0.654 48.941 0.654 48.941 0.754 -40.826
1198.083 0.747 -41.447 0.662 48.315 0.662 48.315 0.747 -41.447
1223.042 0.74 -42.058 0.67 47.699 0.67 47.699 0.74 -42.058
1248 0.732 -42.659 0.678 47.093 0.678 47.093 0.732 -42.659
1272.958 0.725 -43.249 0.685 46.497 0.685 46.497 0.725 -43.249
1297.917 0.718 -43.831 0.693 45.91 0.693 45.91 0.718 -43.831
1322.875 0.711 -44.402 0.7 45.334 0.7 45.334 0.711 -44.402
1347.833 0.704 -44.964 0.707 44.766 0.707 44.766 0.704 -44.964
1372.792 0.697 -45.517 0.713 44.208 0.713 44.208 0.697 -45.517
1397.75 0.69 -46.061 0.72 43.659 0.72 43.659 0.69 -46.061
1422.708 0.684 -46.595 0.727 43.119 0.727 43.119 0.684 -46.595
1447.667 0.677 -47.121 0.733 42.588 0.733 42.588 0.677 -47.121
1472.625 0.67 -47.638 0.739 42.065 0.739 42.065 0.67 -47.638
1497.583 0.663 -48.147 0.745 41.551 0.745 41.551 0.663 -48.147
1522.542 0.657 -48.647 0.751 41.046 0.751 41.046 0.657 -48.647
1547.5 0.65 -49.139 0.756 40.548 0.756 40.548 0.65 -49.139
1572.458 0.644 -49.623 0.762 40.059 0.762 40.059 0.644 -49.623
1597.417 0.637 -50.099 0.767 39.578 0.767 39.578 0.637 -50.099
1622.375 0.631 -50.567 0.772 39.104 0.772 39.104 0.631 -50.567
1647.333 0.624 -51.028 0.777 38.638 0.777 38.638 0.624 -51.028
1672.292 0.618 -51.481 0.782 38.179 0.782 38.179 0.618 -51.481
1697.25 0.612 -51.927 0.787 37.728 0.787 37.728 0.612 -51.927
1722.208 0.606 -52.365 0.792 37.283 0.792 37.283 0.606 -52.365
1747.167 0.6 -52.797 0.797 36.846 0.797 36.846 0.6 -52.797
1772.125 0.594 -53.222 0.801 36.416 0.801 36.416 0.594 -53.222
1797.083 0.588 -53.639 0.805 35.992 0.805 35.992 0.588 -53.639
1822.042 0.582 -54.051 0.81 35.575 0.81 35.575 0.582 -54.051
1847 0.576 -54.455 0.814 35.165 0.814 35.165 0.576 -54.455
1871.958 0.57 -54.854 0.818 34.761 0.818 34.761 0.57 -54.854
1896.917 0.564 -55.246 0.822 34.363 0.822 34.363 0.564 -55.246
1921.875 0.559 -55.632 0.825 33.971 0.825 33.971 0.559 -55.632
1946.833 0.553 -56.012 0.829 33.585 0.829 33.585 0.553 -56.012
1971.792 0.548 -56.386 0.833 33.205 0.833 33.205 0.548 -56.386
1996.75 0.542 -56.754 0.836 32.831 0.836 32.831 0.542 -56.754
2021.708 0.537 -57.117 0.84 32.462 0.84 32.462 0.537 -57.117
2046.667 0.531 -57.474 0.843 32.099 0.843 32.099 0.531 -57.474
2071.625 0.526 -57.826 0.846 31.742 0.846 31.742 0.526 -57.826
2096.583 0.521 -58.172 0.85 31.389 0.85 31.389 0.521 -58.172
2121.542 0.516 -58.514 0.853 31.042 0.853 31.042 0.516 -58.514
2146.5 0.511 -58.85 0.856 30.7 0.856 30.7 0.511 -58.85
2171.458 0.505 -59.181 0.859 30.362 0.859 30.362 0.505 -59.181
2196.417 0.5 -59.507 0.862 30.03 0.862 30.03 0.5 -59.507
2221.375 0.496 -59.829 0.865 29.702 0.865 29.702 0.496 -59.829
2246.333 0.491 -60.146 0.867 29.379 0.867 29.379 0.491 -60.146
2271.292 0.486 -60.458 0.87 29.061 0.87 29.061 0.486 -60.458
2296.25 0.481 -60.765 0.873 28.747 0.873 28.747 0.481 -60.765
2321.208 0.476 -61.069 0.875 28.437 0.875 28.437 0.476 -61.069
2346.167 0.472 -61.368 0.878 28.132 0.878 28.132 0.472 -61.368
2371.125 0.467 -61.662 0.88 27.831 0.88 27.831 0.467 -61.662
2396.083 0.462 -61.953 0.883 27.534 0.883 27.534 0.462 -61.953
2421.042 0.458 -62.239 0.885 27.241 0.885 27.241 0.458 -62.239
2446 0.453 -62.522 0.887 26.952 0.887 26.952 0.453 -62.522
2470.958 0.449 -62.8 0.889 26.667 0.889 26.667 0.449 -62.8
2495.917 0.444 -63.075 0.892 26.386 0.892 26.386 0.444 -63.075
2520.875 0.44 -63.346 0.894 26.108 0.894 26.108 0.44 -63.346
2545.833 0.436 -63.613 0.896 25.834 0.896 25.834 0.436 -63.613
2570.792 0.432 -63.877 0.898 25.564 0.898 25.564 0.432 -63.877
2595.75 0.427 -64.137 0.9 25.297 0.9 25.297 0.427 -64.137
2620.708 0.423 -64.394 0.902 25.034 0.902 25.034 0.423 -64.394
2645.667 0.419 -64.647 0.904 24.774 0.904 24.774 0.419 -64.647
2670.625 0.415 -64.897 0.906 24.517 0.906 24.517 0.415 -64.897
2695.583 0.411 -65.143 0.907 24.264 0.907 24.264 0.411 -65.143
2720.542 0.407 -65.386 0.909 24.013 0.909 24.013 0.407 -65.386
2745.5 0.403 -65.627 0.911 23.766 0.911 23.766 0.403 -65.627
2770.458 0.399 -65.864 0.913 23.522 0.913 23.522 0.399 -65.864
2795.417 0.395 -66.098 0.914 23.281 0.914 23.281 0.395 -66.098
2820.375 0.391 -66.329 0.916 23.042 0.916 23.042 0.391 -66.329
2845.333 0.388 -66.557 0.918 22.807 0.918 22.807 0.388 -66.557
2870.292 0.384 -66.782 0.919 22.575 0.919 22.575 0.384 -66.782
2895.25 0.38 -67.004 0.921 22.345 0.921 22.345 0.38 -67.004
2920.208 0.377 -67.224 0.922 22.118 0.922 22.118 0.377 -67.224
2945.167 0.373 -67.441 0.924 21.893 0.924 21.893 0.373 -67.441
2970.125 0.369 -67.655 0.925 21.672 0.925 21.672 0.369 -67.655
2995.083 0.366 -67.867 0.926 21.453 0.926 21.453 0.366 -67.867
3020.042 0.362 -68.076 0.928 21.236 0.928 21.236 0.362 -68.076
3045 0.359 -68.282 0.929 21.022 0.929 21.022 0.359 -68.282
3069.958 0.355 -68.486 0.93 20.81 0.93 20.81 0.355 -68.486
3094.917 0.352 -68.688 0.932 20.601 0.932 20.601 0.352 -68.688
3119.875 0.348 -68.887 0.933 20.394 0.933 20.394 0.348 -68.887
3144.833 0.345 -69.084 0.934 20.189 0.934 20.189 0.345 -69.084
3169.792 0.342 -69.278 0.935 19.986 0.935 19.986 0.342 -69.278
3194.75 0.339 -69.471 0.937 19.786 0.937 19.786 0.339 -69.471
3219.708 0.335 -69.66 0.938 19.588 0.938 19.588 0.335 -69.66
3244.667 0.332 -69.848 0.939 19.392 0.939 19.392 0.332 -69.848
3269.625 0.329 -70.034 0.94 19.198 0.94 19.198 0.329 -70.034
3294.583 0.326 -70.217 0.941 19.006 0.941 19.006 0.326 -70.217
3319.542 0.323 -70.399 0.942 18.816 0.942 18.816 0.323 -70.399
3344.5 0.319 -70.578 0.943 18.629 0.943 18.629 0.319 -70.578
3369.458 0.316 -70.755 0.944 18.443 0.944 18.443 0.316 -70.755
3394.417 0.313 -70.931 0.945 18.259 0.945 18.259 0.313 -70.931
3419.375 0.31 -71.104 0.946 18.077 0.946 18.077 0.31 -71.104
3444.333 0.307 -71.275 0.947 17.896 0.947 17.896 0.307 -71.275
3469.292 0.304 -71.445 0.948 17.718 0.948 17.718 0.304 -71.445
3494.25 0.301 -71.612 0.949 17.541 0.949 17.541 0.301 -71.612
3519.208 0.299 -71.778 0.95 17.366 0.95 17.366 0.299 -71.778
3544.167 0.296 -71.942 0.951 17.193 0.951 17.193 0.296 -71.942
3569.125 0.293 -72.104 0.952 17.022 0.952 17.022 0.293 -72.104
3594.083 0.29 -72.265 0.953 16.852 0.953 16.852 0.29 -72.265
3619.042 0.287 -72.424 0.953 16.684 0.953 16.684 0.287 -72.424
3644 0.284 -72.581 0.954 16.517 0.954 16.517 0.284 -72.581
3668.958 0.282 -72.736 0.955 16.352 0.955 16.352 0.282 -72.736
3693.917 0.279 -72.89 0.956 16.189 0.956 16.189 0.279 -72.89
3718.875 0.276 -73.042 0.957 16.027 0.957 16.027 0.276 -73.042
3743.833 0.273 -73.192 0.957 15.867 0.957 15.867 0.273 -73.192
3768.792 0.271 -73.341 0.958 15.708 0.958 15.708 0.271 -73.341
3793.75 0.268 -73.488 0.959 15.551 0.959 15.551 0.268 -73.488
3818.708 0.266 -73.634 0.96 15.395 0.96 15.395 0.266 -73.634
3843.667 0.263 -73.778 0.96 15.24 0.96 15.24 0.263 -73.778
3868.625 0.26 -73.921 0.961 15.087 0.961 15.087 0.26 -73.921
3893.583 0.258 -74.062 0.962 14.935 0.962 14.935 0.258 -74.062
3918.542 0.255 -74.202 0.962 14.784 0.962 14.784 0.255 -74.202
3943.5 0.253 -74.341 0.963 14.635 0.963 14.635 0.253 -74.341
3968.458 0.25 -74.477 0.964 14.487 0.964 14.487 0.25 -74.477
3993.417 0.248 -74.613 0.964 14.341 0.964 14.341 0.248 -74.613
4018.375 0.245 -74.747 0.965 14.196 0.965 14.196 0.245 -74.747
4043.333 0.243 -74.88 0.966 14.051 0.966 14.051 0.243 -74.88
4068.292 0.24 -75.011 0.966 13.909 0.966 13.909 0.24 -75.011
4093.25 0.238 -75.142 0.967 13.767 0.967 13.767 0.238 -75.142
4118.208 0.236 -75.27 0.967 13.626 0.967 13.626 0.236 -75.27
4143.167 0.233 -75.398 0.968 13.487 0.968 13.487 0.233 -75.398
4168.125 0.231 -75.524 0.968 13.349 0.968 13.349 0.231 -75.524
4193.083 0.229 -75.649 0.969 13.212 0.969 13.212 0.229 -75.649
4218.042 0.226 -75.773 0.97 13.076 0.97 13.076 0.226 -75.773
4243 0.224 -75.895 0.97 12.941 0.97 12.941 0.224 -75.895
4267.958 0.222 -76.016 0.971 12.807 0.971 12.807 0.222 -76.016
4292.917 0.219 -76.136 0.971 12.675 0.971 12.675 0.219 -76.136
4317.875 0.217 -76.255 0.972 12.543 0.972 12.543 0.217 -76.255
4342.833 0.215 -76.372 0.972 12.412 0.972 12.412 0.215 -76.372
4367.792 0.213 -76.489 0.973 12.283 0.973 12.283 0.213 -76.489
4392.75 0.211 -76.604 0.973 12.154 0.973 12.154 0.211 -76.604
4417.708 0.208 -76.718 0.973 12.027 0.973 12.027 0.208 -76.718
4442.667 0.206 -76.831 0.974 11.9 0.974 11.9 0.206 -76.831
4467.625 0.204 -76.943 0.974 11.774 0.974 11.774 0.204 -76.943
4492.583 0.202 -77.053 0.975 11.649 0.975 11.649 0.202 -77.053
4517.542 0.2 -77.163 0.975 11.526 0.975 11.526 0.2 -77.163
4542.5 0.198 -77.271 0.976 11.403 0.976 11.403 0.198 -77.271
4567.458 0.196 -77.379 0.976 11.281 0.976 11.281 0.196 -77.379
4592.417 0.194 -77.485 0.977 11.16 0.977 11.16 0.194 -77.485
4617.375 0.192 -77.59 0.977 11.039 0.977 11.039 0.192 -77.59
4642.333 0.189 -77.694 0.977 10.92 0.977 10.92 0.189 -77.694
4667.292 0.187 -77.797 0.978 10.801 0.978 10.801 0.187 -77.797
4692.25 0.185 -77.899 0.978 10.684 0.978 10.684 0.185 -77.899
4717.208 0.183 -78 0.978 10.567 0.978 10.567 0.183 -78
4742.167 0.181 -78.099 0.979 10.451 0.979 10.451 0.181 -78.099
4767.125 0.179 -78.198 0.979 10.336 0.979 10.336 0.179 -78.198
4792.083 0.178 -78.296 0.98 10.221 0.98 10.221 0.178 -78.296
4817.042 0.176 -78.392 0.98 10.108 0.98 10.108 0.176 -78.392
4842 0.174 -78.488 0.98 9.995 0.98 9.995 0.174 -78.488
4866.958 0.172 -78.582 0.981 9.883 0.981 9.883 0.172 -78.582
4891.917 0.17 -78.676 0.981 9.771 0.981 9.771 0.17 -78.676
4916.875 0.168 -78.768 0.981 9.661 0.981 9.661 0.168 -78.768
4941.833 0.166 -78.86 0.982 9.551 0.982 9.551 0.166 -78.86
4966.792 0.164 -78.95 0.982 9.441 0.982 9.441 0.164 -78.95
4991.75 0.162 -79.04 0.982 9.333 0.982 9.333 0.162 -79.04
5016.708 0.16 -79.128 0.982 9.225 0.982 9.225 0.16 -79.128
5041.667 0.159 -79.216 0.983 9.118 0.983 9.118 0.159 -79.216
5066.625 0.157 -79.302 0.983 9.012 0.983 9.012 0.157 -79.302
5091.583 0.155 -79.387 0.983 8.906 0.983 8.906 0.155 -79.387
5116.542 0.153 -79.472 0.984 8.801 0.984 8.801 0.153 -79.472
5141.5 0.151 -79.555 0.984 8.697 0.984 8.697 0.151 -79.555
5166.458 0.149 -79.637 0.984 8.593 0.984 8.593 0.149 -79.637
5191.417 0.148 -79.719 0.984 8.49 0.984 8.49 0.148 -79.719
5216.375 0.146 -79.799 0.985 8.387 0.985 8.387 0.146 -79.799
5241.333 0.144 -79.878 0.985 8.286 0.985 8.286 0.144 -79.878
5266.292 0.142 -79.956 0.985 8.184 0.985 8.184 0.142 -79.956
5291.25 0.141 -80.034 0.985 8.084 0.985 8.084 0.141 -80.034
5316.208 0.139 -80.11 0.986 7.984 0.986 7.984 0.139 -80.11
5341.167 0.137 -80.185 0.986 7.884 0.986 7.884 0.137 -80.185
5366.125 0.136 -80.259 0.986 7.785 0.986 7.785 0.136 -80.259
5391.083 0.134 -80.332 0.986 7.687 0.986 7.687 0.134 -80.332
5416.042 0.132 -80.404 0.987 7.59 0.987 7.59 0.132 -80.404
5441 0.13 -80.475 0.987 7.492 0.987 7.492 0.13 -80.475
5465.958 0.129 -80.544 0.987 7.396 0.987 7.396 0.129 -80.544
5490.917 0.127 -80.613 0.987 7.3 0.987 7.3 0.127 -80.613
5515.875 0.125 -80.68 0.987 7.204 0.987 7.204 0.125 -80.68
5540.833 0.124 -80.747 0.988 7.109 0.988 7.109 0.124 -80.747
5565.792 0.122 -80.812 0.988 7.015 0.988 7.015 0.122 -80.812
5590.75 0.121 -80.876 0.988 6.921 0.988 6.921 0.121 -80.876
5615.708 0.119 -80.939 0.988 6.828 0.988 6.828 0.119 -80.939
5640.667 0.117 -81.001 0.988 6.735 0.988 6.735 0.117 -81.001
5665.625 0.116 -81.062 0.989 6.643 0.989 6.643 0.116 -81.062
5690.583 0.114 -81.121 0.989 6.551 0.989 6.551 0.114 -81.121
5715.542 0.113 -81.179 0.989 6.459 0.989 6.459 0.113 -81.179
5740.5 0.111 -81.236 0.989 6.369 0.989 6.369 0.111 -81.236
5765.458 0.109 -81.292 0.989 6.278 0.989 6.278 0.109 -81.292
5790.417 0.108 -81.346 0.99 6.188 0.99 6.188 0.108 -81.346
5815.375 0.106 -81.399 0.99 6.099 0.99 6.099 0.106 -81.399
5840.333 0.105 -81.451 0.99 6.01 0.99 6.01 0.105 -81.451
5865.292 0.103 -81.501 0.99 5.921 0.99 5.921 0.103 -81.501
5890.25 0.102 -81.55 0.99 5.833 0.99 5.833 0.102 -81.55
5915.208 0.1 -81.598 0.99 5.746 0.99 5.746 0.1 -81.598
5940.167 0.099 -81.644 0.99 5.659 0.99 5.659 0.099 -81.644
5965.125 0.097 -81.688 0.991 5.572 0.991 5.572 0.097 -81.688
5990.083 0.096 -81.731 0.991 5.486 0.991 5.486 0.096 -81.731
6015.042 0.094 -81.773 0.991 5.4 0.991 5.4 0.094 -81.773
6040 0.093 -81.813 0.991 5.314 0.991 5.314 0.093 -81.813
6064.958 0.091 -81.851 0.991 5.229 0.991 5.229 0.091 -81.851
6089.917 0.09 -81.887 0.991 5.145 0.991 5.145 0.09 -81.887
6114.875 0.088 -81.922 0.991 5.06 0.991 5.06 0.088 -81.922
6139.833 0.087 -81.955 0.992 4.977 0.992 4.977 0.087 -81.955
6164.792 0.085 -81.985 0.992 4.893 0.992 4.893 0.085 -81.985
6189.75 0.084 -82.014 0.992 4.81 0.992 4.81 0.084 -82.014
6214.708 0.083 -82.041 0.992 4.728 0.992 4.728 0.083 -82.041
6239.667 0.081 -82.066 0.992 4.645 0.992 4.645 0.081 -82.066
6264.625 0.08 -82.089 0.992 4.564 0.992 4.564 0.08 -82.089
6289.583 0.078 -82.11 0.992 4.482 0.992 4.482 0.078 -82.11
6314.542 0.077 -82.128 0.992 4.401 0.992 4.401 0.077 -82.128
6339.5 0.075 -82.144 0.993 4.32 0.993 4.32 0.075 -82.144
6364.458 0.074 -82.157 0.993 4.24 0.993 4.24 0.074 -82.157
6389.417 0.073 -82.167 0.993 4.16 0.993 4.16 0.073 -82.167
6414.375 0.071 -82.175 0.993 4.08 0.993 4.08 0.071 -82.175
6439.333 0.07 -82.18 0.993 4.001 0.993 4.001 0.07 -82.18
6464.292 0.069 -82.183 0.993 3.922 0.993 3.922 0.069 -82.183
6489.25 0.067 -82.181 0.993 3.844 0.993 3.844 0.067 -82.181
6514.208 0.066 -82.177 0.993 3.765 0.993 3.765 0.066 -82.177
6539.167 0.064 -82.169 0.993 3.688 0.993 3.688 0.064 -82.169
6564.125 0.063 -82.158 0.993 3.61 0.993 3.61 0.063 -82.158
6589.083 0.062 -82.143 0.993 3.533 0.993 3.533 0.062 -82.143
6614.042 0.06 -82.124 0.994 3.456 0.994 3.456 0.06 -82.124
6639 0.059 -82.1 0.994 3.379 0.994 3.379 0.059 -82.1
6663.958 0.058 -82.072 0.994 3.303 0.994 3.303 0.058 -82.072
6688.917 0.056 -82.04 0.994 3.227 0.994 3.227 0.056 -82.04
6713.875 0.055 -82.002 0.994 3.152 0.994 3.152 0.055 -82.002
6738.833 0.054 -81.959 0.994 3.076 0.994 3.076 0.054 -81.959
6763.792 0.053 -81.91 0.994 3.001 0.994 3.001 0.053 -81.91
6788.75 0.051 -81.856 0.994 2.927 0.994 2.927 0.051 -81.856
6813.708 0.05 -81.795 0.994 2.852 0.994 2.852 0.05 -81.795
6838.667 0.049 -81.727 0.994 2.778 0.994 2.778 0.049 -81.727
6863.625 0.047 -81.651 0.994 2.704 0.994 2.704 0.047 -81.651
6888.583 0.046 -81.568 0.994 2.631 0.994 2.631 0.046 -81.568
6913.542 0.045 -81.476 0.994 2.558 0.994 2.558 0.045 -81.476
6938.5 0.044 -81.375 0.994 2.485 0.994 2.485 0.044 -81.375
6963.458 0.042 -81.264 0.994 2.412 0.994 2.412 0.042 -81.264
6988.417 0.041 -81.142 0.995 2.34 0.995 2.34 0.041 -81.142
7013.375 0.04 -81.009 0.995 2.268 0.995 2.268 0.04 -81.009
7038.333 0.039 -80.863 0.995 2.196 0.995 2.196 0.039 -80.863
7063.292 0.037 -80.703 0.995 2.125 0.995 2.125 0.037 -80.703
7088.25 0.036 -80.528 0.995 2.053 0.995 2.053 0.036 -80.528
7113.208 0.035 -80.336 0.995 1.982 0.995 1.982 0.035 -80.336
7138.167 0.034 -80.126 0.995 1.912 0.995 1.912 0.034 -80.126
7163.125 0.032 -79.896 0.995 1.841 0.995 1.841 0.032 -79.896
7188.083 0.031 -79.644 0.995 1.771 0.995 1.771 0.031 -79.644
7213.042 0.03 -79.366 0.995 1.701 0.995 1.701 0.03 -79.366
7238 0.029 -79.061 0.995 1.632 0.995 1.632 0.029 -79.061
7262.958 0.028 -78.724 0.995 1.562 0.995 1.562 0.028 -78.724
7287.917 0.026 -78.353 0.995 1.493 0.995 1.493 0.026 -78.353
7312.875 0.025 -77.941 0.995 1.424 0.995 1.424 0.025 -77.941
7337.833 0.024 -77.484 0.995 1.356 0.995 1.356 0.024 -77.484
7362.792 0.023 -76.976 0.995 1.287 0.995 1.287 0.023 -76.976
7387.75 0.022 -76.407 0.995 1.219 0.995 1.219 0.022 -76.407
7412.708 0.021 -75.769 0.995 1.151 0.995 1.151 0.021 -75.769
7437.667 0.019 -75.051 0.995 1.083 0.995 1.083 0.019 -75.051
7462.625 0.018 -74.236 0.995 1.016 0.995 1.016 0.018 -74.236
7487.583 0.017 -73.309 0.995 0.949 0.995 0.949 0.017 -73.309
7512.542 0.016 -72.246 0.995 0.882 0.995 0.882 0.016 -72.246
7537.5 0.015 -71.019 0.995 0.815 0.995 0.815 0.015 -71.019
7562.458 0.014 -69.59 0.995 0.749 0.995 0.749 0.014 -69.59
7587.417 0.013 -67.912 0.995 0.682 0.995 0.682 0.013 -67.912
7612.375 0.012 -65.921 0.995 0.616 0.995 0.616 0.012 -65.921
7637.333 0.011 -63.531 0.995 0.55 0.995 0.55 0.011 -63.531
7662.292 9.663e-3 -60.627 0.995 0.485 0.995 0.485 9.663e-3 -60.627
7687.25 8.681e-3 -57.049 0.995 0.419 0.995 0.419 8.681e-3 -57.049
7712.208 7.746e-3 -52.583 0.995 0.354 0.995 0.354 7.746e-3 -52.583
7737.167 6.875e-3 -46.942 0.995 0.289 0.995 0.289 6.875e-3 -46.942
7762.125 6.094e-3 -39.77 0.995 0.224 0.995 0.224 6.094e-3 -39.77
7787.083 5.438e-3 -30.701 0.995 0.16 0.995 0.16 5.438e-3 -30.701
7812.042 4.957e-3 -19.55 0.995 0.095 0.995 0.095 4.957e-3 -19.55
7837 4.7e-3 -6.651 0.995 0.031 0.995 0.031 4.7e-3 -6.651
7861.958 4.703e-3 6.917 0.995 -0.033 0.995 -0.033 4.703e-3 6.917
7886.917 4.962e-3 19.712 0.995 -0.096 0.995 -0.096 4.962e-3 19.712
7911.875 5.439e-3 30.708 0.995 -0.16 0.995 -0.16 5.439e-3 30.708
7936.833 6.081e-3 39.623 0.995 -0.223 0.995 -0.223 6.081e-3 39.623
7961.792 6.839e-3 46.667 0.995 -0.286 0.995 -0.286 6.839e-3 46.667
7986.75 7.679e-3 52.209 0.995 -0.349 0.995 -0.349 7.679e-3 52.209
8011.708 8.574e-3 56.6 0.995 -0.412 0.995 -0.412 8.574e-3 56.6
8036.667 9.509e-3 60.122 0.995 -0.475 0.995 -0.475 9.509e-3 60.122
8061.625 0.01 62.986 0.995 -0.537 0.995 -0.537 0.01 62.986
8086.583 0.011 65.345 0.995 -0.599 0.995 -0.599 0.011 65.345
8111.542 0.012 67.314 0.995 -0.661 0.995 -0.661 0.012 67.314
8136.5 0.013 68.975 0.995 -0.723 0.995 -0.723 0.013 68.975
8161.458 0.014 70.392 0.995 -0.785 0.995 -0.785 0.014 70.392
8186.417 0.015 71.611 0.995 -0.846 0.995 -0.846 0.015 71.611
8211.375 0.017 72.668 0.995 -0.907 0.995 -0.907 0.017 72.668
8236.333 0.018 73.592 0.995 -0.968 0.995 -0.968 0.018 73.592
8261.292 0.019 74.405 0.995 -1.029 0.995 -1.029 0.019 74.405
8286.25 0.02 75.124 0.995 -1.09 0.995 -1.09 0.02 75.124
8311.208 0.021 75.764 0.995 -1.151 0.995 -1.151 0.021 75.764
8336.167 0.022 76.335 0.995 -1.211 0.995 -1.211 0.022 76.335
8361.125 0.023 76.848 0.995 -1.271 0.995 -1.271 0.023 76.848
8386.083 0.024 77.309 0.995 -1.331 0.995 -1.331 0.024 77.309
8411.042 0.025 77.727 0.995 -1.391 0.995 -1.391 0.025 77.727
8436 0.026 78.105 0.995 -1.451 0.995 -1.451 0.026 78.105
8460.958 0.027 78.449 0.995 -1.51 0.995 -1.51 0.027 78.449
8485.917 0.028 78.762 0.995 -1.57 0.995 -1.57 0.028 78.762
8510.875 0.029 79.048 0.995 -1.629 0.995 -1.629 0.029 79.048
8535.833 0.03 79.31 0.995 -1.688 0.995 -1.688 0.03 79.31
8560.792 0.031 79.55 0.995 -1.747 0.995 -1.747 0.031 79.55
8585.75 0.032 79.77 0.995 -1.805 0.995 -1.805 0.032 79.77
8610.708 0.033 79.973 0.995 -1.864 0.995 -1.864 0.033 79.973
8635.667 0.034 80.159 0.995 -1.922 0.995 -1.922 0.034 80.159
8660.625 0.035 80.331 0.995 -1.981 0.995 -1.981 0.035 80.331
8685.583 0.036 80.49 0.995 -2.039 0.995 -2.039 0.036 80.49
8710.542 0.037 80.636 0.995 -2.097 0.995 -2.097 0.037 80.636
8735.5 0.038 80.772 0.995 -2.154 0.995 -2.154 0.038 80.772
8760.458 0.039 80.897 0.995 -2.212 0.995 -2.212 0.039 80.897
8785.417 0.04 81.012 0.995 -2.27 0.995 -2.27 0.04 81.012
8810.375 0.041 81.119 0.995 -2.327 0.995 -2.327 0.041 81.119
8835.333 0.042 81.218 0.994 -2.384 0.994 -2.384 0.042 81.218
8860.292 0.043 81.309 0.994 -2.441 0.994 -2.441 0.043 81.309
8885.25 0.044 81.394 0.994 -2.498 0.994 -2.498 0.044 81.394
8910.208 0.045 81.472 0.994 -2.555 0.994 -2.555 0.045 81.472
8935.167 0.046 81.544 0.994 -2.611 0.994 -2.611 0.046 81.544
8960.125 0.047 81.611 0.994 -2.668 0.994 -2.668 0.047 81.611
8985.083 0.048 81.672 0.994 -2.724 0.994 -2.724 0.048 81.672
9010.042 0.049 81.729 0.994 -2.78 0.994 -2.78 0.049 81.729
9035 0.05 81.781 0.994 -2.836 0.994 -2.836 0.05 81.781
9059.958 0.051 81.828 0.994 -2.892 0.994 -2.892 0.051 81.828
9084.917 0.052 81.872 0.994 -2.948 0.994 -2.948 0.052 81.872
9109.875 0.053 81.912 0.994 -3.004 0.994 -3.004 0.053 81.912
9134.833 0.054 81.948 0.994 -3.059 0.994 -3.059 0.054 81.948
9159.792 0.055 81.982 0.994 -3.114 0.994 -3.114 0.055 81.982
9184.75 0.055 82.012 0.994 -3.17 0.994 -3.17 0.055 82.012
9209.708 0.056 82.039 0.994 -3.225 0.994 -3.225 0.056 82.039
9234.667 0.057 82.063 0.994 -3.28 0.994 -3.28 0.057 82.063
9259.625 0.058 82.084 0.994 -3.335 0.994 -3.335 0.058 82.084
9284.583 0.059 82.104 0.994 -3.389 0.994 -3.389 0.059 82.104
9309.542 0.06 82.12 0.994 -3.444 0.994 -3.444 0.06 82.12
9334.5 0.061 82.135 0.993 -3.498 0.993 -3.498 0.061 82.135
9359.458 0.062 82.147 0.993 -3.553 0.993 -3.553 0.062 82.147
9384.417 0.063 82.157 0.993 -3.607 0.993 -3.607 0.063 82.157
9409.375 0.064 82.166 0.993 -3.661 0.993 -3.661 0.064 82.166
9434.333 0.065 82.172 0.993 -3.715 0.993 -3.715 0.065 82.172
9459.292 0.066 82.177 0.993 -3.769 0.993 -3.769 0.066 82.177
9484.25 0.067 82.181 0.993 -3.822 0.993 -3.822 0.067 82.181
9509.208 0.068 82.182 0.993 -3.876 0.993 -3.876 0.068 82.182
9534.167 0.069 82.182 0.993 -3.929 0.993 -3.929 0.069 82.182
9559.125 0.07 82.181 0.993 -3.983 0.993 -3.983 0.07 82.181
9584.083 0.071 82.179 0.993 -4.036 0.993 -4.036 0.071 82.179
9609.042 0.071 82.175 0.993 -4.089 0.993 -4.089 0.071 82.175
9634 0.072 82.169 0.993 -4.142 0.993 -4.142 0.072 82.169
9658.958 0.073 82.163 0.993 -4.195 0.993 -4.195 0.073 82.163
9683.917 0.074 82.156 0.993 -4.248 0.993 -4.248 0.074 82.156
9708.875 0.075 82.147 0.993 -4.3 0.993 -4.3 0.075 82.147
9733.833 0.076 82.138 0.992 -4.353 0.992 -4.353 0.076 82.138
9758.792 0.077 82.127 0.992 -4.405 0.992 -4.405 0.077 82.127
9783.75 0.078 82.115 0.992 -4.457 0.992 -4.457 0.078 82.115
9808.708 0.079 82.103 0.992 -4.51 0.992 -4.51 0.079 82.103
9833.667 0.08 82.09 0.992 -4.562 0.992 -4.562 0.08 82.09
9858.625 0.081 82.075 0.992 -4.614 0.992 -4.614 0.081 82.075
9883.583 0.081 82.06 0.992 -4.665 0.992 -4.665 0.081 82.06
9908.542 0.082 82.045 0.992 -4.717 0.992 -4.717 0.082 82.045
9933.5 0.083 82.028 0.992 -4.769 0.992 -4.769 0.083 82.028
9958.458 0.084 82.011 0.992 -4.82 0.992 -4.82 0.084 82.011
9983.417 0.085 81.993 0.992 -4.872 0.992 -4.872 0.085 81.993
10008.375 0.086 81.975 0.992 -4.923 0.992 -4.923 0.086 81.975
10033.333 0.087 81.955 0.992 -4.974 0.992 -4.974 0.087 81.955
10058.292 0.088 81.936 0.992 -5.025 0.992 -5.025 0.088 81.936
10083.25 0.089 81.915 0.991 -5.076 0.991 -5.076 0.089 81.915
10108.208 0.089 81.894 0.991 -5.127 0.991 -5.127 0.089 81.894
10133.167 0.09 81.873 0.991 -5.178 0.991 -5.178 0.09 81.873
10158.125 0.091 81.851 0.991 -5.229 0.991 -5.229 0.091 81.851
10183.083 0.092 81.828 0.991 -5.279 0.991 -5.279 0.092 81.828
10208.042 0.093 81.805 0.991 -5.33 0.991 -5.33 0.093 81.805
10233 0.094 81.782 0.991 -5.38 0.991 -5.38 0.094 81.782
10257.958 0.095 81.758 0.991 -5.43 0.991 -5.43 0.095 81.758
10282.917 0.096 81.734 0.991 -5.481 0.991 -5.481 0.096 81.734
10307.875 0.096 81.709 0.991 -5.531 0.991 -5.531 0.096 81.709
10332.833 0.097 81.684 0.991 -5.581 0.991 -5.581 0.097 81.684
10357.792 0.098 81.658 0.991 -5.631 0.991 -5.631 0.098 81.658
10382.75 0.099 81.632 0.99 -5.68 0.99 -5.68 0.099 81.632
10407.708 0.1 81.606 0.99 -5.73 0.99 -5.73 0.1 81.606
10432.667 0.101 81.58 0.99 -5.78 0.99 -5.78 0.101 81.58
10457.625 0.102 81.553 0.99 -5.829 0.99 -5.829 0.102 81.553
10482.583 0.103 81.525 0.99 -5.879 0.99 -5.879 0.103 81.525
10507.542 0.103 81.498 0.99 -5.928 0.99 -5.928 0.103 81.498
10532.5 0.104 81.47 0.99 -5.977 0.99 -5.977 0.104 81.47
10557.458 0.105 81.442 0.99 -6.026 0.99 -6.026 0.105 81.442
10582.417 0.106 81.413 0.99 -6.075 0.99 -6.075 0.106 81.413
10607.375 0.107 81.384 0.99 -6.124 0.99 -6.124 0.107 81.384
10632.333 0.108 81.355 0.99 -6.173 0.99 -6.173 0.108 81.355
10657.292 0.108 81.326 0.989 -6.222 0.989 -6.222 0.108 81.326
10682.25 0.109 81.296 0.989 -6.271 0.989 -6.271 0.109 81.296
10707.208 0.11 81.267 0.989 -6.319 0.989 -6.319 0.11 81.267
10732.167 0.111 81.237 0.989 -6.368 0.989 -6.368 0.111 81.237
10757.125 0.112 81.207 0.989 -6.416 0.989 -6.416 0.112 81.207
10782.083 0.113 81.176 0.989 -6.465 0.989 -6.465 0.113 81.176
10807.042 0.114 81.145 0.989 -6.513 0.989 -6.513 0.114 81.145
10832 0.114 81.115 0.989 -6.561 0.989 -6.561 0.114 81.115
10856.958 0.115 81.084 0.989 -6.609 0.989 -6.609 0.115 81.084
10881.917 0.116 81.052 0.989 -6.657 0.989 -6.657 0.116 81.052
10906.875 0.117 81.021 0.989 -6.705 0.989 -6.705 0.117 81.021
10931.833 0.118 80.989 0.988 -6.753 0.988 -6.753 0.118 80.989
10956.792 0.119 80.958 0.988 -6.801 0.988 -6.801 0.119 80.958
10981.75 0.119 80.926 0.988 -6.848 0.988 -6.848 0.119 80.926
11006.708 0.12 80.894 0.988 -6.896 0.988 -6.896 0.12 80.894
11031.667 0.121 80.861 0.988 -6.943 0.988 -6.943 0.121 80.861
11056.625 0.122 80.829 0.988 -6.991 0.988 -6.991 0.122 80.829
11081.583 0.123 80.796 0.988 -7.038 0.988 -7.038 0.123 80.796
11106.542 0.123 80.764 0.988 -7.085 0.988 -7.085 0.123 80.764
11131.5 0.124 80.731 0.988 -7.133 0.988 -7.133 0.124 80.731
11156.458 0.125 80.698 0.988 -7.18 0.988 -7.18 0.125 80.698
11181.417 0.126 80.665 0.987 -7.227 0.987 -7.227 0.126 80.665
11206.375 0.127 80.632 0.987 -7.274 0.987 -7.274 0.127 80.632
11231.333 0.128 80.598 0.987 -7.32 0.987 -7.32 0.128 80.598
11256.292 0.128 80.565 0.987 -7.367 0.987 -7.367 0.128 80.565
11281.25 0.129 80.531 0.987 -7.414 0.987 -7.414 0.129 80.531
11306.208 0.13 80.498 0.987 -7.46 0.987 -7.46 0.13 80.498
11331.167 0.131 80.464 0.987 -7.507 0.987 -7.507 0.131 80.464
11356.125 0.132 80.43 0.987 -7.554 0.987 -7.554 0.132 80.43
11381.083 0.132 80.396 0.987 -7.6 0.987 -7.6 0.132 80.396
11406.042 0.133 80.362 0.986 -7.646 0.986 -7.646 0.133 80.362
11431 0.134 80.328 0.986 -7.692 0.986 -7.692 0.134 80.328
11455.958 0.135 80.294 0.986 -7.739 0.986 -7.739 0.135 80.294
11480.917 0.136 80.259 0.986 -7.785 0.986 -7.785 0.136 80.259
11505.875 0.136 80.225 0.986 -7.831 0.986 -7.831 0.136 80.225
11530.833 0.137 80.191 0.986 -7.877 0.986 -7.877 0.137 80.191
11555.792 0.138 80.156 0.986 -7.923 0.986 -7.923 0.138 80.156
11580.75 0.139 80.121 0.986 -7.968 0.986 -7.968 0.139 80.121
11605.708 0.139 80.087 0.986 -8.014 0.986 -8.014 0.139 80.087
11630.667 0.14 80.052 0.986 -8.06 0.986 -8.06 0.14 80.052
11655.625 0.141 80.017 0.985 -8.105 0.985 -8.105 0.141 80.017
11680.583 0.142 79.982 0.985 -8.151 0.985 -8.151 0.142 79.982
11705.542 0.143 79.947 0.985 -8.196 0.985 -8.196 0.143 79.947
11730.5 0.143 79.912 0.985 -8.242 0.985 -8.242 0.143 79.912
11755.458 0.144 79.877 0.985 -8.287 0.985 -8.287 0.144 79.877
11780.417 0.145 79.842 0.985 -8.332 0.985 -8.332 0.145 79.842
11805.375 0.146 79.807 0.985 -8.377 0.985 -8.377 0.146 79.807
11830.333 0.147 79.772 0.985 -8.422 0.985 -8.422 0.147 79.772
11855.292 0.147 79.736 0.984 -8.467 0.984 -8.467 0.147 79.736
11880.25 0.148 79.701 0.984 -8.512 0.984 -8.512 0.148 79.701
11905.208 0.149 79.666 0.984 -8.557 0.984 -8.557 0.149 79.666
11930.167 0.15 79.63 0.984 -8.602 0.984 -8.602 0.15 79.63
11955.125 0.15 79.595 0.984 -8.647 0.984 -8.647 0.15 79.595
11980.083 0.151 79.559 0.984 -8.692 0.984 -8.692 0.151 79.559
12005.042 0.152 79.524 0.984 -8.736 0.984 -8.736 0.152 79.524
12030 0.153 79.488 0.984 -8.781 0.984 -8.781 0.153 79.488
12054.958 0.153 79.452 0.984 -8.825 0.984 -8.825 0.153 79.452
12079.917 0.154 79.417 0.983 -8.87 0.983 -8.87 0.154 79.417
12104.875 0.155 79.381 0.983 -8.914 0.983 -8.914 0.155 79.381
12129.833 0.156 79.345 0.983 -8.958 0.983 -8.958 0.156 79.345
12154.792 0.157 79.31 0.983 -9.003 0.983 -9.003 0.157 79.31
12179.75 0.157 79.274 0.983 -9.047 0.983 -9.047 0.157 79.274
12204.708 0.158 79.238 0.983 -9.091 0.983 -9.091 0.158 79.238
12229.667 0.159 79.202 0.983 -9.135 0.983 -9.135 0.159 79.202
12254.625 0.16 79.166 0.983 -9.179 0.983 -9.179 0.16 79.166
12279.583 0.16 79.13 0.982 -9.223 0.982 -9.223 0.16 79.13
12304.542 0.161 79.094 0.982 -9.267 0.982 -9.267 0.161 79.094
12329.5 0.162 79.059 0.982 -9.31 0.982 -9.31 0.162 79.059
12354.458 0.163 79.023 0.982 -9.354 0.982 -9.354 0.163 79.023
12379.417 0.163 78.987 0.982 -9.398 0.982 -9.398 0.163 78.987
12404.375 0.164 78.951 0.982 -9.441 0.982 -9.441 0.164 78.951
12429.333 0.165 78.915 0.982 -9.485 0.982 -9.485 0.165 78.915
12454.292 0.166 78.878 0.982 -9.528 0.982 -9.528 0.166 78.878
12479.25 0.166 78.842 0.981 -9.572 0.981 -9.572 0.166 78.842
12504.208 0.167 78.806 0.981 -9.615 0.981 -9.615 0.167 78.806
12529.167 0.168 78.77 0.981 -9.658 0.981 -9.658 0.168 78.77
12554.125 0.169 78.734 0.981 -9.702 0.981 -9.702 0.169 78.734
12579.083 0.169 78.698 0.981 -9.745 0.981 -9.745 0.169 78.698
12604.042 0.17 78.662 0.981 -9.788 0.981 -9.788 0.17 78.662
12629 0.171 78.626 0.981 -9.831 0.981 -9.831 0.171 78.626
12653.958 0.172 78.59 0.981 -9.874 0.981 -9.874 0.172 78.59
12678.917 0.172 78.553 0.98 -9.917 0.98 -9.917 0.172 78.553
12703.875 0.173 78.517 0.98 -9.96 0.98 -9.96 0.173 78.517
12728.833 0.174 78.481 0.98 -10.003 0.98 -10.003 0.174 78.481
12753.792 0.174 78.445 0.98 -10.045 0.98 -10.045 0.174 78.445
12778.75 0.175 78.409 0.98 -10.088 0.98 -10.088 0.175 78.409
12803.708 0.176 78.373 0.98 -10.131 0.98 -10.131 0.176 78.373
12828.667 0.177 78.336 0.98 -10.173 0.98 -10.173 0.177 78.336
12853.625 0.177 78.3 0.98 -10.216 0.98 -10.216 0.177 78.3
12878.583 0.178 78.264 0.979 -10.258 0.979 -10.258 0.178 78.264
12903.542 0.179 78.228 0.979 -10.301 0.979 -10.301 0.179 78.228
12928.5 0.18 78.191 0.979 -10.343 0.979 -10.343 0.18 78.191
12953.458 0.18 78.155 0.979 -10.386 0.979 -10.386 0.18 78.155
12978.417 0.181 78.119 0.979 -10.428 0.979 -10.428 0.181 78.119
13003.375 0.182 78.083 0.979 -10.47 0.979 -10.47 0.182 78.083
13028.333 0.183 78.047 0.979 -10.512 0.979 -10.512 0.183 78.047
13053.292 0.183 78.01 0.978 -10.554 0.978 -10.554 0.183 78.01
13078.25 0.184 77.974 0.978 -10.596 0.978 -10.596 0.184 77.974
13103.208 0.185 77.938 0.978 -10.638 0.978 -10.638 0.185 77.938
13128.167 0.185 77.902 0.978 -10.68 0.978 -10.68 0.185 77.902
13153.125 0.186 77.865 0.978 -10.722 0.978 -10.722 0.186 77.865
13178.083 0.187 77.829 0.978 -10.764 0.978 -10.764 0.187 77.829
13203.042 0.188 77.793 0.978 -10.806 0.978 -10.806 0.188 77.793
13228 0.188 77.757 0.978 -10.847 0.978 -10.847 0.188 77.757
13252.958 0.189 77.721 0.977 -10.889 0.977 -10.889 0.189 77.721
13277.917 0.19 77.684 0.977 -10.931 0.977 -10.931 0.19 77.684
13302.875 0.19 77.648 0.977 -10.972 0.977 -10.972 0.19 77.648
13327.833 0.191 77.612 0.977 -11.014 0.977 -11.014 0.191 77.612
13352.792 0.192 77.576 0.977 -11.055 0.977 -11.055 0.192 77.576
13377.75 0.193 77.54 0.977 -11.097 0.977 -11.097 0.193 77.54
13402.708 0.193 77.504 0.977 -11.138 0.977 -11.138 0.193 77.504
13427.667 0.194 77.467 0.976 -11.179 0.976 -11.179 0.194 77.467
13452.625 0.195 77.431 0.976 -11.221 0.976 -11.221 0.195 77.431
13477.583 0.195 77.395 0.976 -11.262 0.976 -11.262 0.195 77.395
13502.542 0.196 77.359 0.976 -11.303 0.976 -11.303 0.196 77.359
13527.5 0.197 77.323 0.976 -11.344 0.976 -11.344 0.197 77.323
13552.458 0.197 77.287 0.976 -11.385 0.976 -11.385 0.197 77.287
13577.417 0.198 77.251 0.976 -11.426 0.976 -11.426 0.198 77.251
13602.375 0.199 77.214 0.975 -11.467 0.975 -11.467 0.199 77.214
13627.333 0.2 77.178 0.975 -11.508 0.975 -11.508 0.2 77.178
13652.292 0.2 77.142 0.975 -11.549 0.975 -11.549 0.2 77.142
13677.25 0.201 77.106 0.975 -11.59 0.975 -11.59 0.201 77.106
13702.208 0.202 77.07 0.975 -11.631 0.975 -11.631 0.202 77.07
13727.167 0.202 77.034 0.975 -11.671 0.975 -11.671 0.202 77.034
13752.125 0.203 76.998 0.975 -11.712 0.975 -11.712 0.203 76.998
13777.083 0.204 76.962 0.974 -11.753 0.974 -11.753 0.204 76.962
13802.042 0.204 76.926 0.974 -11.793 0.974 -11.793 0.204 76.926
13827 0.205 76.89 0.974 -11.834 0.974 -11.834 0.205 76.89
13851.958 0.206 76.854 0.974 -11.874 0.974 -11.874 0.206 76.854
13876.917 0.207 76.818 0.974 -11.915 0.974 -11.915 0.207 76.818
13901.875 0.207 76.782 0.974 -11.955 0.974 -11.955 0.207 76.782
13926.833 0.208 76.746 0.974 -11.995 0.974 -11.995 0.208 76.746
13951.792 0.209 76.71 0.973 -12.036 0.973 -12.036 0.209 76.71
13976.75 0.209 76.674 0.973 -12.076 0.973 -12.076 0.209 76.674
14001.708 0.21 76.638 0.973 -12.116 0.973 -12.116 0.21 76.638
14026.667 0.211 76.602 0.973 -12.156 0.973 -12.156 0.211 76.602
14051.625 0.211 76.566 0.973 -12.196 0.973 -12.196 0.211 76.566
14076.583 0.212 76.531 0.973 -12.236 0.973 -12.236 0.212 76.531
14101.542 0.213 76.495 0.973 -12.276 0.973 -12.276 0.213 76.495
14126.5 0.213 76.459 0.972 -12.316 0.972 -12.316 0.213 76.459
14151.458 0.214 76.423 0.972 -12.356 0.972 -12.356 0.214 76.423
14176.417 0.215 76.387 0.972 -12.396 0.972 -12.396 0.215 76.387
14201.375 0.215 76.351 0.972 -12.436 0.972 -12.436 0.215 76.351
14226.333 0.216 76.316 0.972 -12.476 0.972 -12.476 0.216 76.316
14251.292 0.217 76.28 0.972 -12.515 0.972 -12.515 0.217 76.28
14276.25 0.217 76.244 0.972 -12.555 0.972 -12.555 0.217 76.244
14301.208 0.218 76.208 0.971 -12.595 0.971 -12.595 0.218 76.208
14326.167 0.219 76.173 0.971 -12.634 0.971 -12.634 0.219 76.173
14351.125 0.219 76.137 0.971 -12.674 0.971 -12.674 0.219 76.137
14376.083 0.22 76.101 0.971 -12.713 0.971 -12.713 0.22 76.101
14401.042 0.221 76.065 0.971 -12.753 0.971 -12.753 0.221 76.065
14426 0.221 76.03 0.971 -12.792 0.971 -12.792 0.221 76.03
14450.958 0.222 75.994 0.97 -12.832 0.97 -12.832 0.222 75.994
14475.917 0.223 75.959 0.97 -12.871 0.97 -12.871 0.223 75.959
14500.875 0.223 75.923 0.97 -12.91 0.97 -12.91 0.223 75.923
14525.833 0.224 75.887 0.97 -12.95 0.97 -12.95 0.224 75.887
14550.792 0.225 75.852 0.97 -12.989 0.97 -12.989 0.225 75.852
14575.75 0.225 75.816 0.97 -13.028 0.97 -13.028 0.225 75.816
14600.708 0.226 75.781 0.97 -13.067 0.97 -13.067 0.226 75.781
14625.667 0.227 75.745 0.969 -13.106 0.969 -13.106 0.227 75.745
14650.625 0.227 75.71 0.969 -13.145 0.969 -13.145 0.227 75.71
14675.583 0.228 75.674 0.969 -13.184 0.969 -13.184 0.228 75.674
14700.542 0.229 75.639 0.969 -13.223 0.969 -13.223 0.229 75.639
14725.5 0.229 75.603 0.969 -13.262 0.969 -13.262 0.229 75.603
14750.458 0.23 75.568 0.969 -13.301 0.969 -13.301 0.23 75.568
14775.417 0.231 75.532 0.968 -13.34 0.968 -13.34 0.231 75.532
14800.375 0.231 75.497 0.968 -13.379 0.968 -13.379 0.231 75.497
14825.333 0.232 75.462 0.968 -13.417 0.968 -13.417 0.232 75.462
14850.292 0.233 75.426 0.968 -13.456 0.968 -13.456 0.233 75.426
14875.25 0.233 75.391 0.968 -13.495 0.968 -13.495 0.233 75.391
14900.208 0.234 75.356 0.968 -13.533 0.968 -13.533 0.234 75.356
14925.167 0.235 75.32 0.968 -13.572 0.968 -13.572 0.235 75.32
14950.125 0.235 75.285 0.967 -13.61 0.967 -13.61 0.235 75.285
14975.083 0.236 75.25 0.967 -13.649 0.967 -13.649 0.236 75.25
15000.042 0.237 75.214 0.967 -13.687 0.967 -13.687 0.237 75.214
15025 0.237 75.179 0.967 -13.726 0.967 -13.726 0.237 75.179
15049.958 0.238 75.144 0.967 -13.764 0.967 -13.764 0.238 75.144
15074.917 0.239 75.109 0.967 -13.803 0.967 -13.803 0.239 75.109
15099.875 0.239 75.074 0.966 -13.841 0.966 -13.841 0.239 75.074
15124.833 0.24 75.038 0.966 -13.879 0.966 -13.879 0.24 75.038
15149.792 0.241 75.003 0.966 -13.917 0.966 -13.917 0.241 75.003
15174.75 0.241 74.968 0.966 -13.956 0.966 -13.956 0.241 74.968
15199.708 0.242 74.933 0.966 -13.994 0.966 -13.994 0.242 74.933
15224.667 0.243 74.898 0.966 -14.032 0.966 -14.032 0.243 74.898
15249.625 0.243 74.863 0.965 -14.07 0.965 -14.07 0.243 74.863
15274.583 0.244 74.828 0.965 -14.108 0.965 -14.108 0.244 74.828
15299.542 0.244 74.793 0.965 -14.146 0.965 -14.146 0.244 74.793
15324.5 0.245 74.758 0.965 -14.184 0.965 -14.184 0.245 74.758
15349.458 0.246 74.723 0.965 -14.222 0.965 -14.222 0.246 74.723
15374.417 0.246 74.688 0.965 -14.26 0.965 -14.26 0.246 74.688
15399.375 0.247 74.653 0.965 -14.298 0.965 -14.298 0.247 74.653
15424.333 0.248 74.618 0.964 -14.335 0.964 -14.335 0.248 74.618
15449.292 0.248 74.583 0.964 -14.373 0.964 -14.373 0.248 74.583
15474.25 0.249 74.548 0.964 -14.411 0.964 -14.411 0.249 74.548
15499.208 0.25 74.513 0.964 -14.449 0.964 -14.449 0.25 74.513
15524.167 0.25 74.479 0.964 -14.486 0.964 -14.486 0.25 74.479
15549.125 0.251 74.444 0.964 -14.524 0.964 -14.524 0.251 74.444
15574.083 0.251 74.409 0.963 -14.561 0.963 -14.561 0.251 74.409
15599.042 0.252 74.374 0.963 -14.599 0.963 -14.599 0.252 74.374
15624 0.253 74.339 0.963 -14.636 0.963 -14.636 0.253 74.339
15648.958 0.253 74.305 0.963 -14.674 0.963 -14.674 0.253 74.305
15673.917 0.254 74.27 0.963 -14.711 0.963 -14.711 0.254 74.27
15698.875 0.255 74.235 0.963 -14.749 0.963 -14.749 0.255 74.235
15723.833 0.255 74.201 0.962 -14.786 0.962 -14.786 0.255 74.201
15748.792 0.256 74.166 0.962 -14.823 0.962 -14.823 0.256 74.166
15773.75 0.257 74.131 0.962 -14.861 0.962 -14.861 0.257 74.131
15798.708 0.257 74.097 0.962 -14.898 0.962 -14.898 0.257 74.097
15823.667 0.258 74.062 0.962 -14.935 0.962 -14.935 0.258 74.062
15848.625 0.258 74.028 0.962 -14.972 0.962 -14.972 0.258 74.028
15873.583 0.259 73.993 0.961 -15.009 0.961 -15.009 0.259 73.993
15898.542 0.26 73.959 0.961 -15.047 0.961 -15.047 0.26 73.959
15923.5 0.26 73.924 0.961 -15.084 0.961 -15.084 0.26 73.924
15948.458 0.261 73.89 0.961 -15.121 0.961 -15.121 0.261 73.89
15973.417 0.262 73.855 0.961 -15.158 0.961 -15.158 0.262 73.855
15998.375 0.262 73.821 0.961 -15.195 0.961 -15.195 0.262 73.821
16023.333 0.263 73.786 0.96 -15.232 0.96 -15.232 0.263 73.786
16048.292 0.263 73.752 0.96 -15.268 0.96 -15.268 0.263 73.752
16073.25 0.264 73.717 0.96 -15.305 0.96 -15.305 0.264 73.717
16098.208 0.265 73.683 0.96 -15.342 0.96 -15.342 0.265 73.683
16123.167 0.265 73.649 0.96 -15.379 0.96 -15.379 0.265 73.649
16148.125 0.266 73.614 0.96 -15.416 0.96 -15.416 0.266 73.614
16173.083 0.266 73.58 0.959 -15.452 0.959 -15.452 0.266 73.58
16198.042 0.267 73.546 0.959 -15.489 0.959 -15.489 0.267 73.546
16223 0.268 73.512 0.959 -15.526 0.959 -15.526 0.268 73.512
16247.958 0.268 73.477 0.959 -15.562 0.959 -15.562 0.268 73.477
16272.917 0.269 73.443 0.959 -15.599 0.959 -15.599 0.269 73.443
16297.875 0.27 73.409 0.959 -15.635 0.959 -15.635 0.27 73.409
16322.833 0.27 73.375 0.958 -15.672 0.958 -15.672 0.27 73.375
16347.792 0.271 73.341 0.958 -15.708 0.958 -15.708 0.271 73.341
16372.75 0.271 73.306 0.958 -15.745 0.958 -15.745 0.271 73.306
16397.708 0.272 73.272 0.958 -15.781 0.958 -15.781 0.272 73.272
16422.667 0.273 73.238 0.958 -15.818 0.958 -15.818 0.273 73.238
16447.625 0.273 73.204 0.957 -15.854 0.957 -15.854 0.273 73.204
16472.583 0.274 73.17 0.957 -15.89 0.957 -15.89 0.274 73.17
16497.542 0.274 73.136 0.957 -15.927 0.957 -15.927 0.274 73.136
16522.5 0.275 73.102 0.957 -15.963 0.957 -15.963 0.275 73.102
16547.458 0.276 73.068 0.957 -15.999 0.957 -15.999 0.276 73.068
16572.417 0.276 73.034 0.957 -16.035 0.957 -16.035 0.276 73.034
16597.375 0.277 73 0.956 -16.071 0.956 -16.071 0.277 73
16622.333 0.277 72.966 0.956 -16.107 0.956 -16.107 0.277 72.966
16647.292 0.278 72.932 0.956 -16.143 0.956 -16.143 0.278 72.932
16672.25 0.279 72.899 0.956 -16.18 0.956 -16.18 0.279 72.899
16697.208 0.279 72.865 0.956 -16.216 0.956 -16.216 0.279 72.865
16722.167 0.28 72.831 0.956 -16.252 0.956 -16.252 0.28 72.831
16747.125 0.28 72.797 0.955 -16.287 0.955 -16.287 0.28 72.797
16772.083 0.281 72.763 0.955 -16.323 0.955 -16.323 0.281 72.763
16797.042 0.282 72.73 0.955 -16.359 0.955 -16.359 0.282 72.73
16822 0.282 72.696 0.955 -16.395 0.955 -16.395 0.282 72.696
16846.958 0.283 72.662 0.955 -16.431 0.955 -16.431 0.283 72.662
16871.917 0.283 72.628 0.955 -16.467 0.955 -16.467 0.283 72.628
16896.875 0.284 72.595 0.954 -16.502 0.954 -16.502 0.284 72.595
16921.833 0.285 72.561 0.954 -16.538 0.954 -16.538 0.285 72.561
16946.792 0.285 72.527 0.954 -16.574 0.954 -16.574 0.285 72.527
16971.75 0.286 72.494 0.954 -16.61 0.954 -16.61 0.286 72.494
16996.708 0.286 72.46 0.954 -16.645 0.954 -16.645 0.286 72.46
17021.667 0.287 72.427 0.953 -16.681 0.953 -16.681 0.287 72.427
17046.625 0.288 72.393 0.953 -16.716 0.953 -16.716 0.288 72.393
17071.583 0.288 72.36 0.953 -16.752 0.953 -16.752 0.288 72.36
17096.542 0.289 72.326 0.953 -16.787 0.953 -16.787 0.289 72.326
17121.5 0.289 72.293 0.953 -16.823 0.953 -16.823 0.289 72.293
17146.458 0.29 72.259 0.953 -16.858 0.953 -16.858 0.29 72.259
17171.417 0.291 72.226 0.952 -16.894 0.952 -16.894 0.291 72.226
17196.375 0.291 72.192 0.952 -16.929 0.952 -16.929 0.291 72.192
17221.333 0.292 72.159 0.952 -16.964 0.952 -16.964 0.292 72.159
17246.292 0.292 72.125 0.952 -17 0.952 -17 0.292 72.125
17271.25 0.293 72.092 0.952 -17.035 0.952 -17.035 0.293 72.092
17296.208 0.294 72.059 0.951 -17.07 0.951 -17.07 0.294 72.059
17321.167 0.294 72.025 0.951 -17.105 0.951 -17.105 0.294 72.025
17346.125 0.295 71.992 0.951 -17.141 0.951 -17.141 0.295 71.992
17371.083 0.295 71.959 0.951 -17.176 0.951 -17.176 0.295 71.959
17396.042 0.296 71.926 0.951 -17.211 0.951 -17.211 0.296 71.926
17421 0.297 71.892 0.951 -17.246 0.951 -17.246 0.297 71.892
17445.958 0.297 71.859 0.95 -17.281 0.95 -17.281 0.297 71.859
17470.917 0.298 71.826 0.95 -17.316 0.95 -17.316 0.298 71.826
17495.875 0.298 71.793 0.95 -17.351 0.95 -17.351 0.298 71.793
17520.833 0.299 71.76 0.95 -17.386 0.95 -17.386 0.299 71.76
17545.792 0.299 71.727 0.95 -17.421 0.95 -17.421 0.299 71.727
17570.75 0.3 71.693 0.949 -17.456 0.949 -17.456 0.3 71.693
17595.708 0.301 71.66 0.949 -17.491 0.949 -17.491 0.301 71.66
17620.667 0.301 71.627 0.949 -17.526 0.949 -17.526 0.301 71.627
17645.625 0.302 71.594 0.949 -17.56 0.949 -17.56 0.302 71.594
17670.583 0.302 71.561 0.949 -17.595 0.949 -17.595 0.302 71.561
17695.542 0.303 71.528 0.949 -17.63 0.949 -17.63 0.303 71.528
17720.5 0.303 71.495 0.948 -17.665 0.948 -17.665 0.303 71.495
17745.458 0.304 71.462 0.948 -17.7 0.948 -17.7 0.304 71.462
17770.417 0.305 71.429 0.948 -17.734 0.948 -17.734 0.305 71.429
17795.375 0.305 71.397 0.948 -17.769 0.948 -17.769 0.305 71.397
17820.333 0.306 71.364 0.948 -17.803 0.948 -17.803 0.306 71.364
17845.292 0.306 71.331 0.947 -17.838 0.947 -17.838 0.306 71.331
17870.25 0.307 71.298 0.947 -17.873 0.947 -17.873 0.307 71.298
17895.208 0.308 71.265 0.947 -17.907 0.947 -17.907 0.308 71.265
17920.167 0.308 71.232 0.947 -17.942 0.947 -17.942 0.308 71.232
17945.125 0.309 71.2 0.947 -17.976 0.947 -17.976 0.309 71.2
17970.083 0.309 71.167 0.947 -18.011 0.947 -18.011 0.309 71.167
17995.042 0.31 71.134 0.946 -18.045 0.946 -18.045 0.31 71.134
18020 0.31 71.101 0.946 -18.079 0.946 -18.079 0.31 71.101
18044.958 0.311 71.069 0.946 -18.114 0.946 -18.114 0.311 71.069
18069.917 0.312 71.036 0.946 -18.148 0.946 -18.148 0.312 71.036
18094.875 0.312 71.003 0.946 -18.182 0.946 -18.182 0.312 71.003
18119.833 0.313 70.971 0.945 -18.217 0.945 -18.217 0.313 70.971
18144.792 0.313 70.938 0.945 -18.251 0.945 -18.251 0.313 70.938
18169.75 0.314 70.905 0.945 -18.285 0.945 -18.285 0.314 70.905
18194.708 0.314 70.873 0.945 -18.319 0.945 -18.319 0.314 70.873
18219.667 0.315 70.84 0.945 -18.353 0.945 -18.353 0.315 70.84
18244.625 0.315 70.808 0.945 -18.388 0.945 -18.388 0.315 70.808
18269.583 0.316 70.775 0.944 -18.422 0.944 -18.422 0.316 70.775
18294.542 0.317 70.743 0.944 -18.456 0.944 -18.456 0.317 70.743
18319.5 0.317 70.71 0.944 -18.49 0.944 -18.49 0.317 70.71
18344.458 0.318 70.678 0.944 -18.524 0.944 -18.524 0.318 70.678
18369.417 0.318 70.645 0.944 -18.558 0.944 -18.558 0.318 70.645
18394.375 0.319 70.613 0.943 -18.592 0.943 -18.592 0.319 70.613
18419.333 0.319 70.581 0.943 -18.626 0.943 -18.626 0.319 70.581
18444.292 0.32 70.548 0.943 -18.66 0.943 -18.66 0.32 70.548
18469.25 0.321 70.516 0.943 -18.694 0.943 -18.694 0.321 70.516
18494.208 0.321 70.484 0.943 -18.727 0.943 -18.727 0.321 70.484
18519.167 0.322 70.451 0.942 -18.761 0.942 -18.761 0.322 70.451
18544.125 0.322 70.419 0.942 -18.795 0.942 -18.795 0.322 70.419
18569.083 0.323 70.387 0.942 -18.829 0.942 -18.829 0.323 70.387
18594.042 0.323 70.355 0.942 -18.863 0.942 -18.863 0.323 70.355
18619 0.324 70.322 0.942 -18.896 0.942 -18.896 0.324 70.322
18643.958 0.324 70.29 0.941 -18.93 0.941 -18.93 0.324 70.29
18668.917 0.325 70.258 0.941 -18.964 0.941 -18.964 0.325 70.258
18693.875 0.326 70.226 0.941 -18.997 0.941 -18.997 0.326 70.226
18718.833 0.326 70.194 0.941 -19.031 0.941 -19.031 0.326 70.194
18743.792 0.327 70.162 0.941 -19.064 0.941 -19.064 0.327 70.162
18768.75 0.327 70.129 0.941 -19.098 0.941 -19.098 0.327 70.129
18793.708 0.328 70.097 0.94 -19.132 0.94 -19.132 0.328 70.097
18818.667 0.328 70.065 0.94 -19.165 0.94 -19.165 0.328 70.065
18843.625 0.329 70.033 0.94 -19.199 0.94 -19.199 0.329 70.033
18868.583 0.329 70.001 0.94 -19.232 0.94 -19.232 0.329 70.001
18893.542 0.33 69.969 0.94 -19.265 0.94 -19.265 0.33 69.969
18918.5 0.331 69.937 0.939 -19.299 0.939 -19.299 0.331 69.937
18943.458 0.331 69.905 0.939 -19.332 0.939 -19.332 0.331 69.905
18968.417 0.332 69.873 0.939 -19.366 0.939 -19.366 0.332 69.873
18993.375 0.332 69.842 0.939 -19.399 0.939 -19.399 0.332 69.842
19018.333 0.333 69.81 0.939 -19.432 0.939 -19.432 0.333 69.81
19043.292 0.333 69.778 0.938 -19.465 0.938 -19.465 0.333 69.778
19068.25 0.334 69.746 0.938 -19.499 0.938 -19.499 0.334 69.746
19093.208 0.334 69.714 0.938 -19.532 0.938 -19.532 0.334 69.714
19118.167 0.335 69.682 0.938 -19.565 0.938 -19.565 0.335 69.682
19143.125 0.335 69.651 0.938 -19.598 0.938 -19.598 0.335 69.651
19168.083 0.336 69.619 0.937 -19.631 0.937 -19.631 0.336 69.619
19193.042 0.337 69.587 0.937 -19.664 0.937 -19.664 0.337 69.587
19218 0.337 69.555 0.937 -19.697 0.937 -19.697 0.337 69.555
19242.958 0.338 69.524 0.937 -19.731 0.937 -19.731 0.338 69.524
19267.917 0.338 69.492 0.937 -19.764 0.937 -19.764 0.338 69.492
19292.875 0.339 69.46 0.937 -19.797 0.937 -19.797 0.339 69.46
19317.833 0.339 69.429 0.936 -19.83 0.936 -19.83 0.339 69.429
19342.792 0.34 69.397 0.936 -19.863 0.936 -19.863 0.34 69.397
19367.75 0.34 69.365 0.936 -19.895 0.936 -19.895 0.34 69.365
19392.708 0.341 69.334 0.936 -19.928 0.936 -19.928 0.341 69.334
19417.667 0.341 69.302 0.936 -19.961 0.936 -19.961 0.341 69.302
19442.625 0.342 69.271 0.935 -19.994 0.935 -19.994 0.342 69.271
19467.583 0.342 69.239 0.935 -20.027 0.935 -20.027 0.342 69.239
19492.542 0.343 69.208 0.935 -20.06 0.935 -20.06 0.343 69.208
19517.5 0.344 69.176 0.935 -20.092 0.935 -20.092 0.344 69.176
19542.458 0.344 69.145 0.935 -20.125 0.935 -20.125 0.344 69.145
19567.417 0.345 69.113 0.934 -20.158 0.934 -20.158 0.345 69.113
19592.375 0.345 69.082 0.934 -20.191 0.934 -20.191 0.345 69.082
19617.333 0.346 69.051 0.934 -20.223 0.934 -20.223 0.346 69.051
19642.292 0.346 69.019 0.934 -20.256 0.934 -20.256 0.346 69.019
19667.25 0.347 68.988 0.934 -20.289 0.934 -20.289 0.347 68.988
19692.208 0.347 68.957 0.933 -20.321 0.933 -20.321 0.347 68.957
19717.167 0.348 68.925 0.933 -20.354 0.933 -20.354 0.348 68.925
19742.125 0.348 68.894 0.933 -20.386 0.933 -20.386 0.348 68.894
19767.083 0.349 68.863 0.933 -20.419 0.933 -20.419 0.349 68.863
19792.042 0.349 68.831 0.933 -20.451 0.933 -20.451 0.349 68.831
19817 0.35 68.8 0.932 -20.484 0.932 -20.484 0.35 68.8
19841.958 0.35 68.769 0.932 -20.516 0.932 -20.516 0.35 68.769
19866.917 0.351 68.738 0.932 -20.549 0.932 -20.549 0.351 68.738
19891.875 0.352 68.707 0.932 -20.581 0.932 -20.581 0.352 68.707
19916.833 0.352 68.675 0.932 -20.613 0.932 -20.613 0.352 68.675
19941.792 0.353 68.644 0.931 -20.646 0.931 -20.646 0.353 68.644
19966.75 0.353 68.613 0.931 -20.678 0.931 -20.678 0.353 68.613
19991.708 0.354 68.582 0.931 -20.71 0.931 -20.71 0.354 68.582
20016.667 0.354 68.551 0.931 -20.743 0.931 -20.743 0.354 68.551
20041.625 0.355 68.52 0.931 -20.775 0.931 -20.775 0.355 68.52
20066.583 0.355 68.489 0.93 -20.807 0.93 -20.807 0.355 68.489
20091.542 0.356 68.458 0.93 -20.839 0.93 -20.839 0.356 68.458
20116.5 0.356 68.427 0.93 -20.871 0.93 -20.871 0.356 68.427
20141.458 0.357 68.396 0.93 -20.904 0.93 -20.904 0.357 68.396
20166.417 0.357 68.365 0.93 -20.936 0.93 -20.936 0.357 68.365
20191.375 0.358 68.334 0.929 -20.968 0.929 -20.968 0.358 68.334
20216.333 0.358 68.303 0.929 -21 0.929 -21 0.358 68.303
20241.292 0.359 68.272 0.929 -21.032 0.929 -21.032 0.359 68.272
20266.25 0.359 68.241 0.929 -21.064 0.929 -21.064 0.359 68.241
20291.208 0.36 68.211 0.929 -21.096 0.929 -21.096 0.36 68.211
20316.167 0.36 68.18 0.928 -21.128 0.928 -21.128 0.36 68.18
20341.125 0.361 68.149 0.928 -21.16 0.928 -21.16 0.361 68.149
20366.083 0.362 68.118 0.928 -21.192 0.928 -21.192 0.362 68.118
20391.042 0.362 68.087 0.928 -21.224 0.928 -21.224 0.362 68.087
20416 0.363 68.057 0.928 -21.256 0.928 -21.256 0.363 68.057
20440.958 0.363 68.026 0.927 -21.288 0.927 -21.288 0.363 68.026
20465.917 0.364 67.995 0.927 -21.319 0.927 -21.319 0.364 67.995
20490.875 0.364 67.965 0.927 -21.351 0.927 -21.351 0.364 67.965
20515.833 0.365 67.934 0.927 -21.383 0.927 -21.383 0.365 67.934
20540.792 0.365 67.903 0.927 -21.415 0.927 -21.415 0.365 67.903
20565.75 0.366 67.873 0.926 -21.447 0.926 -21.447 0.366 67.873
20590.708 0.366 67.842 0.926 -21.478 0.926 -21.478 0.366 67.842
20615.667 0.367 67.811 0.926 -21.51 0.926 -21.51 0.367 67.811
20640.625 0.367 67.781 0.926 -21.542 0.926 -21.542 0.367 67.781
20665.583 0.368 67.75 0.926 -21.573 0.926 -21.573 0.368 67.75
20690.542 0.368 67.72 0.925 -21.605 0.925 -21.605 0.368 67.72
20715.5 0.369 67.689 0.925 -21.637 0.925 -21.637 0.369 67.689
20740.458 0.369 67.659 0.925 -21.668 0.925 -21.668 0.369 67.659
20765.417 0.37 67.628 0.925 -21.7 0.925 -21.7 0.37 67.628
20790.375 0.37 67.598 0.925 -21.731 0.925 -21.731 0.37 67.598
20815.333 0.371 67.567 0.924 -21.763 0.924 -21.763 0.371 67.567
20840.292 0.371 67.537 0.924 -21.794 0.924 -21.794 0.371 67.537
20865.25 0.372 67.506 0.924 -21.826 0.924 -21.826 0.372 67.506
20890.208 0.372 67.476 0.924 -21.857 0.924 -21.857 0.372 67.476
20915.167 0.373 67.446 0.924 -21.888 0.924 -21.888 0.373 67.446
20940.125 0.373 67.415 0.923 -21.92 0.923 -21.92 0.373 67.415
20965.083 0.374 67.385 0.923 -21.951 0.923 -21.951 0.374 67.385
20990.042 0.374 67.355 0.923 -21.983 0.923 -21.983 0.374 67.355
21015 0.375 67.324 0.923 -22.014 0.923 -22.014 0.375 67.324
21039.958 0.375 67.294 0.923 -22.045 0.923 -22.045 0.375 67.294
21064.917 0.376 67.264 0.922 -22.077 0.922 -22.077 0.376 67.264
21089.875 0.376 67.234 0.922 -22.108 0.922 -22.108 0.376 67.234
21114.833 0.377 67.204 0.922 -22.139 0.922 -22.139 0.377 67.204
21139.792 0.377 67.173 0.922 -22.17 0.922 -22.17 0.377 67.173
21164.75 0.378 67.143 0.922 -22.201 0.922 -22.201 0.378 67.143
21189.708 0.378 67.113 0.921 -22.233 0.921 -22.233 0.378 67.113
21214.667 0.379 67.083 0.921 -22.264 0.921 -22.264 0.379 67.083
21239.625 0.379 67.053 0.921 -22.295 0.921 -22.295 0.379 67.053
21264.583 0.38 67.023 0.921 -22.326 0.921 -22.326 0.38 67.023
21289.542 0.38 66.993 0.921 -22.357 0.921 -22.357 0.38 66.993
21314.5 0.381 66.963 0.92 -22.388 0.92 -22.388 0.381 66.963
21339.458 0.381 66.933 0.92 -22.419 0.92 -22.419 0.381 66.933
21364.417 0.382 66.903 0.92 -22.45 0.92 -22.45 0.382 66.903
21389.375 0.382 66.873 0.92 -22.481 0.92 -22.481 0.382 66.873
21414.333 0.383 66.843 0.919 -22.512 0.919 -22.512 0.383 66.843
21439.292 0.383 66.813 0.919 -22.543 0.919 -22.543 0.383 66.813
21464.25 0.384 66.783 0.919 -22.574 0.919 -22.574 0.384 66.783
21489.208 0.384 66.753 0.919 -22.605 0.919 -22.605 0.384 66.753
21514.167 0.385 66.723 0.919 -22.636 0.919 -22.636 0.385 66.723
21539.125 0.385 66.693 0.918 -22.667 0.918 -22.667 0.385 66.693
21564.083 0.386 66.663 0.918 -22.697 0.918 -22.697 0.386 66.663
21589.042 0.386 66.633 0.918 -22.728 0.918 -22.728 0.386 66.633
21614 0.387 66.603 0.918 -22.759 0.918 -22.759 0.387 66.603
21638.958 0.387 66.574 0.918 -22.79 0.918 -22.79 0.387 66.574
21663.917 0.388 66.544 0.917 -22.82 0.917 -22.82 0.388 66.544
21688.875 0.388 66.514 0.917 -22.851 0.917 -22.851 0.388 66.514
21713.833 0.389 66.484 0.917 -22.882 0.917 -22.882 0.389 66.484
21738.792 0.389 66.455 0.917 -22.913 0.917 -22.913 0.389 66.455
21763.75 0.39 66.425 0.917 -22.943 0.917 -22.943 0.39 66.425
21788.708 0.39 66.395 0.916 -22.974 0.916 -22.974 0.39 66.395
21813.667 0.391 66.366 0.916 -23.004 0.916 -23.004 0.391 66.366
21838.625 0.391 66.336 0.916 -23.035 0.916 -23.035 0.391 66.336
21863.583 0.392 66.306 0.916 -23.066 0.916 -23.066 0.392 66.306
21888.542 0.392 66.277 0.916 -23.096 0.916 -23.096 0.392 66.277
21913.5 0.393 66.247 0.915 -23.127 0.915 -23.127 0.393 66.247
21938.458 0.393 66.217 0.915 -23.157 0.915 -23.157 0.393 66.217
21963.417 0.394 66.188 0.915 -23.188 0.915 -23.188 0.394 66.188
21988.375 0.394 66.158 0.915 -23.218 0.915 -23.218 0.394 66.158
22013.333 0.395 66.129 0.915 -23.248 0.915 -23.248 0.395 66.129
22038.292 0.395 66.099 0.914 -23.279 0.914 -23.279 0.395 66.099
22063.25 0.396 66.07 0.914 -23.309 0.914 -23.309 0.396 66.07
22088.208 0.396 66.04 0.914 -23.34 0.914 -23.34 0.396 66.04
22113.167 0.397 66.011 0.914 -23.37 0.914 -23.37 0.397 66.011
22138.125 0.397 65.982 0.913 -23.4 0.913 -23.4 0.397 65.982
22163.083 0.398 65.952 0.913 -23.431 0.913 -23.431 0.398 65.952
22188.042 0.398 65.923 0.913 -23.461 0.913 -23.461 0.398 65.923
22213 0.399 65.893 0.913 -23.491 0.913 -23.491 0.399 65.893
22237.958 0.399 65.864 0.913 -23.521 0.913 -23.521 0.399 65.864
22262.917 0.4 65.835 0.912 -23.552 0.912 -23.552 0.4 65.835
22287.875 0.4 65.805 0.912 -23.582 0.912 -23.582 0.4 65.805
22312.833 0.401 65.776 0.912 -23.612 0.912 -23.612 0.401 65.776
22337.792 0.401 65.747 0.912 -23.642 0.912 -23.642 0.401 65.747
22362.75 0.402 65.718 0.912 -23.672 0.912 -23.672 0.402 65.718
22387.708 0.402 65.688 0.911 -23.702 0.911 -23.702 0.402 65.688
22412.667 0.402 65.659 0.911 -23.733 0.911 -23.733 0.402 65.659
22437.625 0.403 65.63 0.911 -23.763 0.911 -23.763 0.403 65.63
22462.583 0.403 65.601 0.911 -23.793 0.911 -23.793 0.403 65.601
22487.542 0.404 65.572 0.911 -23.823 0.911 -23.823 0.404 65.572
22512.5 0.404 65.542 0.91 -23.853 0.91 -23.853 0.404 65.542
22537.458 0.405 65.513 0.91 -23.883 0.91 -23.883 0.405 65.513
22562.417 0.405 65.484 0.91 -23.913 0.91 -23.913 0.405 65.484
22587.375 0.406 65.455 0.91 -23.943 0.91 -23.943 0.406 65.455
22612.333 0.406 65.426 0.909 -23.972 0.909 -23.972 0.406 65.426
22637.292 0.407 65.397 0.909 -24.002 0.909 -24.002 0.407 65.397
22662.25 0.407 65.368 0.909 -24.032 0.909 -24.032 0.407 65.368
22687.208 0.408 65.339 0.909 -24.062 0.909 -24.062 0.408 65.339
22712.167 0.408 65.31 0.909 -24.092 0.909 -24.092 0.408 65.31
22737.125 0.409 65.281 0.908 -24.122 0.908 -24.122 0.409 65.281
22762.083 0.409 65.252 0.908 -24.152 0.908 -24.152 0.409 65.252
22787.042 0.41 65.223 0.908 -24.181 0.908 -24.181 0.41 65.223
22812 0.41 65.194 0.908 -24.211 0.908 -24.211 0.41 65.194
22836.958 0.411 65.165 0.908 -24.241 0.908 -24.241 0.411 65.165
22861.917 0.411 65.136 0.907 -24.271 0.907 -24.271 0.411 65.136
22886.875 0.412 65.107 0.907 -24.3 0.907 -24.3 0.412 65.107
22911.833 0.412 65.079 0.907 -24.33 0.907 -24.33 0.412 65.079
22936.792 0.412 65.05 0.907 -24.36 0.907 -24.36 0.412 65.05
22961.75 0.413 65.021 0.907 -24.389 0.907 -24.389 0.413 65.021
22986.708 0.413 64.992 0.906 -24.419 0.906 -24.419 0.413 64.992
23011.667 0.414 64.963 0.906 -24.448 0.906 -24.448 0.414 64.963
23036.625 0.414 64.935 0.906 -24.478 0.906 -24.478 0.414 64.935
23061.583 0.415 64.906 0.906 -24.507 0.906 -24.507 0.415 64.906
23086.542 0.415 64.877 0.905 -24.537 0.905 -24.537 0.415 64.877
23111.5 0.416 64.848 0.905 -24.567 0.905 -24.567 0.416 64.848
23136.458 0.416 64.82 0.905 -24.596 0.905 -24.596 0.416 64.82
23161.417 0.417 64.791 0.905 -24.625 0.905 -24.625 0.417 64.791
23186.375 0.417 64.762 0.905 -24.655 0.905 -24.655 0.417 64.762
23211.333 0.418 64.734 0.904 -24.684 0.904 -24.684 0.418 64.734
23236.292 0.418 64.705 0.904 -24.714 0.904 -24.714 0.418 64.705
23261.25 0.419 64.676 0.904 -24.743 0.904 -24.743 0.419 64.676
23286.208 0.419 64.648 0.904 -24.772 0.904 -24.772 0.419 64.648
23311.167 0.42 64.619 0.904 -24.802 0.904 -24.802 0.42 64.619
23336.125 0.42 64.591 0.903 -24.831 0.903 -24.831 0.42 64.591
23361.083 0.42 64.562 0.903 -24.86 0.903 -24.86 0.42 64.562
23386.042 0.421 64.534 0.903 -24.89 0.903 -24.89 0.421 64.534
23411 0.421 64.505 0.903 -24.919 0.903 -24.919 0.421 64.505
23435.958 0.422 64.477 0.902 -24.948 0.902 -24.948 0.422 64.477
23460.917 0.422 64.448 0.902 -24.977 0.902 -24.977 0.422 64.448
23485.875 0.423 64.42 0.902 -25.007 0.902 -25.007 0.423 64.42
23510.833 0.423 64.391 0.902 -25.036 0.902 -25.036 0.423 64.391
23535.792 0.424 64.363 0.902 -25.065 0.902 -25.065 0.424 64.363
23560.75 0.424 64.335 0.901 -25.094 0.901 -25.094 0.424 64.335
23585.708 0.425 64.306 0.901 -25.123 0.901 -25.123 0.425 64.306
23610.667 0.425 64.278 0.901 -25.152 0.901 -25.152 0.425 64.278
23635.625 0.426 64.25 0.901 -25.181 0.901 -25.181 0.426 64.25
23660.583 0.426 64.221 0.901 -25.211 0.901 -25.211 0.426 64.221
23685.542 0.426 64.193 0.9 -25.24 0.9 -25.24 0.426 64.193
23710.5 0.427 64.165 0.9 -25.269 0.9 -25.269 0.427 64.165
23735.458 0.427 64.136 0.9 -25.298 0.9 -25.298 0.427 64.136
23760.417 0.428 64.108 0.9 -25.327 0.9 -25.327 0.428 64.108
23785.375 0.428 64.08 0.899 -25.356 0.899 -25.356 0.428 64.08
23810.333 0.429 64.052 0.899 -25.384 0.899 -25.384 0.429 64.052
23835.292 0.429 64.024 0.899 -25.413 0.899 -25.413 0.429 64.024
23860.25 0.43 63.995 0.899 -25.442 0.899 -25.442 0.43 63.995
23885.208 0.43 63.967 0.899 -25.471 0.899 -25.471 0.43 63.967
23910.167 0.431 63.939 0.898 -25.5 0.898 -25.5 0.431 63.939
23935.125 0.431 63.911 0.898 -25.529 0.898 -25.529 0.431 63.911
23960.083 0.431 63.883 0.898 -25.558 0.898 -25.558 0.431 63.883
23985.042 0.432 63.855 0.898 -25.587 0.898 -25.587 0.432 63.855
24010 0.432 63.827 0.898 -25.615 0.898 -25.615 0.432 63.827
24034.958 0.433 63.799 0.897 -25.644 0.897 -25.644 0.433 63.799
24059.917 0.433 63.771 0.897 -25.673 0.897 -25.673 0.433 63.771
24084.875 0.434 63.743 0.897 -25.702 0.897 -25.702 0.434 63.743
24109.833 0.434 63.715 0.897 -25.73 0.897 -25.73 0.434 63.715
24134.792 0.435 63.687 0.896 -25.759 0.896 -25.759 0.435 63.687
24159.75 0.435 63.659 0.896 -25.788 0.896 -25.788 0.435 63.659
24184.708 0.436 63.631 0.896 -25.816 0.896 -25.816 0.436 63.631
24209.667 0.436 63.603 0.896 -25.845 0.896 -25.845 0.436 63.603
24234.625 0.436 63.575 0.896 -25.873 0.896 -25.873 0.436 63.575
24259.583 0.437 63.547 0.895 -25.902 0.895 -25.902 0.437 63.547
24284.542 0.437 63.519 0.895 -25.931 0.895 -25.931 0.437 63.519
24309.5 0.438 63.491 0.895 -25.959 0.895 -25.959 0.438 63.491
24334.458 0.438 63.464 0.895 -25.988 0.895 -25.988 0.438 63.464
24359.417 0.439 63.436 0.894 -26.016 0.894 -26.016 0.439 63.436
24384.375 0.439 63.408 0.894 -26.045 0.894 -26.045 0.439 63.408
24409.333 0.44 63.38 0.894 -26.073 0.894 -26.073 0.44 63.38
24434.292 0.44 63.352 0.894 -26.102 0.894 -26.102 0.44 63.352
24459.25 0.44 63.325 0.894 -26.13 0.894 -26.13 0.44 63.325
24484.208 0.441 63.297 0.893 -26.159 0.893 -26.159 0.441 63.297
24509.167 0.441 63.269 0.893 -26.187 0.893 -26.187 0.441 63.269
24534.125 0.442 63.241 0.893 -26.215 0.893 -26.215 0.442 63.241
24559.083 0.442 63.214 0.893 -26.244 0.893 -26.244 0.442 63.214
24584.042 0.443 63.186 0.893 -26.272 0.893 -26.272 0.443 63.186
24609 0.443 63.158 0.892 -26.3 0.892 -26.3 0.443 63.158
24633.958 0.444 63.131 0.892 -26.329 0.892 -26.329 0.444 63.131
24658.917 0.444 63.103 0.892 -26.357 0.892 -26.357 0.444 63.103
24683.875 0.444 63.076 0.892 -26.385 0.892 -26.385 0.444 63.076
24708.833 0.445 63.048 0.891 -26.413 0.891 -26.413 0.445 63.048
24733.792 0.445 63.021 0.891 -26.442 0.891 -26.442 0.445 63.021
24758.75 0.446 62.993 0.891 -26.47 0.891 -26.47 0.446 62.993
24783.708 0.446 62.965 0.891 -26.498 0.891 -26.498 0.446 62.965
24808.667 0.447 62.938 0.891 -26.526 0.891 -26.526 0.447 62.938
24833.625 0.447 62.91 0.89 -26.554 0.89 -26.554 0.447 62.91
24858.583 0.448 62.883 0.89 -26.582 0.89 -26.582 0.448 62.883
24883.542 0.448 62.856 0.89 -26.611 0.89 -26.611 0.448 62.856
24908.5 0.448 62.828 0.89 -26.639 0.89 -26.639 0.448 62.828
24933.458 0.449 62.801 0.889 -26.667 0.889 -26.667 0.449 62.801
24958.417 0.449 62.773 0.889 -26.695 0.889 -26.695 0.449 62.773
24983.375 0.45 62.746 0.889 -26.723 0.889 -26.723 0.45 62.746
25008.333 0.45 62.718 0.889 -26.751 0.889 -26.751 0.45 62.718
25033.292 0.451 62.691 0.889 -26.779 0.889 -26.779 0.451 62.691
25058.25 0.451 62.664 0.888 -26.807 0.888 -26.807 0.451 62.664
25083.208 0.451 62.636 0.888 -26.835 0.888 -26.835 0.451 62.636
25108.167 0.452 62.609 0.888 -26.863 0.888 -26.863 0.452 62.609
25133.125 0.452 62.582 0.888 -26.891 0.888 -26.891 0.452 62.582
25158.083 0.453 62.555 0.887 -26.919 0.887 -26.919 0.453 62.555
25183.042 0.453 62.527 0.887 -26.946 0.887 -26.946 0.453 62.527
25208 0.454 62.5 0.887 -26.974 0.887 -26.974 0.454 62.5
25232.958 0.454 62.473 0.887 -27.002 0.887 -27.002 0.454 62.473
25257.917 0.454 62.446 0.887 -27.03 0.887 -27.03 0.454 62.446
25282.875 0.455 62.419 0.886 -27.058 0.886 -27.058 0.455 62.419
25307.833 0.455 62.391 0.886 -27.086 0.886 -27.086 0.455 62.391
25332.792 0.456 62.364 0.886 -27.113 0.886 -27.113 0.456 62.364
25357.75 0.456 62.337 0.886 -27.141 0.886 -27.141 0.456 62.337
25382.708 0.457 62.31 0.886 -27.169 0.886 -27.169 0.457 62.31
25407.667 0.457 62.283 0.885 -27.197 0.885 -27.197 0.457 62.283
25432.625 0.457 62.256 0.885 -27.224 0.885 -27.224 0.457 62.256
25457.583 0.458 62.229 0.885 -27.252 0.885 -27.252 0.458 62.229
25482.542 0.458 62.202 0.885 -27.28 0.885 -27.28 0.458 62.202
25507.5 0.459 62.175 0.884 -27.307 0.884 -27.307 0.459 62.175
25532.458 0.459 62.148 0.884 -27.335 0.884 -27.335 0.459 62.148
25557.417 0.46 62.121 0.884 -27.362 0.884 -27.362 0.46 62.121
25582.375 0.46 62.094 0.884 -27.39 0.884 -27.39 0.46 62.094
25607.333 0.46 62.067 0.884 -27.418 0.884 -27.418 0.46 62.067
25632.292 0.461 62.04 0.883 -27.445 0.883 -27.445 0.461 62.04
25657.25 0.461 62.013 0.883 -27.473 0.883 -27.473 0.461 62.013
25682.208 0.462 61.986 0.883 -27.5 0.883 -27.5 0.462 61.986
25707.167 0.462 61.959 0.883 -27.528 0.883 -27.528 0.462 61.959
25732.125 0.463 61.932 0.882 -27.555 0.882 -27.555 0.463 61.932
25757.083 0.463 61.905 0.882 -27.583 0.882 -27.583 0.463 61.905
25782.042 0.463 61.878 0.882 -27.61 0.882 -27.61 0.463 61.878
25807 0.464 61.852 0.882 -27.638 0.882 -27.638 0.464 61.852
25831.958 0.464 61.825 0.882 -27.665 0.882 -27.665 0.464 61.825
25856.917 0.465 61.798 0.881 -27.692 0.881 -27.692 0.465 61.798
25881.875 0.465 61.771 0.881 -27.72 0.881 -27.72 0.465 61.771
25906.833 0.466 61.745 0.881 -27.747 0.881 -27.747 0.466 61.745
25931.792 0.466 61.718 0.881 -27.774 0.881 -27.774 0.466 61.718
25956.75 0.466 61.691 0.88 -27.802 0.88 -27.802 0.466 61.691
25981.708 0.467 61.664 0.88 -27.829 0.88 -27.829 0.467 61.664
26006.667 0.467 61.638 0.88 -27.856 0.88 -27.856 0.467 61.638
26031.625 0.468 61.611 0.88 -27.883 0.88 -27.883 0.468 61.611
26056.583 0.468 61.584 0.88 -27.911 0.88 -27.911 0.468 61.584
26081.542 0.469 61.558 0.879 -27.938 0.879 -27.938 0.469 61.558
26106.5 0.469 61.531 0.879 -27.965 0.879 -27.965 0.469 61.531
26131.458 0.469 61.504 0.879 -27.992 0.879 -27.992 0.469 61.504
26156.417 0.47 61.478 0.879 -28.02 0.879 -28.02 0.47 61.478
26181.375 0.47 61.451 0.878 -28.047 0.878 -28.047 0.47 61.451
26206.333 0.471 61.425 0.878 -28.074 0.878 -28.074 0.471 61.425
26231.292 0.471 61.398 0.878 -28.101 0.878 -28.101 0.471 61.398
26256.25 0.471 61.372 0.878 -28.128 0.878 -28.128 0.471 61.372
26281.208 0.472 61.345 0.878 -28.155 0.878 -28.155 0.472 61.345
26306.167 0.472 61.319 0.877 -28.182 0.877 -28.182 0.472 61.319
26331.125 0.473 61.292 0.877 -28.209 0.877 -28.209 0.473 61.292
26356.083 0.473 61.266 0.877 -28.236 0.877 -28.236 0.473 61.266
26381.042 0.474 61.239 0.877 -28.263 0.877 -28.263 0.474 61.239
26406 0.474 61.213 0.876 -28.29 0.876 -28.29 0.474 61.213
26430.958 0.474 61.186 0.876 -28.317 0.876 -28.317 0.474 61.186
26455.917 0.475 61.16 0.876 -28.344 0.876 -28.344 0.475 61.16
26480.875 0.475 61.134 0.876 -28.371 0.876 -28.371 0.475 61.134
26505.833 0.476 61.107 0.876 -28.398 0.876 -28.398 0.476 61.107
26530.792 0.476 61.081 0.875 -28.425 0.875 -28.425 0.476 61.081
26555.75 0.476 61.055 0.875 -28.452 0.875 -28.452 0.476 61.055
26580.708 0.477 61.028 0.875 -28.479 0.875 -28.479 0.477 61.028
26605.667 0.477 61.002 0.875 -28.506 0.875 -28.506 0.477 61.002
26630.625 0.478 60.976 0.874 -28.532 0.874 -28.532 0.478 60.976
26655.583 0.478 60.949 0.874 -28.559 0.874 -28.559 0.478 60.949
26680.542 0.478 60.923 0.874 -28.586 0.874 -28.586 0.478 60.923
26705.5 0.479 60.897 0.874 -28.613 0.874 -28.613 0.479 60.897
26730.458 0.479 60.871 0.874 -28.639 0.874 -28.639 0.479 60.871
26755.417 0.48 60.845 0.873 -28.666 0.873 -28.666 0.48 60.845
26780.375 0.48 60.818 0.873 -28.693 0.873 -28.693 0.48 60.818
26805.333 0.481 60.792 0.873 -28.72 0.873 -28.72 0.481 60.792
26830.292 0.481 60.766 0.873 -28.746 0.873 -28.746 0.481 60.766
26855.25 0.481 60.74 0.872 -28.773 0.872 -28.773 0.481 60.74
26880.208 0.482 60.714 0.872 -28.8 0.872 -28.8 0.482 60.714
26905.167 0.482 60.688 0.872 -28.826 0.872 -28.826 0.482 60.688
26930.125 0.483 60.662 0.872 -28.853 0.872 -28.853 0.483 60.662
26955.083 0.483 60.635 0.872 -28.88 0.872 -28.88 0.483 60.635
26980.042 0.483 60.609 0.871 -28.906 0.871 -28.906 0.483 60.609
27005 0.484 60.583 0.871 -28.933 0.871 -28.933 0.484 60.583
27029.958 0.484 60.557 0.871 -28.959 0.871 -28.959 0.484 60.557
27054.917 0.485 60.531 0.871 -28.986 0.871 -28.986 0.485 60.531
27079.875 0.485 60.505 0.87 -29.012 0.87 -29.012 0.485 60.505
27104.833 0.485 60.479 0.87 -29.039 0.87 -29.039 0.485 60.479
27129.792 0.486 60.453 0.87 -29.065 0.87 -29.065 0.486 60.453
27154.75 0.486 60.428 0.87 -29.092 0.87 -29.092 0.486 60.428
27179.708 0.487 60.402 0.87 -29.118 0.87 -29.118 0.487 60.402
27204.667 0.487 60.376 0.869 -29.145 0.869 -29.145 0.487 60.376
27229.625 0.487 60.35 0.869 -29.171 0.869 -29.171 0.487 60.35
27254.583 0.488 60.324 0.869 -29.197 0.869 -29.197 0.488 60.324
27279.542 0.488 60.298 0.869 -29.224 0.869 -29.224 0.488 60.298
27304.5 0.489 60.272 0.868 -29.25 0.868 -29.25 0.489 60.272
27329.458 0.489 60.246 0.868 -29.276 0.868 -29.276 0.489 60.246
27354.417 0.489 60.221 0.868 -29.303 0.868 -29.303 0.489 60.221
27379.375 0.49 60.195 0.868 -29.329 0.868 -29.329 0.49 60.195
27404.333 0.49 60.169 0.868 -29.355 0.868 -29.355 0.49 60.169
27429.292 0.491 60.143 0.867 -29.382 0.867 -29.382 0.491 60.143
27454.25 0.491 60.118 0.867 -29.408 0.867 -29.408 0.491 60.118
27479.208 0.491 60.092 0.867 -29.434 0.867 -29.434 0.491 60.092
27504.167 0.492 60.066 0.867 -29.46 0.867 -29.46 0.492 60.066
27529.125 0.492 60.04 0.866 -29.487 0.866 -29.487 0.492 60.04
27554.083 0.493 60.015 0.866 -29.513 0.866 -29.513 0.493 60.015
27579.042 0.493 59.989 0.866 -29.539 0.866 -29.539 0.493 59.989
27604 0.493 59.963 0.866 -29.565 0.866 -29.565 0.493 59.963
27628.958 0.494 59.938 0.866 -29.591 0.866 -29.591 0.494 59.938
27653.917 0.494 59.912 0.865 -29.617 0.865 -29.617 0.494 59.912
27678.875 0.495 59.887 0.865 -29.643 0.865 -29.643 0.495 59.887
27703.833 0.495 59.861 0.865 -29.67 0.865 -29.67 0.495 59.861
27728.792 0.495 59.835 0.865 -29.696 0.865 -29.696 0.495 59.835
27753.75 0.496 59.81 0.864 -29.722 0.864 -29.722 0.496 59.81
27778.708 0.496 59.784 0.864 -29.748 0.864 -29.748 0.496 59.784
27803.667 0.497 59.759 0.864 -29.774 0.864 -29.774 0.497 59.759
27828.625 0.497 59.733 0.864 -29.8 0.864 -29.8 0.497 59.733
27853.583 0.497 59.708 0.863 -29.826 0.863 -29.826 0.497 59.708
27878.542 0.498 59.682 0.863 -29.852 0.863 -29.852 0.498 59.682
27903.5 0.498 59.657 0.863 -29.878 0.863 -29.878 0.498 59.657
27928.458 0.499 59.631 0.863 -29.904 0.863 -29.904 0.499 59.631
27953.417 0.499 59.606 0.863 -29.929 0.863 -29.929 0.499 59.606
27978.375 0.499 59.581 0.862 -29.955 0.862 -29.955 0.499 59.581
28003.333 0.5 59.555 0.862 -29.981 0.862 -29.981 0.5 59.555
28028.292 0.5 59.53 0.862 -30.007 0.862 -30.007 0.5 59.53
28053.25 0.501 59.504 0.862 -30.033 0.862 -30.033 0.501 59.504
28078.208 0.501 59.479 0.861 -30.059 0.861 -30.059 0.501 59.479
28103.167 0.501 59.454 0.861 -30.085 0.861 -30.085 0.501 59.454
28128.125 0.502 59.428 0.861 -30.11 0.861 -30.11 0.502 59.428
28153.083 0.502 59.403 0.861 -30.136 0.861 -30.136 0.502 59.403
28178.042 0.502 59.378 0.861 -30.162 0.861 -30.162 0.502 59.378
28203 0.503 59.352 0.86 -30.188 0.86 -30.188 0.503 59.352
28227.958 0.503 59.327 0.86 -30.213 0.86 -30.213 0.503 59.327
28252.917 0.504 59.302 0.86 -30.239 0.86 -30.239 0.504 59.302
28277.875 0.504 59.277 0.86 -30.265 0.86 -30.265 0.504 59.277
28302.833 0.504 59.252 0.859 -30.29 0.859 -30.29 0.504 59.252
28327.792 0.505 59.226 0.859 -30.316 0.859 -30.316 0.505 59.226
28352.75 0.505 59.201 0.859 -30.342 0.859 -30.342 0.505 59.201
28377.708 0.506 59.176 0.859 -30.367 0.859 -30.367 0.506 59.176
28402.667 0.506 59.151 0.859 -30.393 0.859 -30.393 0.506 59.151
28427.625 0.506 59.126 0.858 -30.419 0.858 -30.419 0.506 59.126
28452.583 0.507 59.101 0.858 -30.444 0.858 -30.444 0.507 59.101
28477.542 0.507 59.076 0.858 -30.47 0.858 -30.47 0.507 59.076
28502.5 0.507 59.05 0.858 -30.495 0.858 -30.495 0.507 59.05
28527.458 0.508 59.025 0.857 -30.521 0.857 -30.521 0.508 59.025
28552.417 0.508 59 0.857 -30.546 0.857 -30.546 0.508 59
28577.375 0.509 58.975 0.857 -30.572 0.857 -30.572 0.509 58.975
28602.333 0.509 58.95 0.857 -30.597 0.857 -30.597 0.509 58.95
28627.292 0.509 58.925 0.857 -30.623 0.857 -30.623 0.509 58.925
28652.25 0.51 58.9 0.856 -30.648 0.856 -30.648 0.51 58.9
28677.208 0.51 58.875 0.856 -30.674 0.856 -30.674 0.51 58.875
28702.167 0.511 58.85 0.856 -30.699 0.856 -30.699 0.511 58.85
28727.125 0.511 58.825 0.856 -30.725 0.856 -30.725 0.511 58.825
28752.083 0.511 58.8 0.855 -30.75 0.855 -30.75 0.511 58.8
28777.042 0.512 58.776 0.855 -30.775 0.855 -30.775 0.512 58.776
28802 0.512 58.751 0.855 -30.801 0.855 -30.801 0.512 58.751
28826.958 0.512 58.726 0.855 -30.826 0.855 -30.826 0.512 58.726
28851.917 0.513 58.701 0.854 -30.851 0.854 -30.851 0.513 58.701
28876.875 0.513 58.676 0.854 -30.877 0.854 -30.877 0.513 58.676
28901.833 0.514 58.651 0.854 -30.902 0.854 -30.902 0.514 58.651
28926.792 0.514 58.626 0.854 -30.927 0.854 -30.927 0.514 58.626
28951.75 0.514 58.602 0.854 -30.952 0.854 -30.952 0.514 58.602
28976.708 0.515 58.577 0.853 -30.978 0.853 -30.978 0.515 58.577
29001.667 0.515 58.552 0.853 -31.003 0.853 -31.003 0.515 58.552
29026.625 0.515 58.527 0.853 -31.028 0.853 -31.028 0.515 58.527
29051.583 0.516 58.503 0.853 -31.053 0.853 -31.053 0.516 58.503
29076.542 0.516 58.478 0.852 -31.078 0.852 -31.078 0.516 58.478
29101.5 0.517 58.453 0.852 -31.104 0.852 -31.104 0.517 58.453
29126.458 0.517 58.428 0.852 -31.129 0.852 -31.129 0.517 58.428
29151.417 0.517 58.404 0.852 -31.154 0.852 -31.154 0.517 58.404
29176.375 0.518 58.379 0.852 -31.179 0.852 -31.179 0.518 58.379
29201.333 0.518 58.354 0.851 -31.204 0.851 -31.204 0.518 58.354
29226.292 0.518 58.33 0.851 -31.229 0.851 -31.229 0.518 58.33
29251.25 0.519 58.305 0.851 -31.254 0.851 -31.254 0.519 58.305
29276.208 0.519 58.281 0.851 -31.279 0.851 -31.279 0.519 58.281
29301.167 0.52 58.256 0.85 -31.304 0.85 -31.304 0.52 58.256
29326.125 0.52 58.231 0.85 -31.329 0.85 -31.329 0.52 58.231
29351.083 0.52 58.207 0.85 -31.354 0.85 -31.354 0.52 58.207
29376.042 0.521 58.182 0.85 -31.379 0.85 -31.379 0.521 58.182
29401 0.521 58.158 0.85 -31.404 0.85 -31.404 0.521 58.158
29425.958 0.521 58.133 0.849 -31.429 0.849 -31.429 0.521 58.133
29450.917 0.522 58.109 0.849 -31.454 0.849 -31.454 0.522 58.109
29475.875 0.522 58.084 0.849 -31.479 0.849 -31.479 0.522 58.084
29500.833 0.523 58.06 0.849 -31.504 0.849 -31.504 0.523 58.06
29525.792 0.523 58.035 0.848 -31.529 0.848 -31.529 0.523 58.035
29550.75 0.523 58.011 0.848 -31.554 0.848 -31.554 0.523 58.011
29575.708 0.524 57.986 0.848 -31.578 0.848 -31.578 0.524 57.986
29600.667 0.524 57.962 0.848 -31.603 0.848 -31.603 0.524 57.962
29625.625 0.524 57.938 0.847 -31.628 0.847 -31.628 0.524 57.938
29650.583 0.525 57.913 0.847 -31.653 0.847 -31.653 0.525 57.913
29675.542 0.525 57.889 0.847 -31.678 0.847 -31.678 0.525 57.889
29700.5 0.526 57.865 0.847 -31.702 0.847 -31.702 0.526 57.865
29725.458 0.526 57.84 0.847 -31.727 0.847 -31.727 0.526 57.84
29750.417 0.526 57.816 0.846 -31.752 0.846 -31.752 0.526 57.816
29775.375 0.527 57.792 0.846 -31.777 0.846 -31.777 0.527 57.792
29800.333 0.527 57.767 0.846 -31.801 0.846 -31.801 0.527 57.767
29825.292 0.527 57.743 0.846 -31.826 0.846 -31.826 0.527 57.743
29850.25 0.528 57.719 0.845 -31.851 0.845 -31.851 0.528 57.719
29875.208 0.528 57.695 0.845 -31.875 0.845 -31.875 0.528 57.695
29900.167 0.528 57.67 0.845 -31.9 0.845 -31.9 0.528 57.67
29925.125 0.529 57.646 0.845 -31.925 0.845 -31.925 0.529 57.646
29950.083 0.529 57.622 0.845 -31.949 0.845 -31.949 0.529 57.622
29975.042 0.53 57.598 0.844 -31.974 0.844 -31.974 0.53 57.598
30000 0.53 57.574 0.844 -31.998 0.844 -31.998 0.53 57.574
