!	AVX Thin Film Operation 	Date: April 2014		
!	Description: Accu-P® Series, Thin Film  SMD RF Capacitor
!	Part Number: 02013K5R0ABSTR					
!								
# MHZ S MA R 50

50 0.988 -8.928 0.155 81.056 0.155 81.056 0.988 -8.928
74.958 0.973 -13.255 0.229 76.721 0.229 76.721 0.973 -13.255
99.917 0.954 -17.435 0.3 72.532 0.3 72.532 0.954 -17.435
124.875 0.931 -21.435 0.365 68.524 0.365 68.524 0.931 -21.435
149.833 0.904 -25.231 0.426 64.72 0.426 64.72 0.904 -25.231
174.792 0.876 -28.808 0.482 61.135 0.482 61.135 0.876 -28.808
199.75 0.846 -32.16 0.532 57.775 0.532 57.775 0.846 -32.16
224.708 0.816 -35.286 0.578 54.64 0.578 54.64 0.816 -35.286
249.667 0.785 -38.193 0.618 51.725 0.618 51.725 0.785 -38.193
274.625 0.755 -40.89 0.655 49.02 0.655 49.02 0.755 -40.89
299.583 0.726 -43.389 0.687 46.513 0.687 46.513 0.726 -43.389
324.542 0.697 -45.702 0.716 44.192 0.716 44.192 0.697 -45.702
349.5 0.67 -47.843 0.741 42.042 0.741 42.042 0.67 -47.843
374.458 0.643 -49.826 0.764 40.051 0.764 40.051 0.643 -49.826
399.417 0.618 -51.663 0.784 38.205 0.784 38.205 0.618 -51.663
424.375 0.595 -53.368 0.802 36.492 0.802 36.492 0.595 -53.368
449.333 0.572 -54.95 0.819 34.901 0.819 34.901 0.572 -54.95
474.292 0.551 -56.422 0.833 33.421 0.833 33.421 0.551 -56.422
499.25 0.531 -57.793 0.846 32.042 0.846 32.042 0.531 -57.793
524.208 0.511 -59.071 0.858 30.755 0.858 30.755 0.511 -59.071
549.167 0.493 -60.265 0.868 29.553 0.868 29.553 0.493 -60.265
574.125 0.476 -61.382 0.878 28.427 0.878 28.427 0.476 -61.382
599.083 0.46 -62.428 0.886 27.372 0.886 27.372 0.46 -62.428
624.042 0.444 -63.41 0.894 26.381 0.894 26.381 0.444 -63.41
649 0.43 -64.334 0.901 25.449 0.901 25.449 0.43 -64.334
673.958 0.416 -65.203 0.908 24.571 0.908 24.571 0.416 -65.203
698.917 0.403 -66.022 0.914 23.743 0.914 23.743 0.403 -66.022
723.875 0.39 -66.795 0.919 22.96 0.919 22.96 0.39 -66.795
748.833 0.378 -67.526 0.924 22.22 0.924 22.22 0.378 -67.526
773.792 0.367 -68.219 0.929 21.519 0.929 21.519 0.367 -68.219
798.75 0.356 -68.875 0.933 20.853 0.933 20.853 0.356 -68.875
823.708 0.346 -69.498 0.937 20.221 0.937 20.221 0.346 -69.498
848.667 0.336 -70.089 0.94 19.62 0.94 19.62 0.336 -70.089
873.625 0.326 -70.652 0.944 19.048 0.944 19.048 0.326 -70.652
898.583 0.317 -71.189 0.947 18.502 0.947 18.502 0.317 -71.189
923.542 0.309 -71.7 0.949 17.981 0.949 17.981 0.309 -71.7
948.5 0.3 -72.189 0.952 17.483 0.952 17.483 0.3 -72.189
973.458 0.292 -72.655 0.955 17.006 0.955 17.006 0.292 -72.655
998.417 0.285 -73.101 0.957 16.55 0.957 16.55 0.285 -73.101
1023.375 0.278 -73.529 0.959 16.113 0.959 16.113 0.278 -73.529
1048.333 0.27 -73.938 0.961 15.693 0.961 15.693 0.27 -73.938
1073.292 0.264 -74.331 0.963 15.29 0.963 15.29 0.264 -74.331
1098.25 0.257 -74.708 0.965 14.903 0.965 14.903 0.257 -74.708
1123.208 0.251 -75.071 0.966 14.53 0.966 14.53 0.251 -75.071
1148.167 0.245 -75.419 0.968 14.171 0.968 14.171 0.245 -75.419
1173.125 0.239 -75.754 0.969 13.825 0.969 13.825 0.239 -75.754
1198.083 0.233 -76.077 0.971 13.491 0.971 13.491 0.233 -76.077
1223.042 0.228 -76.389 0.972 13.169 0.972 13.169 0.228 -76.389
1248 0.223 -76.689 0.973 12.858 0.973 12.858 0.223 -76.689
1272.958 0.217 -76.978 0.974 12.557 0.974 12.557 0.217 -76.978
1297.917 0.212 -77.258 0.975 12.266 0.975 12.266 0.212 -77.258
1322.875 0.208 -77.528 0.976 11.984 0.976 11.984 0.208 -77.528
1347.833 0.203 -77.79 0.977 11.711 0.977 11.711 0.203 -77.79
1372.792 0.198 -78.042 0.978 11.446 0.978 11.446 0.198 -78.042
1397.75 0.194 -78.287 0.979 11.19 0.979 11.19 0.194 -78.287
1422.708 0.19 -78.524 0.98 10.941 0.98 10.941 0.19 -78.524
1447.667 0.186 -78.753 0.981 10.699 0.981 10.699 0.186 -78.753
1472.625 0.182 -78.976 0.982 10.463 0.982 10.463 0.182 -78.976
1497.583 0.178 -79.192 0.982 10.235 0.982 10.235 0.178 -79.192
1522.542 0.174 -79.401 0.983 10.013 0.983 10.013 0.174 -79.401
1547.5 0.17 -79.604 0.984 9.796 0.984 9.796 0.17 -79.604
1572.458 0.167 -79.802 0.984 9.585 0.984 9.585 0.167 -79.802
1597.417 0.163 -79.993 0.985 9.38 0.985 9.38 0.163 -79.993
1622.375 0.16 -80.18 0.985 9.18 0.985 9.18 0.16 -80.18
1647.333 0.156 -80.361 0.986 8.985 0.986 8.985 0.156 -80.361
1672.292 0.153 -80.537 0.986 8.794 0.986 8.794 0.153 -80.537
1697.25 0.15 -80.708 0.987 8.608 0.987 8.608 0.15 -80.708
1722.208 0.147 -80.874 0.987 8.427 0.987 8.427 0.147 -80.874
1747.167 0.143 -81.037 0.988 8.249 0.988 8.249 0.143 -81.037
1772.125 0.14 -81.194 0.988 8.076 0.988 8.076 0.14 -81.194
1797.083 0.138 -81.348 0.989 7.906 0.989 7.906 0.138 -81.348
1822.042 0.135 -81.498 0.989 7.741 0.989 7.741 0.135 -81.498
1847 0.132 -81.643 0.989 7.578 0.989 7.578 0.132 -81.643
1871.958 0.129 -81.785 0.99 7.42 0.99 7.42 0.129 -81.785
1896.917 0.126 -81.924 0.99 7.264 0.99 7.264 0.126 -81.924
1921.875 0.124 -82.059 0.991 7.112 0.991 7.112 0.124 -82.059
1946.833 0.121 -82.19 0.991 6.962 0.991 6.962 0.121 -82.19
1971.792 0.119 -82.318 0.991 6.816 0.991 6.816 0.119 -82.318
1996.75 0.116 -82.443 0.991 6.672 0.991 6.672 0.116 -82.443
2021.708 0.114 -82.564 0.992 6.531 0.992 6.531 0.114 -82.564
2046.667 0.111 -82.683 0.992 6.393 0.992 6.393 0.111 -82.683
2071.625 0.109 -82.798 0.992 6.258 0.992 6.258 0.109 -82.798
2096.583 0.107 -82.911 0.992 6.124 0.992 6.124 0.107 -82.911
2121.542 0.104 -83.021 0.993 5.993 0.993 5.993 0.104 -83.021
2146.5 0.102 -83.127 0.993 5.865 0.993 5.865 0.102 -83.127
2171.458 0.1 -83.231 0.993 5.739 0.993 5.739 0.1 -83.231
2196.417 0.098 -83.333 0.993 5.614 0.993 5.614 0.098 -83.333
2221.375 0.096 -83.431 0.994 5.492 0.994 5.492 0.096 -83.431
2246.333 0.094 -83.527 0.994 5.372 0.994 5.372 0.094 -83.527
2271.292 0.092 -83.62 0.994 5.254 0.994 5.254 0.092 -83.62
2296.25 0.09 -83.711 0.994 5.137 0.994 5.137 0.09 -83.711
2321.208 0.088 -83.799 0.994 5.023 0.994 5.023 0.088 -83.799
2346.167 0.086 -83.885 0.995 4.91 0.995 4.91 0.086 -83.885
2371.125 0.084 -83.968 0.995 4.799 0.995 4.799 0.084 -83.968
2396.083 0.082 -84.048 0.995 4.69 0.995 4.69 0.082 -84.048
2421.042 0.08 -84.126 0.995 4.582 0.995 4.582 0.08 -84.126
2446 0.078 -84.202 0.995 4.476 0.995 4.476 0.078 -84.202
2470.958 0.076 -84.275 0.995 4.371 0.995 4.371 0.076 -84.275
2495.917 0.074 -84.345 0.995 4.268 0.995 4.268 0.074 -84.345
2520.875 0.073 -84.413 0.996 4.166 0.996 4.166 0.073 -84.413
2545.833 0.071 -84.478 0.996 4.065 0.996 4.065 0.071 -84.478
2570.792 0.069 -84.541 0.996 3.966 0.996 3.966 0.069 -84.541
2595.75 0.067 -84.601 0.996 3.868 0.996 3.868 0.067 -84.601
2620.708 0.066 -84.658 0.996 3.772 0.996 3.772 0.066 -84.658
2645.667 0.064 -84.713 0.996 3.677 0.996 3.677 0.064 -84.713
2670.625 0.063 -84.764 0.996 3.583 0.996 3.583 0.063 -84.764
2695.583 0.061 -84.813 0.996 3.49 0.996 3.49 0.061 -84.813
2720.542 0.059 -84.859 0.996 3.398 0.996 3.398 0.059 -84.859
2745.5 0.058 -84.902 0.997 3.307 0.997 3.307 0.058 -84.902
2770.458 0.056 -84.942 0.997 3.217 0.997 3.217 0.056 -84.942
2795.417 0.055 -84.978 0.997 3.129 0.997 3.129 0.055 -84.978
2820.375 0.053 -85.011 0.997 3.041 0.997 3.041 0.053 -85.011
2845.333 0.052 -85.04 0.997 2.955 0.997 2.955 0.052 -85.04
2870.292 0.05 -85.066 0.997 2.869 0.997 2.869 0.05 -85.066
2895.25 0.049 -85.088 0.997 2.784 0.997 2.784 0.049 -85.088
2920.208 0.047 -85.106 0.997 2.701 0.997 2.701 0.047 -85.106
2945.167 0.046 -85.119 0.997 2.618 0.997 2.618 0.046 -85.119
2970.125 0.044 -85.128 0.997 2.536 0.997 2.536 0.044 -85.128
2995.083 0.043 -85.132 0.997 2.455 0.997 2.455 0.043 -85.132
3020.042 0.041 -85.13 0.997 2.375 0.997 2.375 0.041 -85.13
3045 0.04 -85.124 0.997 2.295 0.997 2.295 0.04 -85.124
3069.958 0.039 -85.111 0.997 2.216 0.997 2.216 0.039 -85.111
3094.917 0.037 -85.091 0.997 2.139 0.997 2.139 0.037 -85.091
3119.875 0.036 -85.065 0.998 2.061 0.998 2.061 0.036 -85.065
3144.833 0.035 -85.031 0.998 1.985 0.998 1.985 0.035 -85.031
3169.792 0.033 -84.988 0.998 1.909 0.998 1.909 0.033 -84.988
3194.75 0.032 -84.937 0.998 1.834 0.998 1.834 0.032 -84.937
3219.708 0.031 -84.875 0.998 1.76 0.998 1.76 0.031 -84.875
3244.667 0.029 -84.802 0.998 1.687 0.998 1.687 0.029 -84.802
3269.625 0.028 -84.716 0.998 1.614 0.998 1.614 0.028 -84.716
3294.583 0.027 -84.617 0.998 1.541 0.998 1.541 0.027 -84.617
3319.542 0.026 -84.502 0.998 1.47 0.998 1.47 0.026 -84.502
3344.5 0.024 -84.369 0.998 1.399 0.998 1.399 0.024 -84.369
3369.458 0.023 -84.215 0.998 1.328 0.998 1.328 0.023 -84.215
3394.417 0.022 -84.039 0.998 1.258 0.998 1.258 0.022 -84.039
3419.375 0.021 -83.835 0.998 1.189 0.998 1.189 0.021 -83.835
3444.333 0.02 -83.6 0.998 1.12 0.998 1.12 0.02 -83.6
3469.292 0.018 -83.328 0.998 1.052 0.998 1.052 0.018 -83.328
3494.25 0.017 -83.012 0.998 0.984 0.998 0.984 0.017 -83.012
3519.208 0.016 -82.644 0.998 0.917 0.998 0.917 0.016 -82.644
3544.167 0.015 -82.211 0.998 0.851 0.998 0.851 0.015 -82.211
3569.125 0.014 -81.699 0.998 0.785 0.998 0.785 0.014 -81.699
3594.083 0.013 -81.087 0.998 0.719 0.998 0.719 0.013 -81.087
3619.042 0.012 -80.349 0.998 0.654 0.998 0.654 0.012 -80.349
3644 0.01 -79.446 0.998 0.589 0.998 0.589 0.01 -79.446
3668.958 9.34e-3 -78.321 0.998 0.525 0.998 0.525 9.34e-3 -78.321
3693.917 8.253e-3 -76.892 0.998 0.461 0.998 0.461 8.253e-3 -76.892
3718.875 7.179e-3 -75.026 0.998 0.398 0.998 0.398 7.179e-3 -75.026
3743.833 6.125e-3 -72.506 0.998 0.335 0.998 0.335 6.125e-3 -72.506
3768.792 5.095e-3 -68.954 0.998 0.273 0.998 0.273 5.095e-3 -68.954
3793.75 4.101e-3 -63.65 0.998 0.211 0.998 0.211 4.101e-3 -63.65
3818.708 3.173e-3 -55.134 0.998 0.149 0.998 0.149 3.173e-3 -55.134
3843.667 2.375e-3 -40.367 0.998 0.088 0.998 0.088 2.375e-3 -40.367
3868.625 1.87e-3 -14.87 0.998 0.028 0.998 0.028 1.87e-3 -14.87
3893.583 1.895e-3 17.548 0.998 -0.033 0.998 -0.033 1.895e-3 17.548
3918.542 2.426e-3 41.769 0.998 -0.093 0.998 -0.093 2.426e-3 41.769
3943.5 3.215e-3 55.65 0.998 -0.152 0.998 -0.152 3.215e-3 55.65
3968.458 4.111e-3 63.714 0.998 -0.212 0.998 -0.212 4.111e-3 63.714
3993.417 5.054e-3 68.781 0.998 -0.27 0.998 -0.27 5.054e-3 68.781
4018.375 6.018e-3 72.199 0.998 -0.329 0.998 -0.329 6.018e-3 72.199
4043.333 6.993e-3 74.638 0.998 -0.387 0.998 -0.387 6.993e-3 74.638
4068.292 7.972e-3 76.455 0.998 -0.445 0.998 -0.445 7.972e-3 76.455
4093.25 8.951e-3 77.852 0.998 -0.502 0.998 -0.502 8.951e-3 77.852
4118.208 9.93e-3 78.957 0.998 -0.559 0.998 -0.559 9.93e-3 78.957
4143.167 0.011 79.848 0.998 -0.616 0.998 -0.616 0.011 79.848
4168.125 0.012 80.579 0.998 -0.673 0.998 -0.673 0.012 80.579
4193.083 0.013 81.188 0.998 -0.729 0.998 -0.729 0.013 81.188
4218.042 0.014 81.701 0.998 -0.785 0.998 -0.785 0.014 81.701
4243 0.015 82.137 0.998 -0.84 0.998 -0.84 0.015 82.137
4267.958 0.016 82.511 0.998 -0.896 0.998 -0.896 0.016 82.511
4292.917 0.017 82.834 0.998 -0.951 0.998 -0.951 0.017 82.834
4317.875 0.018 83.115 0.998 -1.005 0.998 -1.005 0.018 83.115
4342.833 0.019 83.361 0.998 -1.06 0.998 -1.06 0.019 83.361
4367.792 0.02 83.576 0.998 -1.114 0.998 -1.114 0.02 83.576
4392.75 0.02 83.766 0.998 -1.168 0.998 -1.168 0.02 83.766
4417.708 0.021 83.934 0.998 -1.221 0.998 -1.221 0.021 83.934
4442.667 0.022 84.082 0.998 -1.274 0.998 -1.274 0.022 84.082
4467.625 0.023 84.214 0.998 -1.328 0.998 -1.328 0.023 84.214
4492.583 0.024 84.331 0.998 -1.38 0.998 -1.38 0.024 84.331
4517.542 0.025 84.435 0.998 -1.433 0.998 -1.433 0.025 84.435
4542.5 0.026 84.528 0.998 -1.485 0.998 -1.485 0.026 84.528
4567.458 0.027 84.611 0.998 -1.537 0.998 -1.537 0.027 84.611
4592.417 0.028 84.684 0.998 -1.589 0.998 -1.589 0.028 84.684
4617.375 0.029 84.75 0.998 -1.641 0.998 -1.641 0.029 84.75
4642.333 0.03 84.808 0.998 -1.692 0.998 -1.692 0.03 84.808
4667.292 0.03 84.859 0.998 -1.743 0.998 -1.743 0.03 84.859
4692.25 0.031 84.904 0.998 -1.794 0.998 -1.794 0.031 84.904
4717.208 0.032 84.944 0.998 -1.845 0.998 -1.845 0.032 84.944
4742.167 0.033 84.979 0.998 -1.895 0.998 -1.895 0.033 84.979
4767.125 0.034 85.009 0.998 -1.945 0.998 -1.945 0.034 85.009
4792.083 0.035 85.036 0.998 -1.995 0.998 -1.995 0.035 85.036
4817.042 0.036 85.058 0.998 -2.045 0.998 -2.045 0.036 85.058
4842 0.037 85.077 0.998 -2.095 0.998 -2.095 0.037 85.077
4866.958 0.037 85.093 0.997 -2.144 0.997 -2.144 0.037 85.093
4891.917 0.038 85.106 0.997 -2.193 0.997 -2.193 0.038 85.106
4916.875 0.039 85.116 0.997 -2.242 0.997 -2.242 0.039 85.116
4941.833 0.04 85.123 0.997 -2.291 0.997 -2.291 0.04 85.123
4966.792 0.041 85.128 0.997 -2.34 0.997 -2.34 0.041 85.128
4991.75 0.042 85.131 0.997 -2.388 0.997 -2.388 0.042 85.131
5016.708 0.043 85.132 0.997 -2.436 0.997 -2.436 0.043 85.132
5041.667 0.043 85.131 0.997 -2.484 0.997 -2.484 0.043 85.131
5066.625 0.044 85.128 0.997 -2.532 0.997 -2.532 0.044 85.128
5091.583 0.045 85.124 0.997 -2.58 0.997 -2.58 0.045 85.124
5116.542 0.046 85.118 0.997 -2.627 0.997 -2.627 0.046 85.118
5141.5 0.047 85.11 0.997 -2.675 0.997 -2.675 0.047 85.11
5166.458 0.048 85.102 0.997 -2.722 0.997 -2.722 0.048 85.102
5191.417 0.048 85.091 0.997 -2.769 0.997 -2.769 0.048 85.091
5216.375 0.049 85.08 0.997 -2.816 0.997 -2.816 0.049 85.08
5241.333 0.05 85.068 0.997 -2.862 0.997 -2.862 0.05 85.068
5266.292 0.051 85.055 0.997 -2.909 0.997 -2.909 0.051 85.055
5291.25 0.052 85.04 0.997 -2.955 0.997 -2.955 0.052 85.04
5316.208 0.052 85.025 0.997 -3.002 0.997 -3.002 0.052 85.025
5341.167 0.053 85.009 0.997 -3.048 0.997 -3.048 0.053 85.009
5366.125 0.054 84.992 0.997 -3.094 0.997 -3.094 0.054 84.992
5391.083 0.055 84.974 0.997 -3.139 0.997 -3.139 0.055 84.974
5416.042 0.056 84.955 0.997 -3.185 0.997 -3.185 0.056 84.955
5441 0.056 84.936 0.997 -3.23 0.997 -3.23 0.056 84.936
5465.958 0.057 84.916 0.997 -3.276 0.997 -3.276 0.057 84.916
5490.917 0.058 84.896 0.997 -3.321 0.997 -3.321 0.058 84.896
5515.875 0.059 84.874 0.996 -3.366 0.996 -3.366 0.059 84.874
5540.833 0.06 84.853 0.996 -3.411 0.996 -3.411 0.06 84.853
5565.792 0.06 84.83 0.996 -3.456 0.996 -3.456 0.06 84.83
5590.75 0.061 84.808 0.996 -3.5 0.996 -3.5 0.061 84.808
5615.708 0.062 84.785 0.996 -3.545 0.996 -3.545 0.062 84.785
5640.667 0.063 84.761 0.996 -3.589 0.996 -3.589 0.063 84.761
5665.625 0.063 84.737 0.996 -3.633 0.996 -3.633 0.063 84.737
5690.583 0.064 84.712 0.996 -3.677 0.996 -3.677 0.064 84.712
5715.542 0.065 84.687 0.996 -3.721 0.996 -3.721 0.065 84.687
5740.5 0.066 84.662 0.996 -3.765 0.996 -3.765 0.066 84.662
5765.458 0.066 84.636 0.996 -3.809 0.996 -3.809 0.066 84.636
5790.417 0.067 84.611 0.996 -3.852 0.996 -3.852 0.067 84.611
5815.375 0.068 84.584 0.996 -3.896 0.996 -3.896 0.068 84.584
5840.333 0.069 84.558 0.996 -3.939 0.996 -3.939 0.069 84.558
5865.292 0.069 84.531 0.996 -3.982 0.996 -3.982 0.069 84.531
5890.25 0.07 84.504 0.996 -4.026 0.996 -4.026 0.07 84.504
5915.208 0.071 84.476 0.996 -4.069 0.996 -4.069 0.071 84.476
5940.167 0.072 84.449 0.996 -4.112 0.996 -4.112 0.072 84.449
5965.125 0.072 84.421 0.996 -4.154 0.996 -4.154 0.072 84.421
5990.083 0.073 84.393 0.996 -4.197 0.996 -4.197 0.073 84.393
6015.042 0.074 84.364 0.995 -4.24 0.995 -4.24 0.074 84.364
6040 0.075 84.336 0.995 -4.282 0.995 -4.282 0.075 84.336
6064.958 0.075 84.307 0.995 -4.324 0.995 -4.324 0.075 84.307
6089.917 0.076 84.278 0.995 -4.367 0.995 -4.367 0.076 84.278
6114.875 0.077 84.249 0.995 -4.409 0.995 -4.409 0.077 84.249
6139.833 0.078 84.219 0.995 -4.451 0.995 -4.451 0.078 84.219
6164.792 0.078 84.19 0.995 -4.493 0.995 -4.493 0.078 84.19
6189.75 0.079 84.16 0.995 -4.534 0.995 -4.534 0.079 84.16
6214.708 0.08 84.131 0.995 -4.576 0.995 -4.576 0.08 84.131
6239.667 0.081 84.101 0.995 -4.618 0.995 -4.618 0.081 84.101
6264.625 0.081 84.071 0.995 -4.659 0.995 -4.659 0.081 84.071
6289.583 0.082 84.04 0.995 -4.701 0.995 -4.701 0.082 84.04
6314.542 0.083 84.01 0.995 -4.742 0.995 -4.742 0.083 84.01
6339.5 0.083 83.98 0.995 -4.783 0.995 -4.783 0.083 83.98
6364.458 0.084 83.949 0.995 -4.825 0.995 -4.825 0.084 83.949
6389.417 0.085 83.918 0.995 -4.866 0.995 -4.866 0.085 83.918
6414.375 0.086 83.888 0.995 -4.907 0.995 -4.907 0.086 83.888
6439.333 0.086 83.857 0.994 -4.947 0.994 -4.947 0.086 83.857
6464.292 0.087 83.826 0.994 -4.988 0.994 -4.988 0.087 83.826
6489.25 0.088 83.795 0.994 -5.029 0.994 -5.029 0.088 83.795
6514.208 0.088 83.764 0.994 -5.07 0.994 -5.07 0.088 83.764
6539.167 0.089 83.732 0.994 -5.11 0.994 -5.11 0.089 83.732
6564.125 0.09 83.701 0.994 -5.151 0.994 -5.151 0.09 83.701
6589.083 0.09 83.67 0.994 -5.191 0.994 -5.191 0.09 83.67
6614.042 0.091 83.638 0.994 -5.231 0.994 -5.231 0.091 83.638
6639 0.092 83.607 0.994 -5.271 0.994 -5.271 0.092 83.607
6663.958 0.093 83.575 0.994 -5.311 0.994 -5.311 0.093 83.575
6688.917 0.093 83.543 0.994 -5.351 0.994 -5.351 0.093 83.543
6713.875 0.094 83.512 0.994 -5.391 0.994 -5.391 0.094 83.512
6738.833 0.095 83.48 0.994 -5.431 0.994 -5.431 0.095 83.48
6763.792 0.095 83.448 0.994 -5.471 0.994 -5.471 0.095 83.448
6788.75 0.096 83.416 0.994 -5.511 0.994 -5.511 0.096 83.416
6813.708 0.097 83.384 0.994 -5.55 0.994 -5.55 0.097 83.384
6838.667 0.097 83.352 0.993 -5.59 0.993 -5.59 0.097 83.352
6863.625 0.098 83.32 0.993 -5.629 0.993 -5.629 0.098 83.32
6888.583 0.099 83.288 0.993 -5.669 0.993 -5.669 0.099 83.288
6913.542 0.099 83.256 0.993 -5.708 0.993 -5.708 0.099 83.256
6938.5 0.1 83.224 0.993 -5.747 0.993 -5.747 0.1 83.224
6963.458 0.101 83.192 0.993 -5.787 0.993 -5.787 0.101 83.192
6988.417 0.102 83.16 0.993 -5.826 0.993 -5.826 0.102 83.16
7013.375 0.102 83.127 0.993 -5.865 0.993 -5.865 0.102 83.127
7038.333 0.103 83.095 0.993 -5.904 0.993 -5.904 0.103 83.095
7063.292 0.104 83.063 0.993 -5.943 0.993 -5.943 0.104 83.063
7088.25 0.104 83.031 0.993 -5.981 0.993 -5.981 0.104 83.031
7113.208 0.105 82.998 0.993 -6.02 0.993 -6.02 0.105 82.998
7138.167 0.106 82.966 0.993 -6.059 0.993 -6.059 0.106 82.966
7163.125 0.106 82.933 0.993 -6.098 0.993 -6.098 0.106 82.933
7188.083 0.107 82.901 0.992 -6.136 0.992 -6.136 0.107 82.901
7213.042 0.108 82.868 0.992 -6.175 0.992 -6.175 0.108 82.868
7238 0.108 82.836 0.992 -6.213 0.992 -6.213 0.108 82.836
7262.958 0.109 82.804 0.992 -6.251 0.992 -6.251 0.109 82.804
7287.917 0.11 82.771 0.992 -6.29 0.992 -6.29 0.11 82.771
7312.875 0.11 82.739 0.992 -6.328 0.992 -6.328 0.11 82.739
7337.833 0.111 82.706 0.992 -6.366 0.992 -6.366 0.111 82.706
7362.792 0.112 82.673 0.992 -6.404 0.992 -6.404 0.112 82.673
7387.75 0.112 82.641 0.992 -6.442 0.992 -6.442 0.112 82.641
7412.708 0.113 82.608 0.992 -6.48 0.992 -6.48 0.113 82.608
7437.667 0.114 82.576 0.992 -6.518 0.992 -6.518 0.114 82.576
7462.625 0.114 82.543 0.992 -6.556 0.992 -6.556 0.114 82.543
7487.583 0.115 82.511 0.992 -6.594 0.992 -6.594 0.115 82.511
7512.542 0.116 82.478 0.992 -6.632 0.992 -6.632 0.116 82.478
7537.5 0.116 82.445 0.991 -6.669 0.991 -6.669 0.116 82.445
7562.458 0.117 82.413 0.991 -6.707 0.991 -6.707 0.117 82.413
7587.417 0.117 82.38 0.991 -6.745 0.991 -6.745 0.117 82.38
7612.375 0.118 82.347 0.991 -6.782 0.991 -6.782 0.118 82.347
7637.333 0.119 82.315 0.991 -6.82 0.991 -6.82 0.119 82.315
7662.292 0.119 82.282 0.991 -6.857 0.991 -6.857 0.119 82.282
7687.25 0.12 82.249 0.991 -6.894 0.991 -6.894 0.12 82.249
7712.208 0.121 82.217 0.991 -6.932 0.991 -6.932 0.121 82.217
7737.167 0.121 82.184 0.991 -6.969 0.991 -6.969 0.121 82.184
7762.125 0.122 82.152 0.991 -7.006 0.991 -7.006 0.122 82.152
7787.083 0.123 82.119 0.991 -7.043 0.991 -7.043 0.123 82.119
7812.042 0.123 82.086 0.991 -7.08 0.991 -7.08 0.123 82.086
7837 0.124 82.054 0.991 -7.117 0.991 -7.117 0.124 82.054
7861.958 0.125 82.021 0.99 -7.154 0.99 -7.154 0.125 82.021
7886.917 0.125 81.988 0.99 -7.191 0.99 -7.191 0.125 81.988
7911.875 0.126 81.956 0.99 -7.228 0.99 -7.228 0.126 81.956
7936.833 0.126 81.923 0.99 -7.265 0.99 -7.265 0.126 81.923
7961.792 0.127 81.89 0.99 -7.302 0.99 -7.302 0.127 81.89
7986.75 0.128 81.858 0.99 -7.338 0.99 -7.338 0.128 81.858
8011.708 0.128 81.825 0.99 -7.375 0.99 -7.375 0.128 81.825
8036.667 0.129 81.792 0.99 -7.412 0.99 -7.412 0.129 81.792
8061.625 0.13 81.76 0.99 -7.448 0.99 -7.448 0.13 81.76
8086.583 0.13 81.727 0.99 -7.485 0.99 -7.485 0.13 81.727
8111.542 0.131 81.695 0.99 -7.521 0.99 -7.521 0.131 81.695
8136.5 0.132 81.662 0.99 -7.558 0.99 -7.558 0.132 81.662
8161.458 0.132 81.629 0.989 -7.594 0.989 -7.594 0.132 81.629
8186.417 0.133 81.597 0.989 -7.63 0.989 -7.63 0.133 81.597
8211.375 0.133 81.564 0.989 -7.667 0.989 -7.667 0.133 81.564
8236.333 0.134 81.532 0.989 -7.703 0.989 -7.703 0.134 81.532
8261.292 0.135 81.499 0.989 -7.739 0.989 -7.739 0.135 81.499
8286.25 0.135 81.467 0.989 -7.775 0.989 -7.775 0.135 81.467
8311.208 0.136 81.434 0.989 -7.811 0.989 -7.811 0.136 81.434
8336.167 0.137 81.401 0.989 -7.847 0.989 -7.847 0.137 81.401
8361.125 0.137 81.369 0.989 -7.883 0.989 -7.883 0.137 81.369
8386.083 0.138 81.336 0.989 -7.919 0.989 -7.919 0.138 81.336
8411.042 0.138 81.304 0.989 -7.955 0.989 -7.955 0.138 81.304
8436 0.139 81.271 0.988 -7.991 0.988 -7.991 0.139 81.271
8460.958 0.14 81.239 0.988 -8.027 0.988 -8.027 0.14 81.239
8485.917 0.14 81.206 0.988 -8.063 0.988 -8.063 0.14 81.206
8510.875 0.141 81.174 0.988 -8.099 0.988 -8.099 0.141 81.174
8535.833 0.142 81.141 0.988 -8.134 0.988 -8.134 0.142 81.141
8560.792 0.142 81.109 0.988 -8.17 0.988 -8.17 0.142 81.109
8585.75 0.143 81.076 0.988 -8.206 0.988 -8.206 0.143 81.076
8610.708 0.143 81.044 0.988 -8.241 0.988 -8.241 0.143 81.044
8635.667 0.144 81.012 0.988 -8.277 0.988 -8.277 0.144 81.012
8660.625 0.145 80.979 0.988 -8.312 0.988 -8.312 0.145 80.979
8685.583 0.145 80.947 0.988 -8.348 0.988 -8.348 0.145 80.947
8710.542 0.146 80.914 0.988 -8.383 0.988 -8.383 0.146 80.914
8735.5 0.146 80.882 0.987 -8.418 0.987 -8.418 0.146 80.882
8760.458 0.147 80.85 0.987 -8.454 0.987 -8.454 0.147 80.85
8785.417 0.148 80.817 0.987 -8.489 0.987 -8.489 0.148 80.817
8810.375 0.148 80.785 0.987 -8.524 0.987 -8.524 0.148 80.785
8835.333 0.149 80.753 0.987 -8.56 0.987 -8.56 0.149 80.753
8860.292 0.149 80.72 0.987 -8.595 0.987 -8.595 0.149 80.72
8885.25 0.15 80.688 0.987 -8.63 0.987 -8.63 0.15 80.688
8910.208 0.151 80.656 0.987 -8.665 0.987 -8.665 0.151 80.656
8935.167 0.151 80.623 0.987 -8.7 0.987 -8.7 0.151 80.623
8960.125 0.152 80.591 0.987 -8.735 0.987 -8.735 0.152 80.591
8985.083 0.152 80.559 0.987 -8.77 0.987 -8.77 0.152 80.559
9010.042 0.153 80.527 0.986 -8.805 0.986 -8.805 0.153 80.527
9035 0.154 80.494 0.986 -8.84 0.986 -8.84 0.154 80.494
9059.958 0.154 80.462 0.986 -8.875 0.986 -8.875 0.154 80.462
9084.917 0.155 80.43 0.986 -8.91 0.986 -8.91 0.155 80.43
9109.875 0.155 80.398 0.986 -8.945 0.986 -8.945 0.155 80.398
9134.833 0.156 80.365 0.986 -8.979 0.986 -8.979 0.156 80.365
9159.792 0.157 80.333 0.986 -9.014 0.986 -9.014 0.157 80.333
9184.75 0.157 80.301 0.986 -9.049 0.986 -9.049 0.157 80.301
9209.708 0.158 80.269 0.986 -9.083 0.986 -9.083 0.158 80.269
9234.667 0.158 80.237 0.986 -9.118 0.986 -9.118 0.158 80.237
9259.625 0.159 80.205 0.985 -9.153 0.985 -9.153 0.159 80.205
9284.583 0.16 80.173 0.985 -9.187 0.985 -9.187 0.16 80.173
9309.542 0.16 80.141 0.985 -9.222 0.985 -9.222 0.16 80.141
9334.5 0.161 80.108 0.985 -9.256 0.985 -9.256 0.161 80.108
9359.458 0.161 80.076 0.985 -9.291 0.985 -9.291 0.161 80.076
9384.417 0.162 80.044 0.985 -9.325 0.985 -9.325 0.162 80.044
9409.375 0.163 80.012 0.985 -9.36 0.985 -9.36 0.163 80.012
9434.333 0.163 79.98 0.985 -9.394 0.985 -9.394 0.163 79.98
9459.292 0.164 79.948 0.985 -9.428 0.985 -9.428 0.164 79.948
9484.25 0.164 79.916 0.985 -9.463 0.985 -9.463 0.164 79.916
9509.208 0.165 79.884 0.985 -9.497 0.985 -9.497 0.165 79.884
9534.167 0.166 79.852 0.984 -9.531 0.984 -9.531 0.166 79.852
9559.125 0.166 79.82 0.984 -9.565 0.984 -9.565 0.166 79.82
9584.083 0.167 79.788 0.984 -9.599 0.984 -9.599 0.167 79.788
9609.042 0.167 79.756 0.984 -9.634 0.984 -9.634 0.167 79.756
9634 0.168 79.725 0.984 -9.668 0.984 -9.668 0.168 79.725
9658.958 0.169 79.693 0.984 -9.702 0.984 -9.702 0.169 79.693
9683.917 0.169 79.661 0.984 -9.736 0.984 -9.736 0.169 79.661
9708.875 0.17 79.629 0.984 -9.77 0.984 -9.77 0.17 79.629
9733.833 0.17 79.597 0.984 -9.804 0.984 -9.804 0.17 79.597
9758.792 0.171 79.565 0.984 -9.838 0.984 -9.838 0.171 79.565
9783.75 0.171 79.533 0.983 -9.872 0.983 -9.872 0.171 79.533
9808.708 0.172 79.502 0.983 -9.906 0.983 -9.906 0.172 79.502
9833.667 0.173 79.47 0.983 -9.939 0.983 -9.939 0.173 79.47
9858.625 0.173 79.438 0.983 -9.973 0.983 -9.973 0.173 79.438
9883.583 0.174 79.406 0.983 -10.007 0.983 -10.007 0.174 79.406
9908.542 0.174 79.375 0.983 -10.041 0.983 -10.041 0.174 79.375
9933.5 0.175 79.343 0.983 -10.075 0.983 -10.075 0.175 79.343
9958.458 0.176 79.311 0.983 -10.108 0.983 -10.108 0.176 79.311
9983.417 0.176 79.279 0.983 -10.142 0.983 -10.142 0.176 79.279
10008.375 0.177 79.248 0.982 -10.176 0.982 -10.176 0.177 79.248
10033.333 0.177 79.216 0.982 -10.209 0.982 -10.209 0.177 79.216
10058.292 0.178 79.184 0.982 -10.243 0.982 -10.243 0.178 79.184
10083.25 0.178 79.153 0.982 -10.276 0.982 -10.276 0.178 79.153
10108.208 0.179 79.121 0.982 -10.31 0.982 -10.31 0.179 79.121
10133.167 0.18 79.089 0.982 -10.343 0.982 -10.343 0.18 79.089
10158.125 0.18 79.058 0.982 -10.377 0.982 -10.377 0.18 79.058
10183.083 0.181 79.026 0.982 -10.41 0.982 -10.41 0.181 79.026
10208.042 0.181 78.995 0.982 -10.444 0.982 -10.444 0.181 78.995
10233 0.182 78.963 0.982 -10.477 0.982 -10.477 0.182 78.963
10257.958 0.182 78.932 0.981 -10.51 0.981 -10.51 0.182 78.932
10282.917 0.183 78.9 0.981 -10.544 0.981 -10.544 0.183 78.9
10307.875 0.184 78.868 0.981 -10.577 0.981 -10.577 0.184 78.868
10332.833 0.184 78.837 0.981 -10.61 0.981 -10.61 0.184 78.837
10357.792 0.185 78.805 0.981 -10.644 0.981 -10.644 0.185 78.805
10382.75 0.185 78.774 0.981 -10.677 0.981 -10.677 0.185 78.774
10407.708 0.186 78.743 0.981 -10.71 0.981 -10.71 0.186 78.743
10432.667 0.186 78.711 0.981 -10.743 0.981 -10.743 0.186 78.711
10457.625 0.187 78.68 0.981 -10.776 0.981 -10.776 0.187 78.68
10482.583 0.188 78.648 0.98 -10.81 0.98 -10.81 0.188 78.648
10507.542 0.188 78.617 0.98 -10.843 0.98 -10.843 0.188 78.617
10532.5 0.189 78.585 0.98 -10.876 0.98 -10.876 0.189 78.585
10557.458 0.189 78.554 0.98 -10.909 0.98 -10.909 0.189 78.554
10582.417 0.19 78.523 0.98 -10.942 0.98 -10.942 0.19 78.523
10607.375 0.19 78.491 0.98 -10.975 0.98 -10.975 0.19 78.491
10632.333 0.191 78.46 0.98 -11.008 0.98 -11.008 0.191 78.46
10657.292 0.192 78.429 0.98 -11.041 0.98 -11.041 0.192 78.429
10682.25 0.192 78.397 0.98 -11.074 0.98 -11.074 0.192 78.397
10707.208 0.193 78.366 0.979 -11.106 0.979 -11.106 0.193 78.366
10732.167 0.193 78.335 0.979 -11.139 0.979 -11.139 0.193 78.335
10757.125 0.194 78.304 0.979 -11.172 0.979 -11.172 0.194 78.304
10782.083 0.194 78.272 0.979 -11.205 0.979 -11.205 0.194 78.272
10807.042 0.195 78.241 0.979 -11.238 0.979 -11.238 0.195 78.241
10832 0.195 78.21 0.979 -11.271 0.979 -11.271 0.195 78.21
10856.958 0.196 78.179 0.979 -11.303 0.979 -11.303 0.196 78.179
10881.917 0.197 78.148 0.979 -11.336 0.979 -11.336 0.197 78.148
10906.875 0.197 78.116 0.979 -11.369 0.979 -11.369 0.197 78.116
10931.833 0.198 78.085 0.978 -11.401 0.978 -11.401 0.198 78.085
10956.792 0.198 78.054 0.978 -11.434 0.978 -11.434 0.198 78.054
10981.75 0.199 78.023 0.978 -11.467 0.978 -11.467 0.199 78.023
11006.708 0.199 77.992 0.978 -11.499 0.978 -11.499 0.199 77.992
11031.667 0.2 77.961 0.978 -11.532 0.978 -11.532 0.2 77.961
11056.625 0.2 77.93 0.978 -11.564 0.978 -11.564 0.2 77.93
11081.583 0.201 77.899 0.978 -11.597 0.978 -11.597 0.201 77.899
11106.542 0.202 77.868 0.978 -11.629 0.978 -11.629 0.202 77.868
11131.5 0.202 77.837 0.978 -11.662 0.978 -11.662 0.202 77.837
11156.458 0.203 77.806 0.977 -11.694 0.977 -11.694 0.203 77.806
11181.417 0.203 77.775 0.977 -11.727 0.977 -11.727 0.203 77.775
11206.375 0.204 77.744 0.977 -11.759 0.977 -11.759 0.204 77.744
11231.333 0.204 77.713 0.977 -11.792 0.977 -11.792 0.204 77.713
11256.292 0.205 77.682 0.977 -11.824 0.977 -11.824 0.205 77.682
11281.25 0.205 77.651 0.977 -11.856 0.977 -11.856 0.205 77.651
11306.208 0.206 77.62 0.977 -11.889 0.977 -11.889 0.206 77.62
11331.167 0.207 77.589 0.977 -11.921 0.977 -11.921 0.207 77.589
11356.125 0.207 77.558 0.977 -11.953 0.977 -11.953 0.207 77.558
11381.083 0.208 77.527 0.976 -11.985 0.976 -11.985 0.208 77.527
11406.042 0.208 77.496 0.976 -12.018 0.976 -12.018 0.208 77.496
11431 0.209 77.465 0.976 -12.05 0.976 -12.05 0.209 77.465
11455.958 0.209 77.434 0.976 -12.082 0.976 -12.082 0.209 77.434
11480.917 0.21 77.404 0.976 -12.114 0.976 -12.114 0.21 77.404
11505.875 0.21 77.373 0.976 -12.146 0.976 -12.146 0.21 77.373
11530.833 0.211 77.342 0.976 -12.178 0.976 -12.178 0.211 77.342
11555.792 0.212 77.311 0.976 -12.21 0.976 -12.21 0.212 77.311
11580.75 0.212 77.28 0.975 -12.243 0.975 -12.243 0.212 77.28
11605.708 0.213 77.25 0.975 -12.275 0.975 -12.275 0.213 77.25
11630.667 0.213 77.219 0.975 -12.307 0.975 -12.307 0.213 77.219
11655.625 0.214 77.188 0.975 -12.339 0.975 -12.339 0.214 77.188
11680.583 0.214 77.157 0.975 -12.371 0.975 -12.371 0.214 77.157
11705.542 0.215 77.127 0.975 -12.403 0.975 -12.403 0.215 77.127
11730.5 0.215 77.096 0.975 -12.434 0.975 -12.434 0.215 77.096
11755.458 0.216 77.065 0.975 -12.466 0.975 -12.466 0.216 77.065
11780.417 0.216 77.035 0.975 -12.498 0.975 -12.498 0.216 77.035
11805.375 0.217 77.004 0.974 -12.53 0.974 -12.53 0.217 77.004
11830.333 0.218 76.973 0.974 -12.562 0.974 -12.562 0.218 76.973
11855.292 0.218 76.943 0.974 -12.594 0.974 -12.594 0.218 76.943
11880.25 0.219 76.912 0.974 -12.626 0.974 -12.626 0.219 76.912
11905.208 0.219 76.882 0.974 -12.657 0.974 -12.657 0.219 76.882
11930.167 0.22 76.851 0.974 -12.689 0.974 -12.689 0.22 76.851
11955.125 0.22 76.82 0.974 -12.721 0.974 -12.721 0.22 76.82
11980.083 0.221 76.79 0.974 -12.753 0.974 -12.753 0.221 76.79
12005.042 0.221 76.759 0.973 -12.784 0.973 -12.784 0.221 76.759
12030 0.222 76.729 0.973 -12.816 0.973 -12.816 0.222 76.729
12054.958 0.222 76.698 0.973 -12.848 0.973 -12.848 0.222 76.698
12079.917 0.223 76.668 0.973 -12.879 0.973 -12.879 0.223 76.668
12104.875 0.223 76.637 0.973 -12.911 0.973 -12.911 0.223 76.637
12129.833 0.224 76.607 0.973 -12.943 0.973 -12.943 0.224 76.607
12154.792 0.225 76.576 0.973 -12.974 0.973 -12.974 0.225 76.576
12179.75 0.225 76.546 0.973 -13.006 0.973 -13.006 0.225 76.546
12204.708 0.226 76.515 0.972 -13.037 0.972 -13.037 0.226 76.515
12229.667 0.226 76.485 0.972 -13.069 0.972 -13.069 0.226 76.485
12254.625 0.227 76.455 0.972 -13.1 0.972 -13.1 0.227 76.455
12279.583 0.227 76.424 0.972 -13.132 0.972 -13.132 0.227 76.424
12304.542 0.228 76.394 0.972 -13.163 0.972 -13.163 0.228 76.394
12329.5 0.228 76.364 0.972 -13.195 0.972 -13.195 0.228 76.364
12354.458 0.229 76.333 0.972 -13.226 0.972 -13.226 0.229 76.333
12379.417 0.229 76.303 0.972 -13.258 0.972 -13.258 0.229 76.303
12404.375 0.23 76.273 0.971 -13.289 0.971 -13.289 0.23 76.273
12429.333 0.23 76.242 0.971 -13.321 0.971 -13.321 0.23 76.242
12454.292 0.231 76.212 0.971 -13.352 0.971 -13.352 0.231 76.212
12479.25 0.231 76.182 0.971 -13.383 0.971 -13.383 0.231 76.182
12504.208 0.232 76.151 0.971 -13.415 0.971 -13.415 0.232 76.151
12529.167 0.233 76.121 0.971 -13.446 0.971 -13.446 0.233 76.121
12554.125 0.233 76.091 0.971 -13.477 0.971 -13.477 0.233 76.091
12579.083 0.234 76.061 0.971 -13.508 0.971 -13.508 0.234 76.061
12604.042 0.234 76.03 0.97 -13.54 0.97 -13.54 0.234 76.03
12629 0.235 76 0.97 -13.571 0.97 -13.571 0.235 76
12653.958 0.235 75.97 0.97 -13.602 0.97 -13.602 0.235 75.97
12678.917 0.236 75.94 0.97 -13.633 0.97 -13.633 0.236 75.94
12703.875 0.236 75.91 0.97 -13.664 0.97 -13.664 0.236 75.91
12728.833 0.237 75.88 0.97 -13.696 0.97 -13.696 0.237 75.88
12753.792 0.237 75.85 0.97 -13.727 0.97 -13.727 0.237 75.85
12778.75 0.238 75.819 0.97 -13.758 0.97 -13.758 0.238 75.819
12803.708 0.238 75.789 0.969 -13.789 0.969 -13.789 0.238 75.789
12828.667 0.239 75.759 0.969 -13.82 0.969 -13.82 0.239 75.759
12853.625 0.239 75.729 0.969 -13.851 0.969 -13.851 0.239 75.729
12878.583 0.24 75.699 0.969 -13.882 0.969 -13.882 0.24 75.699
12903.542 0.24 75.669 0.969 -13.913 0.969 -13.913 0.24 75.669
12928.5 0.241 75.639 0.969 -13.944 0.969 -13.944 0.241 75.639
12953.458 0.242 75.609 0.969 -13.975 0.969 -13.975 0.242 75.609
12978.417 0.242 75.579 0.969 -14.006 0.969 -14.006 0.242 75.579
13003.375 0.243 75.549 0.968 -14.037 0.968 -14.037 0.243 75.549
13028.333 0.243 75.519 0.968 -14.068 0.968 -14.068 0.243 75.519
13053.292 0.244 75.489 0.968 -14.099 0.968 -14.099 0.244 75.489
13078.25 0.244 75.459 0.968 -14.13 0.968 -14.13 0.244 75.459
13103.208 0.245 75.429 0.968 -14.16 0.968 -14.16 0.245 75.429
13128.167 0.245 75.399 0.968 -14.191 0.968 -14.191 0.245 75.399
13153.125 0.246 75.369 0.968 -14.222 0.968 -14.222 0.246 75.369
13178.083 0.246 75.339 0.967 -14.253 0.967 -14.253 0.246 75.339
13203.042 0.247 75.31 0.967 -14.284 0.967 -14.284 0.247 75.31
13228 0.247 75.28 0.967 -14.315 0.967 -14.315 0.247 75.28
13252.958 0.248 75.25 0.967 -14.345 0.967 -14.345 0.248 75.25
13277.917 0.248 75.22 0.967 -14.376 0.967 -14.376 0.248 75.22
13302.875 0.249 75.19 0.967 -14.407 0.967 -14.407 0.249 75.19
13327.833 0.249 75.16 0.967 -14.438 0.967 -14.438 0.249 75.16
13352.792 0.25 75.131 0.967 -14.468 0.967 -14.468 0.25 75.131
13377.75 0.25 75.101 0.966 -14.499 0.966 -14.499 0.25 75.101
13402.708 0.251 75.071 0.966 -14.53 0.966 -14.53 0.251 75.071
13427.667 0.251 75.041 0.966 -14.56 0.966 -14.56 0.251 75.041
13452.625 0.252 75.011 0.966 -14.591 0.966 -14.591 0.252 75.011
13477.583 0.252 74.982 0.966 -14.621 0.966 -14.621 0.252 74.982
13502.542 0.253 74.952 0.966 -14.652 0.966 -14.652 0.253 74.952
13527.5 0.253 74.922 0.966 -14.683 0.966 -14.683 0.253 74.922
13552.458 0.254 74.893 0.965 -14.713 0.965 -14.713 0.254 74.893
13577.417 0.255 74.863 0.965 -14.744 0.965 -14.744 0.255 74.863
13602.375 0.255 74.833 0.965 -14.774 0.965 -14.774 0.255 74.833
13627.333 0.256 74.804 0.965 -14.805 0.965 -14.805 0.256 74.804
13652.292 0.256 74.774 0.965 -14.835 0.965 -14.835 0.256 74.774
13677.25 0.257 74.744 0.965 -14.866 0.965 -14.866 0.257 74.744
13702.208 0.257 74.715 0.965 -14.896 0.965 -14.896 0.257 74.715
13727.167 0.258 74.685 0.965 -14.927 0.965 -14.927 0.258 74.685
13752.125 0.258 74.655 0.964 -14.957 0.964 -14.957 0.258 74.655
13777.083 0.259 74.626 0.964 -14.987 0.964 -14.987 0.259 74.626
13802.042 0.259 74.596 0.964 -15.018 0.964 -15.018 0.259 74.596
13827 0.26 74.567 0.964 -15.048 0.964 -15.048 0.26 74.567
13851.958 0.26 74.537 0.964 -15.079 0.964 -15.079 0.26 74.537
13876.917 0.261 74.508 0.964 -15.109 0.964 -15.109 0.261 74.508
13901.875 0.261 74.478 0.964 -15.139 0.964 -15.139 0.261 74.478
13926.833 0.262 74.449 0.963 -15.17 0.963 -15.17 0.262 74.449
13951.792 0.262 74.419 0.963 -15.2 0.963 -15.2 0.262 74.419
13976.75 0.263 74.39 0.963 -15.23 0.963 -15.23 0.263 74.39
14001.708 0.263 74.36 0.963 -15.26 0.963 -15.26 0.263 74.36
14026.667 0.264 74.331 0.963 -15.291 0.963 -15.291 0.264 74.331
14051.625 0.264 74.301 0.963 -15.321 0.963 -15.321 0.264 74.301
14076.583 0.265 74.272 0.963 -15.351 0.963 -15.351 0.265 74.272
14101.542 0.265 74.242 0.962 -15.381 0.962 -15.381 0.265 74.242
14126.5 0.266 74.213 0.962 -15.411 0.962 -15.411 0.266 74.213
14151.458 0.266 74.184 0.962 -15.442 0.962 -15.442 0.266 74.184
14176.417 0.267 74.154 0.962 -15.472 0.962 -15.472 0.267 74.154
14201.375 0.267 74.125 0.962 -15.502 0.962 -15.502 0.267 74.125
14226.333 0.268 74.096 0.962 -15.532 0.962 -15.532 0.268 74.096
14251.292 0.268 74.066 0.962 -15.562 0.962 -15.562 0.268 74.066
14276.25 0.269 74.037 0.961 -15.592 0.961 -15.592 0.269 74.037
14301.208 0.269 74.008 0.961 -15.622 0.961 -15.622 0.269 74.008
14326.167 0.27 73.978 0.961 -15.652 0.961 -15.652 0.27 73.978
14351.125 0.27 73.949 0.961 -15.682 0.961 -15.682 0.27 73.949
14376.083 0.271 73.92 0.961 -15.712 0.961 -15.712 0.271 73.92
14401.042 0.271 73.89 0.961 -15.742 0.961 -15.742 0.271 73.89
14426 0.272 73.861 0.961 -15.772 0.961 -15.772 0.272 73.861
14450.958 0.272 73.832 0.96 -15.802 0.96 -15.802 0.272 73.832
14475.917 0.273 73.803 0.96 -15.832 0.96 -15.832 0.273 73.803
14500.875 0.273 73.774 0.96 -15.862 0.96 -15.862 0.273 73.774
14525.833 0.274 73.744 0.96 -15.892 0.96 -15.892 0.274 73.744
14550.792 0.274 73.715 0.96 -15.922 0.96 -15.922 0.274 73.715
14575.75 0.275 73.686 0.96 -15.952 0.96 -15.952 0.275 73.686
14600.708 0.275 73.657 0.96 -15.982 0.96 -15.982 0.275 73.657
14625.667 0.276 73.628 0.959 -16.011 0.959 -16.011 0.276 73.628
14650.625 0.276 73.599 0.959 -16.041 0.959 -16.041 0.276 73.599
14675.583 0.277 73.569 0.959 -16.071 0.959 -16.071 0.277 73.569
14700.542 0.277 73.54 0.959 -16.101 0.959 -16.101 0.277 73.54
14725.5 0.278 73.511 0.959 -16.131 0.959 -16.131 0.278 73.511
14750.458 0.278 73.482 0.959 -16.161 0.959 -16.161 0.278 73.482
14775.417 0.279 73.453 0.959 -16.19 0.959 -16.19 0.279 73.453
14800.375 0.279 73.424 0.958 -16.22 0.958 -16.22 0.279 73.424
14825.333 0.28 73.395 0.958 -16.25 0.958 -16.25 0.28 73.395
14850.292 0.28 73.366 0.958 -16.279 0.958 -16.279 0.28 73.366
14875.25 0.281 73.337 0.958 -16.309 0.958 -16.309 0.281 73.337
14900.208 0.281 73.308 0.958 -16.339 0.958 -16.339 0.281 73.308
14925.167 0.282 73.279 0.958 -16.369 0.958 -16.369 0.282 73.279
14950.125 0.282 73.25 0.958 -16.398 0.958 -16.398 0.282 73.25
14975.083 0.283 73.221 0.957 -16.428 0.957 -16.428 0.283 73.221
15000.042 0.283 73.192 0.957 -16.457 0.957 -16.457 0.283 73.192
15025 0.284 73.163 0.957 -16.487 0.957 -16.487 0.284 73.163
15049.958 0.284 73.134 0.957 -16.517 0.957 -16.517 0.284 73.134
15074.917 0.285 73.105 0.957 -16.546 0.957 -16.546 0.285 73.105
15099.875 0.285 73.076 0.957 -16.576 0.957 -16.576 0.285 73.076
15124.833 0.286 73.047 0.957 -16.605 0.957 -16.605 0.286 73.047
15149.792 0.286 73.019 0.956 -16.635 0.956 -16.635 0.286 73.019
15174.75 0.287 72.99 0.956 -16.664 0.956 -16.664 0.287 72.99
15199.708 0.287 72.961 0.956 -16.694 0.956 -16.694 0.287 72.961
15224.667 0.288 72.932 0.956 -16.723 0.956 -16.723 0.288 72.932
15249.625 0.288 72.903 0.956 -16.753 0.956 -16.753 0.288 72.903
15274.583 0.289 72.874 0.956 -16.782 0.956 -16.782 0.289 72.874
15299.542 0.289 72.846 0.956 -16.812 0.956 -16.812 0.289 72.846
15324.5 0.29 72.817 0.955 -16.841 0.955 -16.841 0.29 72.817
15349.458 0.29 72.788 0.955 -16.871 0.955 -16.871 0.29 72.788
15374.417 0.291 72.759 0.955 -16.9 0.955 -16.9 0.291 72.759
15399.375 0.291 72.73 0.955 -16.929 0.955 -16.929 0.291 72.73
15424.333 0.292 72.702 0.955 -16.959 0.955 -16.959 0.292 72.702
15449.292 0.292 72.673 0.955 -16.988 0.955 -16.988 0.292 72.673
15474.25 0.293 72.644 0.954 -17.017 0.954 -17.017 0.293 72.644
15499.208 0.293 72.616 0.954 -17.047 0.954 -17.047 0.293 72.616
15524.167 0.294 72.587 0.954 -17.076 0.954 -17.076 0.294 72.587
15549.125 0.294 72.558 0.954 -17.105 0.954 -17.105 0.294 72.558
15574.083 0.295 72.53 0.954 -17.135 0.954 -17.135 0.295 72.53
15599.042 0.295 72.501 0.954 -17.164 0.954 -17.164 0.295 72.501
15624 0.296 72.472 0.954 -17.193 0.954 -17.193 0.296 72.472
15648.958 0.296 72.444 0.953 -17.222 0.953 -17.222 0.296 72.444
15673.917 0.297 72.415 0.953 -17.252 0.953 -17.252 0.297 72.415
15698.875 0.297 72.386 0.953 -17.281 0.953 -17.281 0.297 72.386
15723.833 0.298 72.358 0.953 -17.31 0.953 -17.31 0.298 72.358
15748.792 0.298 72.329 0.953 -17.339 0.953 -17.339 0.298 72.329
15773.75 0.299 72.301 0.953 -17.368 0.953 -17.368 0.299 72.301
15798.708 0.299 72.272 0.953 -17.397 0.953 -17.397 0.299 72.272
15823.667 0.299 72.244 0.952 -17.427 0.952 -17.427 0.299 72.244
15848.625 0.3 72.215 0.952 -17.456 0.952 -17.456 0.3 72.215
15873.583 0.3 72.186 0.952 -17.485 0.952 -17.485 0.3 72.186
15898.542 0.301 72.158 0.952 -17.514 0.952 -17.514 0.301 72.158
15923.5 0.301 72.129 0.952 -17.543 0.952 -17.543 0.301 72.129
15948.458 0.302 72.101 0.952 -17.572 0.952 -17.572 0.302 72.101
15973.417 0.302 72.073 0.951 -17.601 0.951 -17.601 0.302 72.073
15998.375 0.303 72.044 0.951 -17.63 0.951 -17.63 0.303 72.044
16023.333 0.303 72.016 0.951 -17.659 0.951 -17.659 0.303 72.016
16048.292 0.304 71.987 0.951 -17.688 0.951 -17.688 0.304 71.987
16073.25 0.304 71.959 0.951 -17.717 0.951 -17.717 0.304 71.959
16098.208 0.305 71.93 0.951 -17.746 0.951 -17.746 0.305 71.93
16123.167 0.305 71.902 0.951 -17.775 0.951 -17.775 0.305 71.902
16148.125 0.306 71.874 0.95 -17.804 0.95 -17.804 0.306 71.874
16173.083 0.306 71.845 0.95 -17.833 0.95 -17.833 0.306 71.845
16198.042 0.307 71.817 0.95 -17.862 0.95 -17.862 0.307 71.817
16223 0.307 71.788 0.95 -17.891 0.95 -17.891 0.307 71.788
16247.958 0.308 71.76 0.95 -17.92 0.95 -17.92 0.308 71.76
16272.917 0.308 71.732 0.95 -17.949 0.95 -17.949 0.308 71.732
16297.875 0.309 71.703 0.949 -17.977 0.949 -17.977 0.309 71.703
16322.833 0.309 71.675 0.949 -18.006 0.949 -18.006 0.309 71.675
16347.792 0.31 71.647 0.949 -18.035 0.949 -18.035 0.31 71.647
16372.75 0.31 71.619 0.949 -18.064 0.949 -18.064 0.31 71.619
16397.708 0.311 71.59 0.949 -18.093 0.949 -18.093 0.311 71.59
16422.667 0.311 71.562 0.949 -18.122 0.949 -18.122 0.311 71.562
16447.625 0.312 71.534 0.949 -18.15 0.949 -18.15 0.312 71.534
16472.583 0.312 71.506 0.948 -18.179 0.948 -18.179 0.312 71.506
16497.542 0.312 71.477 0.948 -18.208 0.948 -18.208 0.312 71.477
16522.5 0.313 71.449 0.948 -18.237 0.948 -18.237 0.313 71.449
16547.458 0.313 71.421 0.948 -18.265 0.948 -18.265 0.313 71.421
16572.417 0.314 71.393 0.948 -18.294 0.948 -18.294 0.314 71.393
16597.375 0.314 71.365 0.948 -18.323 0.948 -18.323 0.314 71.365
16622.333 0.315 71.337 0.947 -18.351 0.947 -18.351 0.315 71.337
16647.292 0.315 71.308 0.947 -18.38 0.947 -18.38 0.315 71.308
16672.25 0.316 71.28 0.947 -18.409 0.947 -18.409 0.316 71.28
16697.208 0.316 71.252 0.947 -18.437 0.947 -18.437 0.316 71.252
16722.167 0.317 71.224 0.947 -18.466 0.947 -18.466 0.317 71.224
16747.125 0.317 71.196 0.947 -18.495 0.947 -18.495 0.317 71.196
16772.083 0.318 71.168 0.946 -18.523 0.946 -18.523 0.318 71.168
16797.042 0.318 71.14 0.946 -18.552 0.946 -18.552 0.318 71.14
16822 0.319 71.112 0.946 -18.58 0.946 -18.58 0.319 71.112
16846.958 0.319 71.084 0.946 -18.609 0.946 -18.609 0.319 71.084
16871.917 0.32 71.056 0.946 -18.637 0.946 -18.637 0.32 71.056
16896.875 0.32 71.028 0.946 -18.666 0.946 -18.666 0.32 71.028
16921.833 0.321 71 0.946 -18.694 0.946 -18.694 0.321 71
16946.792 0.321 70.972 0.945 -18.723 0.945 -18.723 0.321 70.972
16971.75 0.321 70.944 0.945 -18.751 0.945 -18.751 0.321 70.944
16996.708 0.322 70.916 0.945 -18.78 0.945 -18.78 0.322 70.916
17021.667 0.322 70.888 0.945 -18.808 0.945 -18.808 0.322 70.888
17046.625 0.323 70.86 0.945 -18.837 0.945 -18.837 0.323 70.86
17071.583 0.323 70.832 0.945 -18.865 0.945 -18.865 0.323 70.832
17096.542 0.324 70.804 0.944 -18.894 0.944 -18.894 0.324 70.804
17121.5 0.324 70.776 0.944 -18.922 0.944 -18.922 0.324 70.776
17146.458 0.325 70.748 0.944 -18.95 0.944 -18.95 0.325 70.748
17171.417 0.325 70.72 0.944 -18.979 0.944 -18.979 0.325 70.72
17196.375 0.326 70.692 0.944 -19.007 0.944 -19.007 0.326 70.692
17221.333 0.326 70.664 0.944 -19.035 0.944 -19.035 0.326 70.664
17246.292 0.327 70.637 0.943 -19.064 0.943 -19.064 0.327 70.637
17271.25 0.327 70.609 0.943 -19.092 0.943 -19.092 0.327 70.609
17296.208 0.328 70.581 0.943 -19.12 0.943 -19.12 0.328 70.581
17321.167 0.328 70.553 0.943 -19.149 0.943 -19.149 0.328 70.553
17346.125 0.328 70.525 0.943 -19.177 0.943 -19.177 0.328 70.525
17371.083 0.329 70.498 0.943 -19.205 0.943 -19.205 0.329 70.498
17396.042 0.329 70.47 0.942 -19.234 0.942 -19.234 0.329 70.47
17421 0.33 70.442 0.942 -19.262 0.942 -19.262 0.33 70.442
17445.958 0.33 70.414 0.942 -19.29 0.942 -19.29 0.33 70.414
17470.917 0.331 70.386 0.942 -19.318 0.942 -19.318 0.331 70.386
17495.875 0.331 70.359 0.942 -19.346 0.942 -19.346 0.331 70.359
17520.833 0.332 70.331 0.942 -19.375 0.942 -19.375 0.332 70.331
17545.792 0.332 70.303 0.942 -19.403 0.942 -19.403 0.332 70.303
17570.75 0.333 70.276 0.941 -19.431 0.941 -19.431 0.333 70.276
17595.708 0.333 70.248 0.941 -19.459 0.941 -19.459 0.333 70.248
17620.667 0.334 70.22 0.941 -19.487 0.941 -19.487 0.334 70.22
17645.625 0.334 70.193 0.941 -19.515 0.941 -19.515 0.334 70.193
17670.583 0.335 70.165 0.941 -19.543 0.941 -19.543 0.335 70.165
17695.542 0.335 70.137 0.941 -19.571 0.941 -19.571 0.335 70.137
17720.5 0.335 70.11 0.94 -19.6 0.94 -19.6 0.335 70.11
17745.458 0.336 70.082 0.94 -19.628 0.94 -19.628 0.336 70.082
17770.417 0.336 70.054 0.94 -19.656 0.94 -19.656 0.336 70.054
17795.375 0.337 70.027 0.94 -19.684 0.94 -19.684 0.337 70.027
17820.333 0.337 69.999 0.94 -19.712 0.94 -19.712 0.337 69.999
17845.292 0.338 69.972 0.94 -19.74 0.94 -19.74 0.338 69.972
17870.25 0.338 69.944 0.939 -19.768 0.939 -19.768 0.338 69.944
17895.208 0.339 69.917 0.939 -19.796 0.939 -19.796 0.339 69.917
17920.167 0.339 69.889 0.939 -19.824 0.939 -19.824 0.339 69.889
17945.125 0.34 69.862 0.939 -19.852 0.939 -19.852 0.34 69.862
17970.083 0.34 69.834 0.939 -19.88 0.939 -19.88 0.34 69.834
17995.042 0.341 69.807 0.939 -19.908 0.939 -19.908 0.341 69.807
18020 0.341 69.779 0.938 -19.935 0.938 -19.935 0.341 69.779
18044.958 0.341 69.752 0.938 -19.963 0.938 -19.963 0.341 69.752
18069.917 0.342 69.724 0.938 -19.991 0.938 -19.991 0.342 69.724
18094.875 0.342 69.697 0.938 -20.019 0.938 -20.019 0.342 69.697
18119.833 0.343 69.669 0.938 -20.047 0.938 -20.047 0.343 69.669
18144.792 0.343 69.642 0.938 -20.075 0.938 -20.075 0.343 69.642
18169.75 0.344 69.614 0.937 -20.103 0.937 -20.103 0.344 69.614
18194.708 0.344 69.587 0.937 -20.13 0.937 -20.13 0.344 69.587
18219.667 0.345 69.56 0.937 -20.158 0.937 -20.158 0.345 69.56
18244.625 0.345 69.532 0.937 -20.186 0.937 -20.186 0.345 69.532
18269.583 0.346 69.505 0.937 -20.214 0.937 -20.214 0.346 69.505
18294.542 0.346 69.478 0.937 -20.242 0.937 -20.242 0.346 69.478
18319.5 0.346 69.45 0.936 -20.269 0.936 -20.269 0.346 69.45
18344.458 0.347 69.423 0.936 -20.297 0.936 -20.297 0.347 69.423
18369.417 0.347 69.396 0.936 -20.325 0.936 -20.325 0.347 69.396
18394.375 0.348 69.368 0.936 -20.353 0.936 -20.353 0.348 69.368
18419.333 0.348 69.341 0.936 -20.38 0.936 -20.38 0.348 69.341
18444.292 0.349 69.314 0.936 -20.408 0.936 -20.408 0.349 69.314
18469.25 0.349 69.286 0.935 -20.436 0.935 -20.436 0.349 69.286
18494.208 0.35 69.259 0.935 -20.463 0.935 -20.463 0.35 69.259
18519.167 0.35 69.232 0.935 -20.491 0.935 -20.491 0.35 69.232
18544.125 0.351 69.205 0.935 -20.519 0.935 -20.519 0.351 69.205
18569.083 0.351 69.178 0.935 -20.546 0.935 -20.546 0.351 69.178
18594.042 0.351 69.15 0.935 -20.574 0.935 -20.574 0.351 69.15
18619 0.352 69.123 0.934 -20.601 0.934 -20.601 0.352 69.123
18643.958 0.352 69.096 0.934 -20.629 0.934 -20.629 0.352 69.096
18668.917 0.353 69.069 0.934 -20.657 0.934 -20.657 0.353 69.069
18693.875 0.353 69.042 0.934 -20.684 0.934 -20.684 0.353 69.042
18718.833 0.354 69.014 0.934 -20.712 0.934 -20.712 0.354 69.014
18743.792 0.354 68.987 0.934 -20.739 0.934 -20.739 0.354 68.987
18768.75 0.355 68.96 0.933 -20.767 0.933 -20.767 0.355 68.96
18793.708 0.355 68.933 0.933 -20.794 0.933 -20.794 0.355 68.933
18818.667 0.355 68.906 0.933 -20.822 0.933 -20.822 0.355 68.906
18843.625 0.356 68.879 0.933 -20.849 0.933 -20.849 0.356 68.879
18868.583 0.356 68.852 0.933 -20.877 0.933 -20.877 0.356 68.852
18893.542 0.357 68.825 0.932 -20.904 0.932 -20.904 0.357 68.825
18918.5 0.357 68.798 0.932 -20.932 0.932 -20.932 0.357 68.798
18943.458 0.358 68.771 0.932 -20.959 0.932 -20.959 0.358 68.771
18968.417 0.358 68.744 0.932 -20.986 0.932 -20.986 0.358 68.744
18993.375 0.359 68.717 0.932 -21.014 0.932 -21.014 0.359 68.717
19018.333 0.359 68.69 0.932 -21.041 0.932 -21.041 0.359 68.69
19043.292 0.359 68.663 0.931 -21.069 0.931 -21.069 0.359 68.663
19068.25 0.36 68.636 0.931 -21.096 0.931 -21.096 0.36 68.636
19093.208 0.36 68.609 0.931 -21.123 0.931 -21.123 0.36 68.609
19118.167 0.361 68.582 0.931 -21.151 0.931 -21.151 0.361 68.582
19143.125 0.361 68.555 0.931 -21.178 0.931 -21.178 0.361 68.555
19168.083 0.362 68.528 0.931 -21.205 0.931 -21.205 0.362 68.528
19193.042 0.362 68.501 0.93 -21.233 0.93 -21.233 0.362 68.501
19218 0.363 68.474 0.93 -21.26 0.93 -21.26 0.363 68.474
19242.958 0.363 68.447 0.93 -21.287 0.93 -21.287 0.363 68.447
19267.917 0.363 68.42 0.93 -21.314 0.93 -21.314 0.363 68.42
19292.875 0.364 68.393 0.93 -21.342 0.93 -21.342 0.364 68.393
19317.833 0.364 68.366 0.93 -21.369 0.93 -21.369 0.364 68.366
19342.792 0.365 68.34 0.929 -21.396 0.929 -21.396 0.365 68.34
19367.75 0.365 68.313 0.929 -21.423 0.929 -21.423 0.365 68.313
19392.708 0.366 68.286 0.929 -21.451 0.929 -21.451 0.366 68.286
19417.667 0.366 68.259 0.929 -21.478 0.929 -21.478 0.366 68.259
19442.625 0.367 68.232 0.929 -21.505 0.929 -21.505 0.367 68.232
19467.583 0.367 68.205 0.929 -21.532 0.929 -21.532 0.367 68.205
19492.542 0.367 68.179 0.928 -21.559 0.928 -21.559 0.367 68.179
19517.5 0.368 68.152 0.928 -21.586 0.928 -21.586 0.368 68.152
19542.458 0.368 68.125 0.928 -21.614 0.928 -21.614 0.368 68.125
19567.417 0.369 68.098 0.928 -21.641 0.928 -21.641 0.369 68.098
19592.375 0.369 68.072 0.928 -21.668 0.928 -21.668 0.369 68.072
19617.333 0.37 68.045 0.927 -21.695 0.927 -21.695 0.37 68.045
19642.292 0.37 68.018 0.927 -21.722 0.927 -21.722 0.37 68.018
19667.25 0.371 67.992 0.927 -21.749 0.927 -21.749 0.371 67.992
19692.208 0.371 67.965 0.927 -21.776 0.927 -21.776 0.371 67.965
19717.167 0.371 67.938 0.927 -21.803 0.927 -21.803 0.371 67.938
19742.125 0.372 67.912 0.927 -21.83 0.927 -21.83 0.372 67.912
19767.083 0.372 67.885 0.926 -21.857 0.926 -21.857 0.372 67.885
19792.042 0.373 67.858 0.926 -21.884 0.926 -21.884 0.373 67.858
19817 0.373 67.832 0.926 -21.911 0.926 -21.911 0.373 67.832
19841.958 0.374 67.805 0.926 -21.938 0.926 -21.938 0.374 67.805
19866.917 0.374 67.778 0.926 -21.965 0.926 -21.965 0.374 67.778
19891.875 0.374 67.752 0.926 -21.992 0.926 -21.992 0.374 67.752
19916.833 0.375 67.725 0.925 -22.019 0.925 -22.019 0.375 67.725
19941.792 0.375 67.699 0.925 -22.046 0.925 -22.046 0.375 67.699
19966.75 0.376 67.672 0.925 -22.073 0.925 -22.073 0.376 67.672
19991.708 0.376 67.645 0.925 -22.1 0.925 -22.1 0.376 67.645
20016.667 0.377 67.619 0.925 -22.126 0.925 -22.126 0.377 67.619
20041.625 0.377 67.592 0.925 -22.153 0.925 -22.153 0.377 67.592
20066.583 0.378 67.566 0.924 -22.18 0.924 -22.18 0.378 67.566
20091.542 0.378 67.539 0.924 -22.207 0.924 -22.207 0.378 67.539
20116.5 0.378 67.513 0.924 -22.234 0.924 -22.234 0.378 67.513
20141.458 0.379 67.486 0.924 -22.261 0.924 -22.261 0.379 67.486
20166.417 0.379 67.46 0.924 -22.287 0.924 -22.287 0.379 67.46
20191.375 0.38 67.434 0.923 -22.314 0.923 -22.314 0.38 67.434
20216.333 0.38 67.407 0.923 -22.341 0.923 -22.341 0.38 67.407
20241.292 0.381 67.381 0.923 -22.368 0.923 -22.368 0.381 67.381
20266.25 0.381 67.354 0.923 -22.394 0.923 -22.394 0.381 67.354
20291.208 0.381 67.328 0.923 -22.421 0.923 -22.421 0.381 67.328
20316.167 0.382 67.301 0.923 -22.448 0.923 -22.448 0.382 67.301
20341.125 0.382 67.275 0.922 -22.475 0.922 -22.475 0.382 67.275
20366.083 0.383 67.249 0.922 -22.501 0.922 -22.501 0.383 67.249
20391.042 0.383 67.222 0.922 -22.528 0.922 -22.528 0.383 67.222
20416 0.384 67.196 0.922 -22.555 0.922 -22.555 0.384 67.196
20440.958 0.384 67.17 0.922 -22.581 0.922 -22.581 0.384 67.17
20465.917 0.384 67.143 0.921 -22.608 0.921 -22.608 0.384 67.143
20490.875 0.385 67.117 0.921 -22.635 0.921 -22.635 0.385 67.117
20515.833 0.385 67.091 0.921 -22.661 0.921 -22.661 0.385 67.091
20540.792 0.386 67.064 0.921 -22.688 0.921 -22.688 0.386 67.064
20565.75 0.386 67.038 0.921 -22.715 0.921 -22.715 0.386 67.038
20590.708 0.387 67.012 0.921 -22.741 0.921 -22.741 0.387 67.012
20615.667 0.387 66.986 0.92 -22.768 0.92 -22.768 0.387 66.986
20640.625 0.387 66.959 0.92 -22.794 0.92 -22.794 0.387 66.959
20665.583 0.388 66.933 0.92 -22.821 0.92 -22.821 0.388 66.933
20690.542 0.388 66.907 0.92 -22.847 0.92 -22.847 0.388 66.907
20715.5 0.389 66.881 0.92 -22.874 0.92 -22.874 0.389 66.881
20740.458 0.389 66.854 0.92 -22.9 0.92 -22.9 0.389 66.854
20765.417 0.39 66.828 0.919 -22.927 0.919 -22.927 0.39 66.828
20790.375 0.39 66.802 0.919 -22.953 0.919 -22.953 0.39 66.802
20815.333 0.39 66.776 0.919 -22.98 0.919 -22.98 0.39 66.776
20840.292 0.391 66.75 0.919 -23.006 0.919 -23.006 0.391 66.75
20865.25 0.391 66.724 0.919 -23.033 0.919 -23.033 0.391 66.724
20890.208 0.392 66.698 0.918 -23.059 0.918 -23.059 0.392 66.698
20915.167 0.392 66.671 0.918 -23.086 0.918 -23.086 0.392 66.671
20940.125 0.393 66.645 0.918 -23.112 0.918 -23.112 0.393 66.645
20965.083 0.393 66.619 0.918 -23.138 0.918 -23.138 0.393 66.619
20990.042 0.393 66.593 0.918 -23.165 0.918 -23.165 0.393 66.593
21015 0.394 66.567 0.918 -23.191 0.918 -23.191 0.394 66.567
21039.958 0.394 66.541 0.917 -23.218 0.917 -23.218 0.394 66.541
21064.917 0.395 66.515 0.917 -23.244 0.917 -23.244 0.395 66.515
21089.875 0.395 66.489 0.917 -23.27 0.917 -23.27 0.395 66.489
21114.833 0.395 66.463 0.917 -23.297 0.917 -23.297 0.395 66.463
21139.792 0.396 66.437 0.917 -23.323 0.917 -23.323 0.396 66.437
21164.75 0.396 66.411 0.916 -23.349 0.916 -23.349 0.396 66.411
21189.708 0.397 66.385 0.916 -23.376 0.916 -23.376 0.397 66.385
21214.667 0.397 66.359 0.916 -23.402 0.916 -23.402 0.397 66.359
21239.625 0.398 66.333 0.916 -23.428 0.916 -23.428 0.398 66.333
21264.583 0.398 66.307 0.916 -23.454 0.916 -23.454 0.398 66.307
21289.542 0.398 66.281 0.916 -23.481 0.916 -23.481 0.398 66.281
21314.5 0.399 66.255 0.915 -23.507 0.915 -23.507 0.399 66.255
21339.458 0.399 66.229 0.915 -23.533 0.915 -23.533 0.399 66.229
21364.417 0.4 66.203 0.915 -23.559 0.915 -23.559 0.4 66.203
21389.375 0.4 66.177 0.915 -23.585 0.915 -23.585 0.4 66.177
21414.333 0.401 66.152 0.915 -23.612 0.915 -23.612 0.401 66.152
21439.292 0.401 66.126 0.914 -23.638 0.914 -23.638 0.401 66.126
21464.25 0.401 66.1 0.914 -23.664 0.914 -23.664 0.401 66.1
21489.208 0.402 66.074 0.914 -23.69 0.914 -23.69 0.402 66.074
21514.167 0.402 66.048 0.914 -23.716 0.914 -23.716 0.402 66.048
21539.125 0.403 66.022 0.914 -23.742 0.914 -23.742 0.403 66.022
21564.083 0.403 65.997 0.914 -23.768 0.914 -23.768 0.403 65.997
21589.042 0.403 65.971 0.913 -23.794 0.913 -23.794 0.403 65.971
21614 0.404 65.945 0.913 -23.821 0.913 -23.821 0.404 65.945
21638.958 0.404 65.919 0.913 -23.847 0.913 -23.847 0.404 65.919
21663.917 0.405 65.893 0.913 -23.873 0.913 -23.873 0.405 65.893
21688.875 0.405 65.868 0.913 -23.899 0.913 -23.899 0.405 65.868
21713.833 0.406 65.842 0.912 -23.925 0.912 -23.925 0.406 65.842
21738.792 0.406 65.816 0.912 -23.951 0.912 -23.951 0.406 65.816
21763.75 0.406 65.79 0.912 -23.977 0.912 -23.977 0.406 65.79
21788.708 0.407 65.765 0.912 -24.003 0.912 -24.003 0.407 65.765
21813.667 0.407 65.739 0.912 -24.029 0.912 -24.029 0.407 65.739
21838.625 0.408 65.713 0.912 -24.055 0.912 -24.055 0.408 65.713
21863.583 0.408 65.688 0.911 -24.081 0.911 -24.081 0.408 65.688
21888.542 0.408 65.662 0.911 -24.107 0.911 -24.107 0.408 65.662
21913.5 0.409 65.636 0.911 -24.133 0.911 -24.133 0.409 65.636
21938.458 0.409 65.611 0.911 -24.158 0.911 -24.158 0.409 65.611
21963.417 0.41 65.585 0.911 -24.184 0.911 -24.184 0.41 65.585
21988.375 0.41 65.559 0.91 -24.21 0.91 -24.21 0.41 65.559
22013.333 0.411 65.534 0.91 -24.236 0.91 -24.236 0.411 65.534
22038.292 0.411 65.508 0.91 -24.262 0.91 -24.262 0.411 65.508
22063.25 0.411 65.483 0.91 -24.288 0.91 -24.288 0.411 65.483
22088.208 0.412 65.457 0.91 -24.314 0.91 -24.314 0.412 65.457
22113.167 0.412 65.432 0.909 -24.34 0.909 -24.34 0.412 65.432
22138.125 0.413 65.406 0.909 -24.365 0.909 -24.365 0.413 65.406
22163.083 0.413 65.381 0.909 -24.391 0.909 -24.391 0.413 65.381
22188.042 0.413 65.355 0.909 -24.417 0.909 -24.417 0.413 65.355
22213 0.414 65.329 0.909 -24.443 0.909 -24.443 0.414 65.329
22237.958 0.414 65.304 0.909 -24.468 0.909 -24.468 0.414 65.304
22262.917 0.415 65.278 0.908 -24.494 0.908 -24.494 0.415 65.278
22287.875 0.415 65.253 0.908 -24.52 0.908 -24.52 0.415 65.253
22312.833 0.415 65.228 0.908 -24.546 0.908 -24.546 0.415 65.228
22337.792 0.416 65.202 0.908 -24.571 0.908 -24.571 0.416 65.202
22362.75 0.416 65.177 0.908 -24.597 0.908 -24.597 0.416 65.177
22387.708 0.417 65.151 0.907 -24.623 0.907 -24.623 0.417 65.151
22412.667 0.417 65.126 0.907 -24.649 0.907 -24.649 0.417 65.126
22437.625 0.417 65.1 0.907 -24.674 0.907 -24.674 0.417 65.1
22462.583 0.418 65.075 0.907 -24.7 0.907 -24.7 0.418 65.075
22487.542 0.418 65.05 0.907 -24.726 0.907 -24.726 0.418 65.05
22512.5 0.419 65.024 0.906 -24.751 0.906 -24.751 0.419 65.024
22537.458 0.419 64.999 0.906 -24.777 0.906 -24.777 0.419 64.999
22562.417 0.419 64.974 0.906 -24.802 0.906 -24.802 0.419 64.974
22587.375 0.42 64.948 0.906 -24.828 0.906 -24.828 0.42 64.948
22612.333 0.42 64.923 0.906 -24.854 0.906 -24.854 0.42 64.923
22637.292 0.421 64.898 0.906 -24.879 0.906 -24.879 0.421 64.898
22662.25 0.421 64.872 0.905 -24.905 0.905 -24.905 0.421 64.872
22687.208 0.422 64.847 0.905 -24.93 0.905 -24.93 0.422 64.847
22712.167 0.422 64.822 0.905 -24.956 0.905 -24.956 0.422 64.822
22737.125 0.422 64.796 0.905 -24.981 0.905 -24.981 0.422 64.796
22762.083 0.423 64.771 0.905 -25.007 0.905 -25.007 0.423 64.771
22787.042 0.423 64.746 0.904 -25.032 0.904 -25.032 0.423 64.746
22812 0.424 64.721 0.904 -25.058 0.904 -25.058 0.424 64.721
22836.958 0.424 64.695 0.904 -25.083 0.904 -25.083 0.424 64.695
22861.917 0.424 64.67 0.904 -25.109 0.904 -25.109 0.424 64.67
22886.875 0.425 64.645 0.904 -25.134 0.904 -25.134 0.425 64.645
22911.833 0.425 64.62 0.903 -25.16 0.903 -25.16 0.425 64.62
22936.792 0.426 64.595 0.903 -25.185 0.903 -25.185 0.426 64.595
22961.75 0.426 64.57 0.903 -25.211 0.903 -25.211 0.426 64.57
22986.708 0.426 64.544 0.903 -25.236 0.903 -25.236 0.426 64.544
23011.667 0.427 64.519 0.903 -25.261 0.903 -25.261 0.427 64.519
23036.625 0.427 64.494 0.903 -25.287 0.903 -25.287 0.427 64.494
23061.583 0.428 64.469 0.902 -25.312 0.902 -25.312 0.428 64.469
23086.542 0.428 64.444 0.902 -25.337 0.902 -25.337 0.428 64.444
23111.5 0.428 64.419 0.902 -25.363 0.902 -25.363 0.428 64.419
23136.458 0.429 64.394 0.902 -25.388 0.902 -25.388 0.429 64.394
23161.417 0.429 64.369 0.902 -25.413 0.902 -25.413 0.429 64.369
23186.375 0.43 64.344 0.901 -25.439 0.901 -25.439 0.43 64.344
23211.333 0.43 64.319 0.901 -25.464 0.901 -25.464 0.43 64.319
23236.292 0.43 64.293 0.901 -25.489 0.901 -25.489 0.43 64.293
23261.25 0.431 64.268 0.901 -25.515 0.901 -25.515 0.431 64.268
23286.208 0.431 64.243 0.901 -25.54 0.901 -25.54 0.431 64.243
23311.167 0.432 64.218 0.9 -25.565 0.9 -25.565 0.432 64.218
23336.125 0.432 64.193 0.9 -25.59 0.9 -25.59 0.432 64.193
23361.083 0.432 64.168 0.9 -25.616 0.9 -25.616 0.432 64.168
23386.042 0.433 64.144 0.9 -25.641 0.9 -25.641 0.433 64.144
23411 0.433 64.119 0.9 -25.666 0.9 -25.666 0.433 64.119
23435.958 0.434 64.094 0.9 -25.691 0.9 -25.691 0.434 64.094
23460.917 0.434 64.069 0.899 -25.716 0.899 -25.716 0.434 64.069
23485.875 0.434 64.044 0.899 -25.741 0.899 -25.741 0.434 64.044
23510.833 0.435 64.019 0.899 -25.767 0.899 -25.767 0.435 64.019
23535.792 0.435 63.994 0.899 -25.792 0.899 -25.792 0.435 63.994
23560.75 0.435 63.969 0.899 -25.817 0.899 -25.817 0.435 63.969
23585.708 0.436 63.944 0.898 -25.842 0.898 -25.842 0.436 63.944
23610.667 0.436 63.919 0.898 -25.867 0.898 -25.867 0.436 63.919
23635.625 0.437 63.894 0.898 -25.892 0.898 -25.892 0.437 63.894
23660.583 0.437 63.87 0.898 -25.917 0.898 -25.917 0.437 63.87
23685.542 0.437 63.845 0.898 -25.942 0.898 -25.942 0.437 63.845
23710.5 0.438 63.82 0.897 -25.967 0.897 -25.967 0.438 63.82
23735.458 0.438 63.795 0.897 -25.992 0.897 -25.992 0.438 63.795
23760.417 0.439 63.77 0.897 -26.017 0.897 -26.017 0.439 63.77
23785.375 0.439 63.746 0.897 -26.042 0.897 -26.042 0.439 63.746
23810.333 0.439 63.721 0.897 -26.068 0.897 -26.068 0.439 63.721
23835.292 0.44 63.696 0.896 -26.092 0.896 -26.092 0.44 63.696
23860.25 0.44 63.671 0.896 -26.117 0.896 -26.117 0.44 63.671
23885.208 0.441 63.647 0.896 -26.142 0.896 -26.142 0.441 63.647
23910.167 0.441 63.622 0.896 -26.167 0.896 -26.167 0.441 63.622
23935.125 0.441 63.597 0.896 -26.192 0.896 -26.192 0.441 63.597
23960.083 0.442 63.572 0.896 -26.217 0.896 -26.217 0.442 63.572
23985.042 0.442 63.548 0.895 -26.242 0.895 -26.242 0.442 63.548
24010 0.443 63.523 0.895 -26.267 0.895 -26.267 0.443 63.523
24034.958 0.443 63.498 0.895 -26.292 0.895 -26.292 0.443 63.498
24059.917 0.443 63.474 0.895 -26.317 0.895 -26.317 0.443 63.474
24084.875 0.444 63.449 0.895 -26.342 0.895 -26.342 0.444 63.449
24109.833 0.444 63.424 0.894 -26.367 0.894 -26.367 0.444 63.424
24134.792 0.445 63.4 0.894 -26.391 0.894 -26.391 0.445 63.4
24159.75 0.445 63.375 0.894 -26.416 0.894 -26.416 0.445 63.375
24184.708 0.445 63.351 0.894 -26.441 0.894 -26.441 0.445 63.351
24209.667 0.446 63.326 0.894 -26.466 0.894 -26.466 0.446 63.326
24234.625 0.446 63.301 0.893 -26.491 0.893 -26.491 0.446 63.301
24259.583 0.446 63.277 0.893 -26.516 0.893 -26.516 0.446 63.277
24284.542 0.447 63.252 0.893 -26.54 0.893 -26.54 0.447 63.252
24309.5 0.447 63.228 0.893 -26.565 0.893 -26.565 0.447 63.228
24334.458 0.448 63.203 0.893 -26.59 0.893 -26.59 0.448 63.203
24359.417 0.448 63.179 0.892 -26.615 0.892 -26.615 0.448 63.179
24384.375 0.448 63.154 0.892 -26.639 0.892 -26.639 0.448 63.154
24409.333 0.449 63.13 0.892 -26.664 0.892 -26.664 0.449 63.13
24434.292 0.449 63.105 0.892 -26.689 0.892 -26.689 0.449 63.105
24459.25 0.45 63.081 0.892 -26.713 0.892 -26.713 0.45 63.081
24484.208 0.45 63.056 0.891 -26.738 0.891 -26.738 0.45 63.056
24509.167 0.45 63.032 0.891 -26.763 0.891 -26.763 0.45 63.032
24534.125 0.451 63.007 0.891 -26.787 0.891 -26.787 0.451 63.007
24559.083 0.451 62.983 0.891 -26.812 0.891 -26.812 0.451 62.983
24584.042 0.451 62.959 0.891 -26.837 0.891 -26.837 0.451 62.959
24609 0.452 62.934 0.89 -26.861 0.89 -26.861 0.452 62.934
24633.958 0.452 62.91 0.89 -26.886 0.89 -26.886 0.452 62.91
24658.917 0.453 62.885 0.89 -26.911 0.89 -26.911 0.453 62.885
24683.875 0.453 62.861 0.89 -26.935 0.89 -26.935 0.453 62.861
24708.833 0.453 62.837 0.89 -26.96 0.89 -26.96 0.453 62.837
24733.792 0.454 62.812 0.89 -26.984 0.89 -26.984 0.454 62.812
24758.75 0.454 62.788 0.889 -27.009 0.889 -27.009 0.454 62.788
24783.708 0.455 62.764 0.889 -27.033 0.889 -27.033 0.455 62.764
24808.667 0.455 62.739 0.889 -27.058 0.889 -27.058 0.455 62.739
24833.625 0.455 62.715 0.889 -27.082 0.889 -27.082 0.455 62.715
24858.583 0.456 62.691 0.889 -27.107 0.889 -27.107 0.456 62.691
24883.542 0.456 62.666 0.888 -27.131 0.888 -27.131 0.456 62.666
24908.5 0.456 62.642 0.888 -27.156 0.888 -27.156 0.456 62.642
24933.458 0.457 62.618 0.888 -27.18 0.888 -27.18 0.457 62.618
24958.417 0.457 62.594 0.888 -27.205 0.888 -27.205 0.457 62.594
24983.375 0.458 62.569 0.888 -27.229 0.888 -27.229 0.458 62.569
25008.333 0.458 62.545 0.887 -27.254 0.887 -27.254 0.458 62.545
25033.292 0.458 62.521 0.887 -27.278 0.887 -27.278 0.458 62.521
25058.25 0.459 62.497 0.887 -27.303 0.887 -27.303 0.459 62.497
25083.208 0.459 62.473 0.887 -27.327 0.887 -27.327 0.459 62.473
25108.167 0.459 62.448 0.887 -27.351 0.887 -27.351 0.459 62.448
25133.125 0.46 62.424 0.886 -27.376 0.886 -27.376 0.46 62.424
25158.083 0.46 62.4 0.886 -27.4 0.886 -27.4 0.46 62.4
25183.042 0.461 62.376 0.886 -27.424 0.886 -27.424 0.461 62.376
25208 0.461 62.352 0.886 -27.449 0.886 -27.449 0.461 62.352
25232.958 0.461 62.328 0.886 -27.473 0.886 -27.473 0.461 62.328
25257.917 0.462 62.304 0.885 -27.497 0.885 -27.497 0.462 62.304
25282.875 0.462 62.28 0.885 -27.522 0.885 -27.522 0.462 62.28
25307.833 0.462 62.255 0.885 -27.546 0.885 -27.546 0.462 62.255
25332.792 0.463 62.231 0.885 -27.57 0.885 -27.57 0.463 62.231
25357.75 0.463 62.207 0.885 -27.595 0.885 -27.595 0.463 62.207
25382.708 0.464 62.183 0.884 -27.619 0.884 -27.619 0.464 62.183
25407.667 0.464 62.159 0.884 -27.643 0.884 -27.643 0.464 62.159
25432.625 0.464 62.135 0.884 -27.667 0.884 -27.667 0.464 62.135
25457.583 0.465 62.111 0.884 -27.691 0.884 -27.691 0.465 62.111
25482.542 0.465 62.087 0.884 -27.716 0.884 -27.716 0.465 62.087
25507.5 0.465 62.063 0.883 -27.74 0.883 -27.74 0.465 62.063
25532.458 0.466 62.039 0.883 -27.764 0.883 -27.764 0.466 62.039
25557.417 0.466 62.015 0.883 -27.788 0.883 -27.788 0.466 62.015
25582.375 0.467 61.991 0.883 -27.812 0.883 -27.812 0.467 61.991
25607.333 0.467 61.967 0.883 -27.837 0.883 -27.837 0.467 61.967
25632.292 0.467 61.943 0.882 -27.861 0.882 -27.861 0.467 61.943
25657.25 0.468 61.92 0.882 -27.885 0.882 -27.885 0.468 61.92
25682.208 0.468 61.896 0.882 -27.909 0.882 -27.909 0.468 61.896
25707.167 0.468 61.872 0.882 -27.933 0.882 -27.933 0.468 61.872
25732.125 0.469 61.848 0.882 -27.957 0.882 -27.957 0.469 61.848
25757.083 0.469 61.824 0.882 -27.981 0.882 -27.981 0.469 61.824
25782.042 0.47 61.8 0.881 -28.005 0.881 -28.005 0.47 61.8
25807 0.47 61.776 0.881 -28.029 0.881 -28.029 0.47 61.776
25831.958 0.47 61.752 0.881 -28.053 0.881 -28.053 0.47 61.752
25856.917 0.471 61.729 0.881 -28.077 0.881 -28.077 0.471 61.729
25881.875 0.471 61.705 0.881 -28.101 0.881 -28.101 0.471 61.705
25906.833 0.471 61.681 0.88 -28.125 0.88 -28.125 0.471 61.681
25931.792 0.472 61.657 0.88 -28.149 0.88 -28.149 0.472 61.657
25956.75 0.472 61.633 0.88 -28.173 0.88 -28.173 0.472 61.633
25981.708 0.473 61.61 0.88 -28.197 0.88 -28.197 0.473 61.61
26006.667 0.473 61.586 0.88 -28.221 0.88 -28.221 0.473 61.586
26031.625 0.473 61.562 0.879 -28.245 0.879 -28.245 0.473 61.562
26056.583 0.474 61.538 0.879 -28.269 0.879 -28.269 0.474 61.538
26081.542 0.474 61.515 0.879 -28.293 0.879 -28.293 0.474 61.515
26106.5 0.474 61.491 0.879 -28.317 0.879 -28.317 0.474 61.491
26131.458 0.475 61.467 0.879 -28.341 0.879 -28.341 0.475 61.467
26156.417 0.475 61.443 0.878 -28.365 0.878 -28.365 0.475 61.443
26181.375 0.475 61.42 0.878 -28.389 0.878 -28.389 0.475 61.42
26206.333 0.476 61.396 0.878 -28.413 0.878 -28.413 0.476 61.396
26231.292 0.476 61.372 0.878 -28.436 0.878 -28.436 0.476 61.372
26256.25 0.477 61.349 0.878 -28.46 0.878 -28.46 0.477 61.349
26281.208 0.477 61.325 0.877 -28.484 0.877 -28.484 0.477 61.325
26306.167 0.477 61.301 0.877 -28.508 0.877 -28.508 0.477 61.301
26331.125 0.478 61.278 0.877 -28.532 0.877 -28.532 0.478 61.278
26356.083 0.478 61.254 0.877 -28.556 0.877 -28.556 0.478 61.254
26381.042 0.478 61.231 0.877 -28.579 0.877 -28.579 0.478 61.231
26406 0.479 61.207 0.876 -28.603 0.876 -28.603 0.479 61.207
26430.958 0.479 61.183 0.876 -28.627 0.876 -28.627 0.479 61.183
26455.917 0.479 61.16 0.876 -28.651 0.876 -28.651 0.479 61.16
26480.875 0.48 61.136 0.876 -28.674 0.876 -28.674 0.48 61.136
26505.833 0.48 61.113 0.876 -28.698 0.876 -28.698 0.48 61.113
26530.792 0.481 61.089 0.875 -28.722 0.875 -28.722 0.481 61.089
26555.75 0.481 61.066 0.875 -28.745 0.875 -28.745 0.481 61.066
26580.708 0.481 61.042 0.875 -28.769 0.875 -28.769 0.481 61.042
26605.667 0.482 61.019 0.875 -28.793 0.875 -28.793 0.482 61.019
26630.625 0.482 60.995 0.875 -28.816 0.875 -28.816 0.482 60.995
26655.583 0.482 60.972 0.874 -28.84 0.874 -28.84 0.482 60.972
26680.542 0.483 60.948 0.874 -28.864 0.874 -28.864 0.483 60.948
26705.5 0.483 60.925 0.874 -28.887 0.874 -28.887 0.483 60.925
26730.458 0.483 60.901 0.874 -28.911 0.874 -28.911 0.483 60.901
26755.417 0.484 60.878 0.874 -28.935 0.874 -28.935 0.484 60.878
26780.375 0.484 60.855 0.873 -28.958 0.873 -28.958 0.484 60.855
26805.333 0.485 60.831 0.873 -28.982 0.873 -28.982 0.485 60.831
26830.292 0.485 60.808 0.873 -29.005 0.873 -29.005 0.485 60.808
26855.25 0.485 60.784 0.873 -29.029 0.873 -29.029 0.485 60.784
26880.208 0.486 60.761 0.873 -29.053 0.873 -29.053 0.486 60.761
26905.167 0.486 60.738 0.872 -29.076 0.872 -29.076 0.486 60.738
26930.125 0.486 60.714 0.872 -29.1 0.872 -29.1 0.486 60.714
26955.083 0.487 60.691 0.872 -29.123 0.872 -29.123 0.487 60.691
26980.042 0.487 60.668 0.872 -29.147 0.872 -29.147 0.487 60.668
27005 0.487 60.644 0.872 -29.17 0.872 -29.17 0.487 60.644
27029.958 0.488 60.621 0.871 -29.194 0.871 -29.194 0.488 60.621
27054.917 0.488 60.598 0.871 -29.217 0.871 -29.217 0.488 60.598
27079.875 0.488 60.575 0.871 -29.241 0.871 -29.241 0.488 60.575
27104.833 0.489 60.551 0.871 -29.264 0.871 -29.264 0.489 60.551
27129.792 0.489 60.528 0.871 -29.287 0.871 -29.287 0.489 60.528
27154.75 0.49 60.505 0.87 -29.311 0.87 -29.311 0.49 60.505
27179.708 0.49 60.482 0.87 -29.334 0.87 -29.334 0.49 60.482
27204.667 0.49 60.458 0.87 -29.358 0.87 -29.358 0.49 60.458
27229.625 0.491 60.435 0.87 -29.381 0.87 -29.381 0.491 60.435
27254.583 0.491 60.412 0.87 -29.404 0.87 -29.404 0.491 60.412
27279.542 0.491 60.389 0.869 -29.428 0.869 -29.428 0.491 60.389
27304.5 0.492 60.366 0.869 -29.451 0.869 -29.451 0.492 60.366
27329.458 0.492 60.342 0.869 -29.474 0.869 -29.474 0.492 60.342
27354.417 0.492 60.319 0.869 -29.498 0.869 -29.498 0.492 60.319
27379.375 0.493 60.296 0.869 -29.521 0.869 -29.521 0.493 60.296
27404.333 0.493 60.273 0.868 -29.544 0.868 -29.544 0.493 60.273
27429.292 0.493 60.25 0.868 -29.568 0.868 -29.568 0.493 60.25
27454.25 0.494 60.227 0.868 -29.591 0.868 -29.591 0.494 60.227
27479.208 0.494 60.204 0.868 -29.614 0.868 -29.614 0.494 60.204
27504.167 0.495 60.18 0.868 -29.638 0.868 -29.638 0.495 60.18
27529.125 0.495 60.157 0.867 -29.661 0.867 -29.661 0.495 60.157
27554.083 0.495 60.134 0.867 -29.684 0.867 -29.684 0.495 60.134
27579.042 0.496 60.111 0.867 -29.707 0.867 -29.707 0.496 60.111
27604 0.496 60.088 0.867 -29.73 0.867 -29.73 0.496 60.088
27628.958 0.496 60.065 0.867 -29.754 0.867 -29.754 0.496 60.065
27653.917 0.497 60.042 0.866 -29.777 0.866 -29.777 0.497 60.042
27678.875 0.497 60.019 0.866 -29.8 0.866 -29.8 0.497 60.019
27703.833 0.497 59.996 0.866 -29.823 0.866 -29.823 0.497 59.996
27728.792 0.498 59.973 0.866 -29.846 0.866 -29.846 0.498 59.973
27753.75 0.498 59.95 0.866 -29.869 0.866 -29.869 0.498 59.95
27778.708 0.498 59.927 0.865 -29.893 0.865 -29.893 0.498 59.927
27803.667 0.499 59.904 0.865 -29.916 0.865 -29.916 0.499 59.904
27828.625 0.499 59.881 0.865 -29.939 0.865 -29.939 0.499 59.881
27853.583 0.499 59.858 0.865 -29.962 0.865 -29.962 0.499 59.858
27878.542 0.5 59.836 0.865 -29.985 0.865 -29.985 0.5 59.836
27903.5 0.5 59.813 0.864 -30.008 0.864 -30.008 0.5 59.813
27928.458 0.5 59.79 0.864 -30.031 0.864 -30.031 0.5 59.79
27953.417 0.501 59.767 0.864 -30.054 0.864 -30.054 0.501 59.767
27978.375 0.501 59.744 0.864 -30.077 0.864 -30.077 0.501 59.744
28003.333 0.502 59.721 0.864 -30.1 0.864 -30.1 0.502 59.721
28028.292 0.502 59.698 0.863 -30.123 0.863 -30.123 0.502 59.698
28053.25 0.502 59.675 0.863 -30.146 0.863 -30.146 0.502 59.675
28078.208 0.503 59.653 0.863 -30.169 0.863 -30.169 0.503 59.653
28103.167 0.503 59.63 0.863 -30.192 0.863 -30.192 0.503 59.63
28128.125 0.503 59.607 0.863 -30.215 0.863 -30.215 0.503 59.607
28153.083 0.504 59.584 0.862 -30.238 0.862 -30.238 0.504 59.584
28178.042 0.504 59.561 0.862 -30.261 0.862 -30.261 0.504 59.561
28203 0.504 59.539 0.862 -30.284 0.862 -30.284 0.504 59.539
28227.958 0.505 59.516 0.862 -30.307 0.862 -30.307 0.505 59.516
28252.917 0.505 59.493 0.862 -30.33 0.862 -30.33 0.505 59.493
28277.875 0.505 59.47 0.861 -30.353 0.861 -30.353 0.505 59.47
28302.833 0.506 59.448 0.861 -30.376 0.861 -30.376 0.506 59.448
28327.792 0.506 59.425 0.861 -30.399 0.861 -30.399 0.506 59.425
28352.75 0.506 59.402 0.861 -30.422 0.861 -30.422 0.506 59.402
28377.708 0.507 59.379 0.861 -30.444 0.861 -30.444 0.507 59.379
28402.667 0.507 59.357 0.86 -30.467 0.86 -30.467 0.507 59.357
28427.625 0.507 59.334 0.86 -30.49 0.86 -30.49 0.507 59.334
28452.583 0.508 59.311 0.86 -30.513 0.86 -30.513 0.508 59.311
28477.542 0.508 59.289 0.86 -30.536 0.86 -30.536 0.508 59.289
28502.5 0.508 59.266 0.86 -30.558 0.86 -30.558 0.508 59.266
28527.458 0.509 59.244 0.859 -30.581 0.859 -30.581 0.509 59.244
28552.417 0.509 59.221 0.859 -30.604 0.859 -30.604 0.509 59.221
28577.375 0.509 59.198 0.859 -30.627 0.859 -30.627 0.509 59.198
28602.333 0.51 59.176 0.859 -30.65 0.859 -30.65 0.51 59.176
28627.292 0.51 59.153 0.859 -30.672 0.859 -30.672 0.51 59.153
28652.25 0.51 59.131 0.858 -30.695 0.858 -30.695 0.51 59.131
28677.208 0.511 59.108 0.858 -30.718 0.858 -30.718 0.511 59.108
28702.167 0.511 59.085 0.858 -30.74 0.858 -30.74 0.511 59.085
28727.125 0.511 59.063 0.858 -30.763 0.858 -30.763 0.511 59.063
28752.083 0.512 59.04 0.858 -30.786 0.858 -30.786 0.512 59.04
28777.042 0.512 59.018 0.857 -30.809 0.857 -30.809 0.512 59.018
28802 0.513 58.995 0.857 -30.831 0.857 -30.831 0.513 58.995
28826.958 0.513 58.973 0.857 -30.854 0.857 -30.854 0.513 58.973
28851.917 0.513 58.95 0.857 -30.876 0.857 -30.876 0.513 58.95
28876.875 0.514 58.928 0.857 -30.899 0.857 -30.899 0.514 58.928
28901.833 0.514 58.905 0.856 -30.922 0.856 -30.922 0.514 58.905
28926.792 0.514 58.883 0.856 -30.944 0.856 -30.944 0.514 58.883
28951.75 0.515 58.861 0.856 -30.967 0.856 -30.967 0.515 58.861
28976.708 0.515 58.838 0.856 -30.99 0.856 -30.99 0.515 58.838
29001.667 0.515 58.816 0.856 -31.012 0.856 -31.012 0.515 58.816
29026.625 0.516 58.793 0.855 -31.035 0.855 -31.035 0.516 58.793
29051.583 0.516 58.771 0.855 -31.057 0.855 -31.057 0.516 58.771
29076.542 0.516 58.748 0.855 -31.08 0.855 -31.08 0.516 58.748
29101.5 0.517 58.726 0.855 -31.102 0.855 -31.102 0.517 58.726
29126.458 0.517 58.704 0.854 -31.125 0.854 -31.125 0.517 58.704
29151.417 0.517 58.681 0.854 -31.147 0.854 -31.147 0.517 58.681
29176.375 0.518 58.659 0.854 -31.17 0.854 -31.17 0.518 58.659
29201.333 0.518 58.637 0.854 -31.192 0.854 -31.192 0.518 58.637
29226.292 0.518 58.614 0.854 -31.215 0.854 -31.215 0.518 58.614
29251.25 0.519 58.592 0.853 -31.237 0.853 -31.237 0.519 58.592
29276.208 0.519 58.57 0.853 -31.26 0.853 -31.26 0.519 58.57
29301.167 0.519 58.547 0.853 -31.282 0.853 -31.282 0.519 58.547
29326.125 0.52 58.525 0.853 -31.304 0.853 -31.304 0.52 58.525
29351.083 0.52 58.503 0.853 -31.327 0.853 -31.327 0.52 58.503
29376.042 0.52 58.481 0.852 -31.349 0.852 -31.349 0.52 58.481
29401 0.521 58.458 0.852 -31.372 0.852 -31.372 0.521 58.458
29425.958 0.521 58.436 0.852 -31.394 0.852 -31.394 0.521 58.436
29450.917 0.521 58.414 0.852 -31.416 0.852 -31.416 0.521 58.414
29475.875 0.522 58.392 0.852 -31.439 0.852 -31.439 0.522 58.392
29500.833 0.522 58.37 0.851 -31.461 0.851 -31.461 0.522 58.37
29525.792 0.522 58.347 0.851 -31.483 0.851 -31.483 0.522 58.347
29550.75 0.523 58.325 0.851 -31.506 0.851 -31.506 0.523 58.325
29575.708 0.523 58.303 0.851 -31.528 0.851 -31.528 0.523 58.303
29600.667 0.523 58.281 0.851 -31.55 0.851 -31.55 0.523 58.281
29625.625 0.524 58.259 0.85 -31.573 0.85 -31.573 0.524 58.259
29650.583 0.524 58.237 0.85 -31.595 0.85 -31.595 0.524 58.237
29675.542 0.524 58.215 0.85 -31.617 0.85 -31.617 0.524 58.215
29700.5 0.525 58.192 0.85 -31.64 0.85 -31.64 0.525 58.192
29725.458 0.525 58.17 0.85 -31.662 0.85 -31.662 0.525 58.17
29750.417 0.525 58.148 0.849 -31.684 0.849 -31.684 0.525 58.148
29775.375 0.526 58.126 0.849 -31.706 0.849 -31.706 0.526 58.126
29800.333 0.526 58.104 0.849 -31.728 0.849 -31.728 0.526 58.104
29825.292 0.526 58.082 0.849 -31.751 0.849 -31.751 0.526 58.082
29850.25 0.527 58.06 0.849 -31.773 0.849 -31.773 0.527 58.06
29875.208 0.527 58.038 0.848 -31.795 0.848 -31.795 0.527 58.038
29900.167 0.527 58.016 0.848 -31.817 0.848 -31.817 0.527 58.016
29925.125 0.528 57.994 0.848 -31.839 0.848 -31.839 0.528 57.994
29950.083 0.528 57.972 0.848 -31.861 0.848 -31.861 0.528 57.972
29975.042 0.528 57.95 0.848 -31.884 0.848 -31.884 0.528 57.95
30000 0.529 57.928 0.847 -31.906 0.847 -31.906 0.529 57.928
