!	AVX Thin Film Operation 	Date: April 2014		
!	Description: Accu-P® Series, Thin Film  SMD RF Capacitor
!	Part Number: 04025J4R5ABSTR					
!
# MHZ S MA R 50

50 0.99 -8.048 0.14 81.948 0.14 81.948 0.99 -8.048
74.958 0.978 -11.971 0.207 78.024 0.207 78.024 0.978 -11.971
99.917 0.962 -15.786 0.272 74.206 0.272 74.206 0.962 -15.786
124.875 0.943 -19.467 0.333 70.524 0.333 70.524 0.943 -19.467
149.833 0.92 -22.993 0.391 66.996 0.391 66.996 0.92 -22.993
174.792 0.896 -26.349 0.444 63.638 0.444 63.638 0.896 -26.349
199.75 0.87 -29.528 0.493 60.458 0.493 60.458 0.87 -29.528
224.708 0.843 -32.524 0.538 57.459 0.538 57.459 0.843 -32.524
249.667 0.816 -35.34 0.578 54.641 0.578 54.641 0.816 -35.34
274.625 0.788 -37.98 0.615 52 0.615 52 0.788 -37.98
299.583 0.761 -40.45 0.649 49.528 0.649 49.528 0.761 -40.45
324.542 0.734 -42.758 0.679 47.219 0.679 47.219 0.734 -42.758
349.5 0.708 -44.913 0.706 45.061 0.706 45.061 0.708 -44.913
374.458 0.683 -46.925 0.73 43.047 0.73 43.047 0.683 -46.925
399.417 0.658 -48.804 0.752 41.166 0.752 41.166 0.658 -48.804
424.375 0.635 -50.559 0.772 39.409 0.772 39.409 0.635 -50.559
449.333 0.612 -52.2 0.79 37.766 0.79 37.766 0.612 -52.2
474.292 0.591 -53.736 0.806 36.229 0.806 36.229 0.591 -53.736
499.25 0.571 -55.174 0.821 34.789 0.821 34.789 0.571 -55.174
524.208 0.551 -56.522 0.834 33.439 0.834 33.439 0.551 -56.522
549.167 0.532 -57.787 0.846 32.172 0.846 32.172 0.532 -57.787
574.125 0.515 -58.977 0.857 30.98 0.857 30.98 0.515 -58.977
599.083 0.498 -60.096 0.867 29.859 0.867 29.859 0.498 -60.096
624.042 0.482 -61.151 0.876 28.802 0.876 28.802 0.482 -61.151
649 0.466 -62.146 0.884 27.805 0.884 27.805 0.466 -62.146
673.958 0.452 -63.086 0.892 26.863 0.892 26.863 0.452 -63.086
698.917 0.438 -63.976 0.899 25.971 0.899 25.971 0.438 -63.976
723.875 0.425 -64.818 0.905 25.127 0.905 25.127 0.425 -64.818
748.833 0.412 -65.617 0.911 24.326 0.911 24.326 0.412 -65.617
773.792 0.4 -66.376 0.916 23.565 0.916 23.565 0.4 -66.376
798.75 0.388 -67.097 0.921 22.842 0.921 22.842 0.388 -67.097
823.708 0.377 -67.783 0.926 22.153 0.926 22.153 0.377 -67.783
848.667 0.366 -68.437 0.93 21.497 0.93 21.497 0.366 -68.437
873.625 0.356 -69.061 0.934 20.871 0.934 20.871 0.356 -69.061
898.583 0.346 -69.657 0.938 20.273 0.938 20.273 0.346 -69.657
923.542 0.337 -70.227 0.941 19.701 0.941 19.701 0.337 -70.227
948.5 0.328 -70.772 0.944 19.154 0.944 19.154 0.328 -70.772
973.458 0.319 -71.294 0.947 18.63 0.947 18.63 0.319 -71.294
998.417 0.311 -71.794 0.95 18.127 0.95 18.127 0.311 -71.794
1023.375 0.303 -72.275 0.953 17.644 0.953 17.644 0.303 -72.275
1048.333 0.295 -72.736 0.955 17.18 0.955 17.18 0.295 -72.736
1073.292 0.288 -73.18 0.957 16.734 0.957 16.734 0.288 -73.18
1098.25 0.281 -73.607 0.959 16.305 0.959 16.305 0.281 -73.607
1123.208 0.274 -74.018 0.961 15.891 0.961 15.891 0.274 -74.018
1148.167 0.267 -74.415 0.963 15.492 0.963 15.492 0.267 -74.415
1173.125 0.261 -74.797 0.965 15.108 0.965 15.108 0.261 -74.797
1198.083 0.254 -75.166 0.967 14.736 0.967 14.736 0.254 -75.166
1223.042 0.248 -75.522 0.968 14.377 0.968 14.377 0.248 -75.522
1248 0.242 -75.867 0.97 14.03 0.97 14.03 0.242 -75.867
1272.958 0.237 -76.2 0.971 13.694 0.971 13.694 0.237 -76.2
1297.917 0.231 -76.523 0.972 13.368 0.972 13.368 0.231 -76.523
1322.875 0.226 -76.836 0.974 13.053 0.974 13.053 0.226 -76.836
1347.833 0.221 -77.139 0.975 12.747 0.975 12.747 0.221 -77.139
1372.792 0.216 -77.433 0.976 12.451 0.976 12.451 0.216 -77.433
1397.75 0.211 -77.718 0.977 12.163 0.977 12.163 0.211 -77.718
1422.708 0.206 -77.995 0.978 11.883 0.978 11.883 0.206 -77.995
1447.667 0.201 -78.264 0.979 11.611 0.979 11.611 0.201 -78.264
1472.625 0.197 -78.525 0.98 11.346 0.98 11.346 0.197 -78.525
1497.583 0.192 -78.779 0.981 11.089 0.981 11.089 0.192 -78.779
1522.542 0.188 -79.027 0.982 10.838 0.982 10.838 0.188 -79.027
1547.5 0.184 -79.268 0.983 10.594 0.983 10.594 0.184 -79.268
1572.458 0.18 -79.502 0.983 10.356 0.983 10.356 0.18 -79.502
1597.417 0.176 -79.731 0.984 10.125 0.984 10.125 0.176 -79.731
1622.375 0.172 -79.954 0.985 9.898 0.985 9.898 0.172 -79.954
1647.333 0.168 -80.171 0.985 9.677 0.985 9.677 0.168 -80.171
1672.292 0.164 -80.384 0.986 9.462 0.986 9.462 0.164 -80.384
1697.25 0.161 -80.591 0.987 9.251 0.987 9.251 0.161 -80.591
1722.208 0.157 -80.793 0.987 9.045 0.987 9.045 0.157 -80.793
1747.167 0.154 -80.99 0.988 8.844 0.988 8.844 0.154 -80.99
1772.125 0.15 -81.183 0.988 8.647 0.988 8.647 0.15 -81.183
1797.083 0.147 -81.372 0.989 8.454 0.989 8.454 0.147 -81.372
1822.042 0.144 -81.557 0.989 8.266 0.989 8.266 0.144 -81.557
1847 0.141 -81.737 0.99 8.081 0.99 8.081 0.141 -81.737
1871.958 0.137 -81.914 0.99 7.9 0.99 7.9 0.137 -81.914
1896.917 0.134 -82.087 0.99 7.723 0.99 7.723 0.134 -82.087
1921.875 0.131 -82.256 0.991 7.549 0.991 7.549 0.131 -82.256
1946.833 0.128 -82.422 0.991 7.379 0.991 7.379 0.128 -82.422
1971.792 0.126 -82.585 0.992 7.212 0.992 7.212 0.126 -82.585
1996.75 0.123 -82.744 0.992 7.047 0.992 7.047 0.123 -82.744
2021.708 0.12 -82.9 0.992 6.886 0.992 6.886 0.12 -82.9
2046.667 0.117 -83.053 0.993 6.728 0.993 6.728 0.117 -83.053
2071.625 0.114 -83.203 0.993 6.573 0.993 6.573 0.114 -83.203
2096.583 0.112 -83.351 0.993 6.42 0.993 6.42 0.112 -83.351
2121.542 0.109 -83.495 0.994 6.27 0.994 6.27 0.109 -83.495
2146.5 0.107 -83.637 0.994 6.123 0.994 6.123 0.107 -83.637
2171.458 0.104 -83.776 0.994 5.977 0.994 5.977 0.104 -83.776
2196.417 0.102 -83.913 0.994 5.835 0.994 5.835 0.102 -83.913
2221.375 0.099 -84.047 0.995 5.694 0.995 5.694 0.099 -84.047
2246.333 0.097 -84.179 0.995 5.556 0.995 5.556 0.097 -84.179
2271.292 0.094 -84.308 0.995 5.42 0.995 5.42 0.094 -84.308
2296.25 0.092 -84.435 0.995 5.286 0.995 5.286 0.092 -84.435
2321.208 0.09 -84.56 0.996 5.154 0.996 5.154 0.09 -84.56
2346.167 0.088 -84.683 0.996 5.024 0.996 5.024 0.088 -84.683
2371.125 0.085 -84.803 0.996 4.896 0.996 4.896 0.085 -84.803
2396.083 0.083 -84.922 0.996 4.769 0.996 4.769 0.083 -84.922
2421.042 0.081 -85.038 0.996 4.645 0.996 4.645 0.081 -85.038
2446 0.079 -85.152 0.996 4.522 0.996 4.522 0.079 -85.152
2470.958 0.077 -85.264 0.997 4.401 0.997 4.401 0.077 -85.264
2495.917 0.075 -85.374 0.997 4.281 0.997 4.281 0.075 -85.374
2520.875 0.073 -85.482 0.997 4.163 0.997 4.163 0.073 -85.482
2545.833 0.071 -85.589 0.997 4.047 0.997 4.047 0.071 -85.589
2570.792 0.069 -85.693 0.997 3.932 0.997 3.932 0.069 -85.693
2595.75 0.067 -85.795 0.997 3.818 0.997 3.818 0.067 -85.795
2620.708 0.065 -85.896 0.997 3.706 0.997 3.706 0.065 -85.896
2645.667 0.063 -85.994 0.998 3.596 0.998 3.596 0.063 -85.994
2670.625 0.061 -86.091 0.998 3.486 0.998 3.486 0.061 -86.091
2695.583 0.059 -86.185 0.998 3.378 0.998 3.378 0.059 -86.185
2720.542 0.057 -86.278 0.998 3.271 0.998 3.271 0.057 -86.278
2745.5 0.055 -86.368 0.998 3.166 0.998 3.166 0.055 -86.368
2770.458 0.053 -86.457 0.998 3.061 0.998 3.061 0.053 -86.457
2795.417 0.052 -86.543 0.998 2.958 0.998 2.958 0.052 -86.543
2820.375 0.05 -86.627 0.998 2.856 0.998 2.856 0.05 -86.627
2845.333 0.048 -86.709 0.998 2.755 0.998 2.755 0.048 -86.709
2870.292 0.046 -86.789 0.998 2.655 0.998 2.655 0.046 -86.789
2895.25 0.045 -86.866 0.999 2.556 0.999 2.556 0.045 -86.866
2920.208 0.043 -86.941 0.999 2.458 0.999 2.458 0.043 -86.941
2945.167 0.041 -87.013 0.999 2.361 0.999 2.361 0.041 -87.013
2970.125 0.04 -87.083 0.999 2.266 0.999 2.266 0.04 -87.083
2995.083 0.038 -87.149 0.999 2.171 0.999 2.171 0.038 -87.149
3020.042 0.036 -87.212 0.999 2.077 0.999 2.077 0.036 -87.212
3045 0.035 -87.272 0.999 1.983 0.999 1.983 0.035 -87.272
3069.958 0.033 -87.328 0.999 1.891 0.999 1.891 0.033 -87.328
3094.917 0.031 -87.38 0.999 1.8 0.999 1.8 0.031 -87.38
3119.875 0.03 -87.427 0.999 1.709 0.999 1.709 0.03 -87.427
3144.833 0.028 -87.469 0.999 1.62 0.999 1.62 0.028 -87.469
3169.792 0.027 -87.505 0.999 1.531 0.999 1.531 0.027 -87.505
3194.75 0.025 -87.534 0.999 1.443 0.999 1.443 0.025 -87.534
3219.708 0.024 -87.555 0.999 1.355 0.999 1.355 0.024 -87.555
3244.667 0.022 -87.567 0.999 1.269 0.999 1.269 0.022 -87.567
3269.625 0.021 -87.569 0.999 1.183 0.999 1.183 0.021 -87.569
3294.583 0.019 -87.557 0.999 1.098 0.999 1.098 0.019 -87.557
3319.542 0.018 -87.529 0.999 1.013 0.999 1.013 0.018 -87.529
3344.5 0.016 -87.482 0.999 0.929 0.999 0.929 0.016 -87.482
3369.458 0.015 -87.409 0.999 0.846 0.999 0.846 0.015 -87.409
3394.417 0.013 -87.303 0.999 0.764 0.999 0.764 0.013 -87.303
3419.375 0.012 -87.153 0.999 0.682 0.999 0.682 0.012 -87.153
3444.333 0.01 -86.942 0.999 0.601 0.999 0.601 0.01 -86.942
3469.292 9.092e-3 -86.643 1 0.52 1 0.52 9.092e-3 -86.643
3494.25 7.698e-3 -86.209 1 0.44 1 0.44 7.698e-3 -86.209
3519.208 6.316e-3 -85.553 1 0.361 1 0.361 6.316e-3 -85.553
3544.167 4.945e-3 -84.497 1 0.282 1 0.282 4.945e-3 -84.497
3569.125 3.588e-3 -82.591 1 0.204 1 0.204 3.588e-3 -82.591
3594.083 2.249e-3 -78.334 1 0.126 1 0.126 2.249e-3 -78.334
3619.042 968.7e-6 -62.272 1 0.049 1 0.049 968.7e-6 -62.272
3644 657.1e-6 46.755 1 -0.027 1 -0.027 657.1e-6 46.755
3668.958 1.862e-3 75.91 1 -0.104 1 -0.104 1.862e-3 75.91
3693.917 3.158e-3 81.628 1 -0.179 1 -0.179 3.158e-3 81.628
3718.875 4.458e-3 83.953 1 -0.254 1 -0.254 4.458e-3 83.953
3743.833 5.754e-3 85.186 1 -0.329 1 -0.329 5.754e-3 85.186
3768.792 7.044e-3 85.935 1 -0.403 1 -0.403 7.044e-3 85.935
3793.75 8.327e-3 86.426 1 -0.476 1 -0.476 8.327e-3 86.426
3818.708 9.602e-3 86.764 1 -0.55 1 -0.55 9.602e-3 86.764
3843.667 0.011 87.005 0.999 -0.622 0.999 -0.622 0.011 87.005
3868.625 0.012 87.179 0.999 -0.694 0.999 -0.694 0.012 87.179
3893.583 0.013 87.307 0.999 -0.766 0.999 -0.766 0.013 87.307
3918.542 0.015 87.399 0.999 -0.838 0.999 -0.838 0.015 87.399
3943.5 0.016 87.466 0.999 -0.909 0.999 -0.909 0.016 87.466
3968.458 0.017 87.513 0.999 -0.979 0.999 -0.979 0.017 87.513
3993.417 0.018 87.543 0.999 -1.049 0.999 -1.049 0.018 87.543
4018.375 0.02 87.561 0.999 -1.119 0.999 -1.119 0.02 87.561
4043.333 0.021 87.569 0.999 -1.188 0.999 -1.188 0.021 87.569
4068.292 0.022 87.568 0.999 -1.257 0.999 -1.257 0.022 87.568
4093.25 0.023 87.56 0.999 -1.326 0.999 -1.326 0.023 87.56
4118.208 0.024 87.547 0.999 -1.394 0.999 -1.394 0.024 87.547
4143.167 0.026 87.528 0.999 -1.462 0.999 -1.462 0.026 87.528
4168.125 0.027 87.505 0.999 -1.529 0.999 -1.529 0.027 87.505
4193.083 0.028 87.478 0.999 -1.597 0.999 -1.597 0.028 87.478
4218.042 0.029 87.449 0.999 -1.663 0.999 -1.663 0.029 87.449
4243 0.03 87.417 0.999 -1.73 0.999 -1.73 0.03 87.417
4267.958 0.031 87.382 0.999 -1.796 0.999 -1.796 0.031 87.382
4292.917 0.032 87.345 0.999 -1.862 0.999 -1.862 0.032 87.345
4317.875 0.034 87.307 0.999 -1.927 0.999 -1.927 0.034 87.307
4342.833 0.035 87.267 0.999 -1.992 0.999 -1.992 0.035 87.267
4367.792 0.036 87.225 0.999 -2.057 0.999 -2.057 0.036 87.225
4392.75 0.037 87.182 0.999 -2.122 0.999 -2.122 0.037 87.182
4417.708 0.038 87.139 0.999 -2.186 0.999 -2.186 0.038 87.139
4442.667 0.039 87.094 0.999 -2.25 0.999 -2.25 0.039 87.094
4467.625 0.04 87.048 0.999 -2.313 0.999 -2.313 0.04 87.048
4492.583 0.041 87.002 0.999 -2.377 0.999 -2.377 0.041 87.002
4517.542 0.043 86.955 0.999 -2.44 0.999 -2.44 0.043 86.955
4542.5 0.044 86.907 0.999 -2.503 0.999 -2.503 0.044 86.907
4567.458 0.045 86.859 0.999 -2.565 0.999 -2.565 0.045 86.859
4592.417 0.046 86.811 0.998 -2.627 0.998 -2.627 0.046 86.811
4617.375 0.047 86.762 0.998 -2.689 0.998 -2.689 0.047 86.762
4642.333 0.048 86.712 0.998 -2.751 0.998 -2.751 0.048 86.712
4667.292 0.049 86.663 0.998 -2.812 0.998 -2.812 0.049 86.663
4692.25 0.05 86.613 0.998 -2.874 0.998 -2.874 0.05 86.613
4717.208 0.051 86.562 0.998 -2.935 0.998 -2.935 0.051 86.562
4742.167 0.052 86.512 0.998 -2.995 0.998 -2.995 0.052 86.512
4767.125 0.053 86.461 0.998 -3.056 0.998 -3.056 0.053 86.461
4792.083 0.054 86.41 0.998 -3.116 0.998 -3.116 0.054 86.41
4817.042 0.055 86.359 0.998 -3.176 0.998 -3.176 0.055 86.359
4842 0.056 86.308 0.998 -3.236 0.998 -3.236 0.056 86.308
4866.958 0.057 86.257 0.998 -3.295 0.998 -3.295 0.057 86.257
4891.917 0.059 86.206 0.998 -3.355 0.998 -3.355 0.059 86.206
4916.875 0.06 86.154 0.998 -3.414 0.998 -3.414 0.06 86.154
4941.833 0.061 86.103 0.998 -3.472 0.998 -3.472 0.061 86.103
4966.792 0.062 86.051 0.998 -3.531 0.998 -3.531 0.062 86.051
4991.75 0.063 86 0.998 -3.589 0.998 -3.589 0.063 86
5016.708 0.064 85.948 0.998 -3.648 0.998 -3.648 0.064 85.948
5041.667 0.065 85.896 0.997 -3.706 0.997 -3.706 0.065 85.896
5066.625 0.066 85.845 0.997 -3.764 0.997 -3.764 0.066 85.845
5091.583 0.067 85.793 0.997 -3.821 0.997 -3.821 0.067 85.793
5116.542 0.068 85.741 0.997 -3.879 0.997 -3.879 0.068 85.741
5141.5 0.069 85.69 0.997 -3.936 0.997 -3.936 0.069 85.69
5166.458 0.07 85.638 0.997 -3.993 0.997 -3.993 0.07 85.638
5191.417 0.071 85.586 0.997 -4.05 0.997 -4.05 0.071 85.586
5216.375 0.072 85.535 0.997 -4.106 0.997 -4.106 0.072 85.535
5241.333 0.073 85.483 0.997 -4.163 0.997 -4.163 0.073 85.483
5266.292 0.074 85.432 0.997 -4.219 0.997 -4.219 0.074 85.432
5291.25 0.075 85.38 0.997 -4.275 0.997 -4.275 0.075 85.38
5316.208 0.076 85.329 0.997 -4.331 0.997 -4.331 0.076 85.329
5341.167 0.076 85.277 0.997 -4.387 0.997 -4.387 0.076 85.277
5366.125 0.077 85.226 0.997 -4.442 0.997 -4.442 0.077 85.226
5391.083 0.078 85.175 0.996 -4.498 0.996 -4.498 0.078 85.175
5416.042 0.079 85.123 0.996 -4.553 0.996 -4.553 0.079 85.123
5441 0.08 85.072 0.996 -4.608 0.996 -4.608 0.08 85.072
5465.958 0.081 85.021 0.996 -4.663 0.996 -4.663 0.081 85.021
5490.917 0.082 84.97 0.996 -4.718 0.996 -4.718 0.082 84.97
5515.875 0.083 84.919 0.996 -4.772 0.996 -4.772 0.083 84.919
5540.833 0.084 84.868 0.996 -4.827 0.996 -4.827 0.084 84.868
5565.792 0.085 84.817 0.996 -4.881 0.996 -4.881 0.085 84.817
5590.75 0.086 84.766 0.996 -4.935 0.996 -4.935 0.086 84.766
5615.708 0.087 84.716 0.996 -4.989 0.996 -4.989 0.087 84.716
5640.667 0.088 84.665 0.996 -5.043 0.996 -5.043 0.088 84.665
5665.625 0.089 84.615 0.996 -5.096 0.996 -5.096 0.089 84.615
5690.583 0.09 84.564 0.996 -5.15 0.996 -5.15 0.09 84.564
5715.542 0.091 84.514 0.995 -5.203 0.995 -5.203 0.091 84.514
5740.5 0.092 84.463 0.995 -5.256 0.995 -5.256 0.092 84.463
5765.458 0.093 84.413 0.995 -5.309 0.995 -5.309 0.093 84.413
5790.417 0.093 84.363 0.995 -5.362 0.995 -5.362 0.093 84.363
5815.375 0.094 84.313 0.995 -5.415 0.995 -5.415 0.094 84.313
5840.333 0.095 84.263 0.995 -5.468 0.995 -5.468 0.095 84.263
5865.292 0.096 84.213 0.995 -5.52 0.995 -5.52 0.096 84.213
5890.25 0.097 84.163 0.995 -5.573 0.995 -5.573 0.097 84.163
5915.208 0.098 84.113 0.995 -5.625 0.995 -5.625 0.098 84.113
5940.167 0.099 84.063 0.995 -5.677 0.995 -5.677 0.099 84.063
5965.125 0.1 84.014 0.995 -5.729 0.995 -5.729 0.1 84.014
5990.083 0.101 83.964 0.994 -5.781 0.994 -5.781 0.101 83.964
6015.042 0.102 83.915 0.994 -5.833 0.994 -5.833 0.102 83.915
6040 0.103 83.865 0.994 -5.885 0.994 -5.885 0.103 83.865
6064.958 0.103 83.816 0.994 -5.936 0.994 -5.936 0.103 83.816
6089.917 0.104 83.767 0.994 -5.987 0.994 -5.987 0.104 83.767
6114.875 0.105 83.718 0.994 -6.039 0.994 -6.039 0.105 83.718
6139.833 0.106 83.669 0.994 -6.09 0.994 -6.09 0.106 83.669
6164.792 0.107 83.62 0.994 -6.141 0.994 -6.141 0.107 83.62
6189.75 0.108 83.571 0.994 -6.192 0.994 -6.192 0.108 83.571
6214.708 0.109 83.522 0.994 -6.243 0.994 -6.243 0.109 83.522
6239.667 0.11 83.473 0.994 -6.293 0.994 -6.293 0.11 83.473
6264.625 0.11 83.424 0.993 -6.344 0.993 -6.344 0.11 83.424
6289.583 0.111 83.376 0.993 -6.394 0.993 -6.394 0.111 83.376
6314.542 0.112 83.327 0.993 -6.445 0.993 -6.445 0.112 83.327
6339.5 0.113 83.279 0.993 -6.495 0.993 -6.495 0.113 83.279
6364.458 0.114 83.23 0.993 -6.545 0.993 -6.545 0.114 83.23
6389.417 0.115 83.182 0.993 -6.595 0.993 -6.595 0.115 83.182
6414.375 0.116 83.134 0.993 -6.645 0.993 -6.645 0.116 83.134
6439.333 0.117 83.086 0.993 -6.695 0.993 -6.695 0.117 83.086
6464.292 0.117 83.038 0.993 -6.744 0.993 -6.744 0.117 83.038
6489.25 0.118 82.989 0.993 -6.794 0.993 -6.794 0.118 82.989
6514.208 0.119 82.942 0.992 -6.844 0.992 -6.844 0.119 82.942
6539.167 0.12 82.894 0.992 -6.893 0.992 -6.893 0.12 82.894
6564.125 0.121 82.846 0.992 -6.942 0.992 -6.942 0.121 82.846
6589.083 0.122 82.798 0.992 -6.992 0.992 -6.992 0.122 82.798
6614.042 0.123 82.751 0.992 -7.041 0.992 -7.041 0.123 82.751
6639 0.123 82.703 0.992 -7.09 0.992 -7.09 0.123 82.703
6663.958 0.124 82.656 0.992 -7.139 0.992 -7.139 0.124 82.656
6688.917 0.125 82.608 0.992 -7.187 0.992 -7.187 0.125 82.608
6713.875 0.126 82.561 0.992 -7.236 0.992 -7.236 0.126 82.561
6738.833 0.127 82.514 0.991 -7.285 0.991 -7.285 0.127 82.514
6763.792 0.128 82.466 0.991 -7.333 0.991 -7.333 0.128 82.466
6788.75 0.128 82.419 0.991 -7.382 0.991 -7.382 0.128 82.419
6813.708 0.129 82.372 0.991 -7.43 0.991 -7.43 0.129 82.372
6838.667 0.13 82.325 0.991 -7.478 0.991 -7.478 0.13 82.325
6863.625 0.131 82.278 0.991 -7.527 0.991 -7.527 0.131 82.278
6888.583 0.132 82.231 0.991 -7.575 0.991 -7.575 0.132 82.231
6913.542 0.133 82.185 0.991 -7.623 0.991 -7.623 0.133 82.185
6938.5 0.133 82.138 0.991 -7.671 0.991 -7.671 0.133 82.138
6963.458 0.134 82.091 0.99 -7.719 0.99 -7.719 0.134 82.091
6988.417 0.135 82.045 0.99 -7.766 0.99 -7.766 0.135 82.045
7013.375 0.136 81.998 0.99 -7.814 0.99 -7.814 0.136 81.998
7038.333 0.137 81.952 0.99 -7.862 0.99 -7.862 0.137 81.952
7063.292 0.138 81.905 0.99 -7.909 0.99 -7.909 0.138 81.905
7088.25 0.138 81.859 0.99 -7.957 0.99 -7.957 0.138 81.859
7113.208 0.139 81.813 0.99 -8.004 0.99 -8.004 0.139 81.813
7138.167 0.14 81.767 0.99 -8.051 0.99 -8.051 0.14 81.767
7163.125 0.141 81.72 0.99 -8.098 0.99 -8.098 0.141 81.72
7188.083 0.142 81.674 0.989 -8.145 0.989 -8.145 0.142 81.674
7213.042 0.143 81.628 0.989 -8.193 0.989 -8.193 0.143 81.628
7238 0.143 81.582 0.989 -8.239 0.989 -8.239 0.143 81.582
7262.958 0.144 81.537 0.989 -8.286 0.989 -8.286 0.144 81.537
7287.917 0.145 81.491 0.989 -8.333 0.989 -8.333 0.145 81.491
7312.875 0.146 81.445 0.989 -8.38 0.989 -8.38 0.146 81.445
7337.833 0.147 81.399 0.989 -8.427 0.989 -8.427 0.147 81.399
7362.792 0.147 81.354 0.989 -8.473 0.989 -8.473 0.147 81.354
7387.75 0.148 81.308 0.989 -8.52 0.989 -8.52 0.148 81.308
7412.708 0.149 81.263 0.988 -8.566 0.988 -8.566 0.149 81.263
7437.667 0.15 81.217 0.988 -8.612 0.988 -8.612 0.15 81.217
7462.625 0.151 81.172 0.988 -8.659 0.988 -8.659 0.151 81.172
7487.583 0.151 81.127 0.988 -8.705 0.988 -8.705 0.151 81.127
7512.542 0.152 81.081 0.988 -8.751 0.988 -8.751 0.152 81.081
7537.5 0.153 81.036 0.988 -8.797 0.988 -8.797 0.153 81.036
7562.458 0.154 80.991 0.988 -8.843 0.988 -8.843 0.154 80.991
7587.417 0.155 80.946 0.988 -8.889 0.988 -8.889 0.155 80.946
7612.375 0.155 80.901 0.987 -8.935 0.987 -8.935 0.155 80.901
7637.333 0.156 80.856 0.987 -8.981 0.987 -8.981 0.156 80.856
7662.292 0.157 80.811 0.987 -9.027 0.987 -9.027 0.157 80.811
7687.25 0.158 80.766 0.987 -9.072 0.987 -9.072 0.158 80.766
7712.208 0.158 80.721 0.987 -9.118 0.987 -9.118 0.158 80.721
7737.167 0.159 80.677 0.987 -9.164 0.987 -9.164 0.159 80.677
7762.125 0.16 80.632 0.987 -9.209 0.987 -9.209 0.16 80.632
7787.083 0.161 80.587 0.987 -9.254 0.987 -9.254 0.161 80.587
7812.042 0.162 80.543 0.986 -9.3 0.986 -9.3 0.162 80.543
7837 0.162 80.498 0.986 -9.345 0.986 -9.345 0.162 80.498
7861.958 0.163 80.454 0.986 -9.39 0.986 -9.39 0.163 80.454
7886.917 0.164 80.409 0.986 -9.436 0.986 -9.436 0.164 80.409
7911.875 0.165 80.365 0.986 -9.481 0.986 -9.481 0.165 80.365
7936.833 0.165 80.321 0.986 -9.526 0.986 -9.526 0.165 80.321
7961.792 0.166 80.276 0.986 -9.571 0.986 -9.571 0.166 80.276
7986.75 0.167 80.232 0.986 -9.616 0.986 -9.616 0.167 80.232
8011.708 0.168 80.188 0.985 -9.66 0.985 -9.66 0.168 80.188
8036.667 0.169 80.144 0.985 -9.705 0.985 -9.705 0.169 80.144
8061.625 0.169 80.1 0.985 -9.75 0.985 -9.75 0.169 80.1
8086.583 0.17 80.056 0.985 -9.795 0.985 -9.795 0.17 80.056
8111.542 0.171 80.012 0.985 -9.839 0.985 -9.839 0.171 80.012
8136.5 0.172 79.968 0.985 -9.884 0.985 -9.884 0.172 79.968
8161.458 0.172 79.924 0.985 -9.928 0.985 -9.928 0.172 79.924
8186.417 0.173 79.88 0.984 -9.973 0.984 -9.973 0.173 79.88
8211.375 0.174 79.837 0.984 -10.017 0.984 -10.017 0.174 79.837
8236.333 0.175 79.793 0.984 -10.062 0.984 -10.062 0.175 79.793
8261.292 0.175 79.749 0.984 -10.106 0.984 -10.106 0.175 79.749
8286.25 0.176 79.706 0.984 -10.15 0.984 -10.15 0.176 79.706
8311.208 0.177 79.662 0.984 -10.194 0.984 -10.194 0.177 79.662
8336.167 0.178 79.619 0.984 -10.238 0.984 -10.238 0.178 79.619
8361.125 0.179 79.575 0.983 -10.282 0.983 -10.282 0.179 79.575
8386.083 0.179 79.532 0.983 -10.326 0.983 -10.326 0.179 79.532
8411.042 0.18 79.489 0.983 -10.37 0.983 -10.37 0.18 79.489
8436 0.181 79.445 0.983 -10.414 0.983 -10.414 0.181 79.445
8460.958 0.182 79.402 0.983 -10.458 0.983 -10.458 0.182 79.402
8485.917 0.182 79.359 0.983 -10.502 0.983 -10.502 0.182 79.359
8510.875 0.183 79.316 0.983 -10.546 0.983 -10.546 0.183 79.316
8535.833 0.184 79.273 0.983 -10.589 0.983 -10.589 0.184 79.273
8560.792 0.185 79.23 0.982 -10.633 0.982 -10.633 0.185 79.23
8585.75 0.185 79.187 0.982 -10.677 0.982 -10.677 0.185 79.187
8610.708 0.186 79.144 0.982 -10.72 0.982 -10.72 0.186 79.144
8635.667 0.187 79.101 0.982 -10.764 0.982 -10.764 0.187 79.101
8660.625 0.188 79.058 0.982 -10.807 0.982 -10.807 0.188 79.058
8685.583 0.188 79.015 0.982 -10.851 0.982 -10.851 0.188 79.015
8710.542 0.189 78.972 0.982 -10.894 0.982 -10.894 0.189 78.972
8735.5 0.19 78.929 0.981 -10.937 0.981 -10.937 0.19 78.929
8760.458 0.19 78.887 0.981 -10.98 0.981 -10.98 0.19 78.887
8785.417 0.191 78.844 0.981 -11.024 0.981 -11.024 0.191 78.844
8810.375 0.192 78.801 0.981 -11.067 0.981 -11.067 0.192 78.801
8835.333 0.193 78.759 0.981 -11.11 0.981 -11.11 0.193 78.759
8860.292 0.193 78.716 0.981 -11.153 0.981 -11.153 0.193 78.716
8885.25 0.194 78.674 0.981 -11.196 0.981 -11.196 0.194 78.674
8910.208 0.195 78.631 0.98 -11.239 0.98 -11.239 0.195 78.631
8935.167 0.196 78.589 0.98 -11.282 0.98 -11.282 0.196 78.589
8960.125 0.196 78.547 0.98 -11.325 0.98 -11.325 0.196 78.547
8985.083 0.197 78.504 0.98 -11.367 0.98 -11.367 0.197 78.504
9010.042 0.198 78.462 0.98 -11.41 0.98 -11.41 0.198 78.462
9035 0.199 78.42 0.98 -11.453 0.98 -11.453 0.199 78.42
9059.958 0.199 78.378 0.979 -11.496 0.979 -11.496 0.199 78.378
9084.917 0.2 78.335 0.979 -11.538 0.979 -11.538 0.2 78.335
9109.875 0.201 78.293 0.979 -11.581 0.979 -11.581 0.201 78.293
9134.833 0.201 78.251 0.979 -11.623 0.979 -11.623 0.201 78.251
9159.792 0.202 78.209 0.979 -11.666 0.979 -11.666 0.202 78.209
9184.75 0.203 78.167 0.979 -11.708 0.979 -11.708 0.203 78.167
9209.708 0.204 78.125 0.979 -11.751 0.979 -11.751 0.204 78.125
9234.667 0.204 78.083 0.978 -11.793 0.978 -11.793 0.204 78.083
9259.625 0.205 78.042 0.978 -11.835 0.978 -11.835 0.205 78.042
9284.583 0.206 78 0.978 -11.878 0.978 -11.878 0.206 78
9309.542 0.207 77.958 0.978 -11.92 0.978 -11.92 0.207 77.958
9334.5 0.207 77.916 0.978 -11.962 0.978 -11.962 0.207 77.916
9359.458 0.208 77.874 0.978 -12.004 0.978 -12.004 0.208 77.874
9384.417 0.209 77.833 0.978 -12.046 0.978 -12.046 0.209 77.833
9409.375 0.209 77.791 0.977 -12.088 0.977 -12.088 0.209 77.791
9434.333 0.21 77.75 0.977 -12.13 0.977 -12.13 0.21 77.75
9459.292 0.211 77.708 0.977 -12.172 0.977 -12.172 0.211 77.708
9484.25 0.212 77.666 0.977 -12.214 0.977 -12.214 0.212 77.666
9509.208 0.212 77.625 0.977 -12.256 0.977 -12.256 0.212 77.625
9534.167 0.213 77.584 0.977 -12.298 0.977 -12.298 0.213 77.584
9559.125 0.214 77.542 0.976 -12.34 0.976 -12.34 0.214 77.542
9584.083 0.214 77.501 0.976 -12.382 0.976 -12.382 0.214 77.501
9609.042 0.215 77.459 0.976 -12.423 0.976 -12.423 0.215 77.459
9634 0.216 77.418 0.976 -12.465 0.976 -12.465 0.216 77.418
9658.958 0.217 77.377 0.976 -12.507 0.976 -12.507 0.217 77.377
9683.917 0.217 77.336 0.976 -12.548 0.976 -12.548 0.217 77.336
9708.875 0.218 77.295 0.976 -12.59 0.976 -12.59 0.218 77.295
9733.833 0.219 77.253 0.975 -12.631 0.975 -12.631 0.219 77.253
9758.792 0.219 77.212 0.975 -12.673 0.975 -12.673 0.219 77.212
9783.75 0.22 77.171 0.975 -12.714 0.975 -12.714 0.22 77.171
9808.708 0.221 77.13 0.975 -12.756 0.975 -12.756 0.221 77.13
9833.667 0.222 77.089 0.975 -12.797 0.975 -12.797 0.222 77.089
9858.625 0.222 77.048 0.975 -12.839 0.975 -12.839 0.222 77.048
9883.583 0.223 77.007 0.974 -12.88 0.974 -12.88 0.223 77.007
9908.542 0.224 76.966 0.974 -12.921 0.974 -12.921 0.224 76.966
9933.5 0.224 76.926 0.974 -12.962 0.974 -12.962 0.224 76.926
9958.458 0.225 76.885 0.974 -13.003 0.974 -13.003 0.225 76.885
9983.417 0.226 76.844 0.974 -13.045 0.974 -13.045 0.226 76.844
10008.375 0.226 76.803 0.974 -13.086 0.974 -13.086 0.226 76.803
10033.333 0.227 76.763 0.973 -13.127 0.973 -13.127 0.227 76.763
10058.292 0.228 76.722 0.973 -13.168 0.973 -13.168 0.228 76.722
10083.25 0.229 76.681 0.973 -13.209 0.973 -13.209 0.229 76.681
10108.208 0.229 76.641 0.973 -13.25 0.973 -13.25 0.229 76.641
10133.167 0.23 76.6 0.973 -13.291 0.973 -13.291 0.23 76.6
10158.125 0.231 76.56 0.973 -13.332 0.973 -13.332 0.231 76.56
10183.083 0.231 76.519 0.972 -13.372 0.972 -13.372 0.231 76.519
10208.042 0.232 76.479 0.972 -13.413 0.972 -13.413 0.232 76.479
10233 0.233 76.438 0.972 -13.454 0.972 -13.454 0.233 76.438
10257.958 0.233 76.398 0.972 -13.495 0.972 -13.495 0.233 76.398
10282.917 0.234 76.357 0.972 -13.535 0.972 -13.535 0.234 76.357
10307.875 0.235 76.317 0.972 -13.576 0.972 -13.576 0.235 76.317
10332.833 0.235 76.277 0.971 -13.617 0.971 -13.617 0.235 76.277
10357.792 0.236 76.237 0.971 -13.657 0.971 -13.657 0.236 76.237
10382.75 0.237 76.196 0.971 -13.698 0.971 -13.698 0.237 76.196
10407.708 0.237 76.156 0.971 -13.738 0.971 -13.738 0.237 76.156
10432.667 0.238 76.116 0.971 -13.779 0.971 -13.779 0.238 76.116
10457.625 0.239 76.076 0.971 -13.819 0.971 -13.819 0.239 76.076
10482.583 0.24 76.036 0.97 -13.86 0.97 -13.86 0.24 76.036
10507.542 0.24 75.996 0.97 -13.9 0.97 -13.9 0.24 75.996
10532.5 0.241 75.956 0.97 -13.941 0.97 -13.941 0.241 75.956
10557.458 0.242 75.916 0.97 -13.981 0.97 -13.981 0.242 75.916
10582.417 0.242 75.876 0.97 -14.021 0.97 -14.021 0.242 75.876
10607.375 0.243 75.836 0.97 -14.061 0.97 -14.061 0.243 75.836
10632.333 0.244 75.796 0.969 -14.102 0.969 -14.102 0.244 75.796
10657.292 0.244 75.756 0.969 -14.142 0.969 -14.142 0.244 75.756
10682.25 0.245 75.716 0.969 -14.182 0.969 -14.182 0.245 75.716
10707.208 0.246 75.676 0.969 -14.222 0.969 -14.222 0.246 75.676
10732.167 0.246 75.636 0.969 -14.262 0.969 -14.262 0.246 75.636
10757.125 0.247 75.597 0.969 -14.302 0.969 -14.302 0.247 75.597
10782.083 0.248 75.557 0.968 -14.342 0.968 -14.342 0.248 75.557
10807.042 0.248 75.517 0.968 -14.382 0.968 -14.382 0.248 75.517
10832 0.249 75.478 0.968 -14.422 0.968 -14.422 0.249 75.478
10856.958 0.25 75.438 0.968 -14.462 0.968 -14.462 0.25 75.438
10881.917 0.25 75.398 0.968 -14.502 0.968 -14.502 0.25 75.398
10906.875 0.251 75.359 0.968 -14.542 0.968 -14.542 0.251 75.359
10931.833 0.252 75.319 0.967 -14.581 0.967 -14.581 0.252 75.319
10956.792 0.252 75.28 0.967 -14.621 0.967 -14.621 0.252 75.28
10981.75 0.253 75.24 0.967 -14.661 0.967 -14.661 0.253 75.24
11006.708 0.254 75.201 0.967 -14.701 0.967 -14.701 0.254 75.201
11031.667 0.254 75.162 0.967 -14.74 0.967 -14.74 0.254 75.162
11056.625 0.255 75.122 0.966 -14.78 0.966 -14.78 0.255 75.122
11081.583 0.256 75.083 0.966 -14.82 0.966 -14.82 0.256 75.083
11106.542 0.256 75.044 0.966 -14.859 0.966 -14.859 0.256 75.044
11131.5 0.257 75.004 0.966 -14.899 0.966 -14.899 0.257 75.004
11156.458 0.258 74.965 0.966 -14.938 0.966 -14.938 0.258 74.965
11181.417 0.258 74.926 0.966 -14.978 0.966 -14.978 0.258 74.926
11206.375 0.259 74.887 0.965 -15.017 0.965 -15.017 0.259 74.887
11231.333 0.26 74.847 0.965 -15.057 0.965 -15.057 0.26 74.847
11256.292 0.26 74.808 0.965 -15.096 0.965 -15.096 0.26 74.808
11281.25 0.261 74.769 0.965 -15.135 0.965 -15.135 0.261 74.769
11306.208 0.262 74.73 0.965 -15.175 0.965 -15.175 0.262 74.73
11331.167 0.262 74.691 0.965 -15.214 0.965 -15.214 0.262 74.691
11356.125 0.263 74.652 0.964 -15.253 0.964 -15.253 0.263 74.652
11381.083 0.264 74.613 0.964 -15.293 0.964 -15.293 0.264 74.613
11406.042 0.264 74.574 0.964 -15.332 0.964 -15.332 0.264 74.574
11431 0.265 74.535 0.964 -15.371 0.964 -15.371 0.265 74.535
11455.958 0.266 74.496 0.964 -15.41 0.964 -15.41 0.266 74.496
11480.917 0.266 74.457 0.963 -15.449 0.963 -15.449 0.266 74.457
11505.875 0.267 74.419 0.963 -15.488 0.963 -15.488 0.267 74.419
11530.833 0.268 74.38 0.963 -15.527 0.963 -15.527 0.268 74.38
11555.792 0.268 74.341 0.963 -15.567 0.963 -15.567 0.268 74.341
11580.75 0.269 74.302 0.963 -15.606 0.963 -15.606 0.269 74.302
11605.708 0.27 74.263 0.963 -15.644 0.963 -15.644 0.27 74.263
11630.667 0.27 74.225 0.962 -15.683 0.962 -15.683 0.27 74.225
11655.625 0.271 74.186 0.962 -15.722 0.962 -15.722 0.271 74.186
11680.583 0.272 74.147 0.962 -15.761 0.962 -15.761 0.272 74.147
11705.542 0.272 74.109 0.962 -15.8 0.962 -15.8 0.272 74.109
11730.5 0.273 74.07 0.962 -15.839 0.962 -15.839 0.273 74.07
11755.458 0.274 74.032 0.961 -15.878 0.961 -15.878 0.274 74.032
11780.417 0.274 73.993 0.961 -15.916 0.961 -15.916 0.274 73.993
11805.375 0.275 73.955 0.961 -15.955 0.961 -15.955 0.275 73.955
11830.333 0.276 73.916 0.961 -15.994 0.961 -15.994 0.276 73.916
11855.292 0.276 73.878 0.961 -16.033 0.961 -16.033 0.276 73.878
11880.25 0.277 73.839 0.96 -16.071 0.96 -16.071 0.277 73.839
11905.208 0.277 73.801 0.96 -16.11 0.96 -16.11 0.277 73.801
11930.167 0.278 73.762 0.96 -16.148 0.96 -16.148 0.278 73.762
11955.125 0.279 73.724 0.96 -16.187 0.96 -16.187 0.279 73.724
11980.083 0.279 73.686 0.96 -16.226 0.96 -16.226 0.279 73.686
12005.042 0.28 73.648 0.96 -16.264 0.96 -16.264 0.28 73.648
12030 0.281 73.609 0.959 -16.303 0.959 -16.303 0.281 73.609
12054.958 0.281 73.571 0.959 -16.341 0.959 -16.341 0.281 73.571
12079.917 0.282 73.533 0.959 -16.379 0.959 -16.379 0.282 73.533
12104.875 0.283 73.495 0.959 -16.418 0.959 -16.418 0.283 73.495
12129.833 0.283 73.457 0.959 -16.456 0.959 -16.456 0.283 73.457
12154.792 0.284 73.418 0.958 -16.494 0.958 -16.494 0.284 73.418
12179.75 0.285 73.38 0.958 -16.533 0.958 -16.533 0.285 73.38
12204.708 0.285 73.342 0.958 -16.571 0.958 -16.571 0.285 73.342
12229.667 0.286 73.304 0.958 -16.609 0.958 -16.609 0.286 73.304
12254.625 0.286 73.266 0.958 -16.648 0.958 -16.648 0.286 73.266
12279.583 0.287 73.228 0.957 -16.686 0.957 -16.686 0.287 73.228
12304.542 0.288 73.19 0.957 -16.724 0.957 -16.724 0.288 73.19
12329.5 0.288 73.152 0.957 -16.762 0.957 -16.762 0.288 73.152
12354.458 0.289 73.114 0.957 -16.8 0.957 -16.8 0.289 73.114
12379.417 0.29 73.077 0.957 -16.838 0.957 -16.838 0.29 73.077
12404.375 0.29 73.039 0.957 -16.876 0.957 -16.876 0.29 73.039
12429.333 0.291 73.001 0.956 -16.914 0.956 -16.914 0.291 73.001
12454.292 0.292 72.963 0.956 -16.952 0.956 -16.952 0.292 72.963
12479.25 0.292 72.925 0.956 -16.99 0.956 -16.99 0.292 72.925
12504.208 0.293 72.888 0.956 -17.028 0.956 -17.028 0.293 72.888
12529.167 0.293 72.85 0.956 -17.066 0.956 -17.066 0.293 72.85
12554.125 0.294 72.812 0.955 -17.104 0.955 -17.104 0.294 72.812
12579.083 0.295 72.774 0.955 -17.142 0.955 -17.142 0.295 72.774
12604.042 0.295 72.737 0.955 -17.18 0.955 -17.18 0.295 72.737
12629 0.296 72.699 0.955 -17.218 0.955 -17.218 0.296 72.699
12653.958 0.297 72.662 0.955 -17.255 0.955 -17.255 0.297 72.662
12678.917 0.297 72.624 0.954 -17.293 0.954 -17.293 0.297 72.624
12703.875 0.298 72.587 0.954 -17.331 0.954 -17.331 0.298 72.587
12728.833 0.299 72.549 0.954 -17.369 0.954 -17.369 0.299 72.549
12753.792 0.299 72.512 0.954 -17.406 0.954 -17.406 0.299 72.512
12778.75 0.3 72.474 0.954 -17.444 0.954 -17.444 0.3 72.474
12803.708 0.3 72.437 0.953 -17.482 0.953 -17.482 0.3 72.437
12828.667 0.301 72.399 0.953 -17.519 0.953 -17.519 0.301 72.399
12853.625 0.302 72.362 0.953 -17.557 0.953 -17.557 0.302 72.362
12878.583 0.302 72.324 0.953 -17.594 0.953 -17.594 0.302 72.324
12903.542 0.303 72.287 0.953 -17.632 0.953 -17.632 0.303 72.287
12928.5 0.304 72.25 0.952 -17.669 0.952 -17.669 0.304 72.25
12953.458 0.304 72.213 0.952 -17.707 0.952 -17.707 0.304 72.213
12978.417 0.305 72.175 0.952 -17.744 0.952 -17.744 0.305 72.175
13003.375 0.305 72.138 0.952 -17.782 0.952 -17.782 0.305 72.138
13028.333 0.306 72.101 0.952 -17.819 0.952 -17.819 0.306 72.101
13053.292 0.307 72.064 0.951 -17.856 0.951 -17.856 0.307 72.064
13078.25 0.307 72.026 0.951 -17.894 0.951 -17.894 0.307 72.026
13103.208 0.308 71.989 0.951 -17.931 0.951 -17.931 0.308 71.989
13128.167 0.308 71.952 0.951 -17.968 0.951 -17.968 0.308 71.952
13153.125 0.309 71.915 0.951 -18.005 0.951 -18.005 0.309 71.915
13178.083 0.31 71.878 0.95 -18.043 0.95 -18.043 0.31 71.878
13203.042 0.31 71.841 0.95 -18.08 0.95 -18.08 0.31 71.841
13228 0.311 71.804 0.95 -18.117 0.95 -18.117 0.311 71.804
13252.958 0.312 71.767 0.95 -18.154 0.95 -18.154 0.312 71.767
13277.917 0.312 71.73 0.95 -18.191 0.95 -18.191 0.312 71.73
13302.875 0.313 71.693 0.949 -18.229 0.949 -18.229 0.313 71.693
13327.833 0.313 71.656 0.949 -18.266 0.949 -18.266 0.313 71.656
13352.792 0.314 71.619 0.949 -18.303 0.949 -18.303 0.314 71.619
13377.75 0.315 71.583 0.949 -18.34 0.949 -18.34 0.315 71.583
13402.708 0.315 71.546 0.949 -18.377 0.949 -18.377 0.315 71.546
13427.667 0.316 71.509 0.948 -18.414 0.948 -18.414 0.316 71.509
13452.625 0.316 71.472 0.948 -18.451 0.948 -18.451 0.316 71.472
13477.583 0.317 71.435 0.948 -18.488 0.948 -18.488 0.317 71.435
13502.542 0.318 71.399 0.948 -18.524 0.948 -18.524 0.318 71.399
13527.5 0.318 71.362 0.948 -18.561 0.948 -18.561 0.318 71.362
13552.458 0.319 71.325 0.947 -18.598 0.947 -18.598 0.319 71.325
13577.417 0.32 71.289 0.947 -18.635 0.947 -18.635 0.32 71.289
13602.375 0.32 71.252 0.947 -18.672 0.947 -18.672 0.32 71.252
13627.333 0.321 71.215 0.947 -18.709 0.947 -18.709 0.321 71.215
13652.292 0.321 71.179 0.947 -18.745 0.947 -18.745 0.321 71.179
13677.25 0.322 71.142 0.946 -18.782 0.946 -18.782 0.322 71.142
13702.208 0.323 71.106 0.946 -18.819 0.946 -18.819 0.323 71.106
13727.167 0.323 71.069 0.946 -18.855 0.946 -18.855 0.323 71.069
13752.125 0.324 71.033 0.946 -18.892 0.946 -18.892 0.324 71.033
13777.083 0.324 70.996 0.945 -18.929 0.945 -18.929 0.324 70.996
13802.042 0.325 70.96 0.945 -18.965 0.945 -18.965 0.325 70.96
13827 0.326 70.923 0.945 -19.002 0.945 -19.002 0.326 70.923
13851.958 0.326 70.887 0.945 -19.038 0.945 -19.038 0.326 70.887
13876.917 0.327 70.85 0.945 -19.075 0.945 -19.075 0.327 70.85
13901.875 0.327 70.814 0.944 -19.111 0.944 -19.111 0.327 70.814
13926.833 0.328 70.778 0.944 -19.148 0.944 -19.148 0.328 70.778
13951.792 0.329 70.741 0.944 -19.184 0.944 -19.184 0.329 70.741
13976.75 0.329 70.705 0.944 -19.221 0.944 -19.221 0.329 70.705
14001.708 0.33 70.669 0.944 -19.257 0.944 -19.257 0.33 70.669
14026.667 0.33 70.633 0.943 -19.294 0.943 -19.294 0.33 70.633
14051.625 0.331 70.596 0.943 -19.33 0.943 -19.33 0.331 70.596
14076.583 0.332 70.56 0.943 -19.366 0.943 -19.366 0.332 70.56
14101.542 0.332 70.524 0.943 -19.403 0.943 -19.403 0.332 70.524
14126.5 0.333 70.488 0.943 -19.439 0.943 -19.439 0.333 70.488
14151.458 0.333 70.452 0.942 -19.475 0.942 -19.475 0.333 70.452
14176.417 0.334 70.416 0.942 -19.511 0.942 -19.511 0.334 70.416
14201.375 0.335 70.38 0.942 -19.548 0.942 -19.548 0.335 70.38
14226.333 0.335 70.344 0.942 -19.584 0.942 -19.584 0.335 70.344
14251.292 0.336 70.308 0.942 -19.62 0.942 -19.62 0.336 70.308
14276.25 0.336 70.272 0.941 -19.656 0.941 -19.656 0.336 70.272
14301.208 0.337 70.236 0.941 -19.692 0.941 -19.692 0.337 70.236
14326.167 0.338 70.2 0.941 -19.728 0.941 -19.728 0.338 70.2
14351.125 0.338 70.164 0.941 -19.764 0.941 -19.764 0.338 70.164
14376.083 0.339 70.128 0.94 -19.8 0.94 -19.8 0.339 70.128
14401.042 0.339 70.092 0.94 -19.837 0.94 -19.837 0.339 70.092
14426 0.34 70.056 0.94 -19.872 0.94 -19.872 0.34 70.056
14450.958 0.341 70.02 0.94 -19.908 0.94 -19.908 0.341 70.02
14475.917 0.341 69.984 0.94 -19.944 0.94 -19.944 0.341 69.984
14500.875 0.342 69.949 0.939 -19.98 0.939 -19.98 0.342 69.949
14525.833 0.342 69.913 0.939 -20.016 0.939 -20.016 0.342 69.913
14550.792 0.343 69.877 0.939 -20.052 0.939 -20.052 0.343 69.877
14575.75 0.343 69.841 0.939 -20.088 0.939 -20.088 0.343 69.841
14600.708 0.344 69.806 0.939 -20.124 0.939 -20.124 0.344 69.806
14625.667 0.345 69.77 0.938 -20.16 0.938 -20.16 0.345 69.77
14650.625 0.345 69.734 0.938 -20.195 0.938 -20.195 0.345 69.734
14675.583 0.346 69.699 0.938 -20.231 0.938 -20.231 0.346 69.699
14700.542 0.346 69.663 0.938 -20.267 0.938 -20.267 0.346 69.663
14725.5 0.347 69.628 0.937 -20.303 0.937 -20.303 0.347 69.628
14750.458 0.348 69.592 0.937 -20.338 0.937 -20.338 0.348 69.592
14775.417 0.348 69.557 0.937 -20.374 0.937 -20.374 0.348 69.557
14800.375 0.349 69.521 0.937 -20.41 0.937 -20.41 0.349 69.521
14825.333 0.349 69.486 0.937 -20.445 0.937 -20.445 0.349 69.486
14850.292 0.35 69.45 0.936 -20.481 0.936 -20.481 0.35 69.45
14875.25 0.35 69.415 0.936 -20.516 0.936 -20.516 0.35 69.415
14900.208 0.351 69.379 0.936 -20.552 0.936 -20.552 0.351 69.379
14925.167 0.352 69.344 0.936 -20.588 0.936 -20.588 0.352 69.344
14950.125 0.352 69.308 0.935 -20.623 0.935 -20.623 0.352 69.308
14975.083 0.353 69.273 0.935 -20.659 0.935 -20.659 0.353 69.273
15000.042 0.353 69.238 0.935 -20.694 0.935 -20.694 0.353 69.238
15025 0.354 69.202 0.935 -20.729 0.935 -20.729 0.354 69.202
15049.958 0.355 69.167 0.935 -20.765 0.935 -20.765 0.355 69.167
15074.917 0.355 69.132 0.934 -20.8 0.934 -20.8 0.355 69.132
15099.875 0.356 69.097 0.934 -20.836 0.934 -20.836 0.356 69.097
15124.833 0.356 69.061 0.934 -20.871 0.934 -20.871 0.356 69.061
15149.792 0.357 69.026 0.934 -20.906 0.934 -20.906 0.357 69.026
15174.75 0.357 68.991 0.934 -20.942 0.934 -20.942 0.357 68.991
15199.708 0.358 68.956 0.933 -20.977 0.933 -20.977 0.358 68.956
15224.667 0.359 68.921 0.933 -21.012 0.933 -21.012 0.359 68.921
15249.625 0.359 68.886 0.933 -21.047 0.933 -21.047 0.359 68.886
15274.583 0.36 68.851 0.933 -21.082 0.933 -21.082 0.36 68.851
15299.542 0.36 68.816 0.932 -21.118 0.932 -21.118 0.36 68.816
15324.5 0.361 68.78 0.932 -21.153 0.932 -21.153 0.361 68.78
15349.458 0.361 68.745 0.932 -21.188 0.932 -21.188 0.361 68.745
15374.417 0.362 68.71 0.932 -21.223 0.932 -21.223 0.362 68.71
15399.375 0.363 68.676 0.932 -21.258 0.932 -21.258 0.363 68.676
15424.333 0.363 68.641 0.931 -21.293 0.931 -21.293 0.363 68.641
15449.292 0.364 68.606 0.931 -21.328 0.931 -21.328 0.364 68.606
15474.25 0.364 68.571 0.931 -21.363 0.931 -21.363 0.364 68.571
15499.208 0.365 68.536 0.931 -21.398 0.931 -21.398 0.365 68.536
15524.167 0.365 68.501 0.93 -21.433 0.93 -21.433 0.365 68.501
15549.125 0.366 68.466 0.93 -21.468 0.93 -21.468 0.366 68.466
15574.083 0.367 68.431 0.93 -21.503 0.93 -21.503 0.367 68.431
15599.042 0.367 68.397 0.93 -21.538 0.93 -21.538 0.367 68.397
15624 0.368 68.362 0.93 -21.573 0.93 -21.573 0.368 68.362
15648.958 0.368 68.327 0.929 -21.608 0.929 -21.608 0.368 68.327
15673.917 0.369 68.292 0.929 -21.643 0.929 -21.643 0.369 68.292
15698.875 0.369 68.258 0.929 -21.678 0.929 -21.678 0.369 68.258
15723.833 0.37 68.223 0.929 -21.712 0.929 -21.712 0.37 68.223
15748.792 0.371 68.188 0.928 -21.747 0.928 -21.747 0.371 68.188
15773.75 0.371 68.154 0.928 -21.782 0.928 -21.782 0.371 68.154
15798.708 0.372 68.119 0.928 -21.817 0.928 -21.817 0.372 68.119
15823.667 0.372 68.084 0.928 -21.851 0.928 -21.851 0.372 68.084
15848.625 0.373 68.05 0.928 -21.886 0.928 -21.886 0.373 68.05
15873.583 0.373 68.015 0.927 -21.921 0.927 -21.921 0.373 68.015
15898.542 0.374 67.981 0.927 -21.955 0.927 -21.955 0.374 67.981
15923.5 0.374 67.946 0.927 -21.99 0.927 -21.99 0.374 67.946
15948.458 0.375 67.912 0.927 -22.025 0.927 -22.025 0.375 67.912
15973.417 0.376 67.877 0.926 -22.059 0.926 -22.059 0.376 67.877
15998.375 0.376 67.843 0.926 -22.094 0.926 -22.094 0.376 67.843
16023.333 0.377 67.808 0.926 -22.128 0.926 -22.128 0.377 67.808
16048.292 0.377 67.774 0.926 -22.163 0.926 -22.163 0.377 67.774
16073.25 0.378 67.74 0.925 -22.197 0.925 -22.197 0.378 67.74
16098.208 0.378 67.705 0.925 -22.232 0.925 -22.232 0.378 67.705
16123.167 0.379 67.671 0.925 -22.266 0.925 -22.266 0.379 67.671
16148.125 0.379 67.637 0.925 -22.3 0.925 -22.3 0.379 67.637
16173.083 0.38 67.602 0.925 -22.335 0.925 -22.335 0.38 67.602
16198.042 0.381 67.568 0.924 -22.369 0.924 -22.369 0.381 67.568
16223 0.381 67.534 0.924 -22.404 0.924 -22.404 0.381 67.534
16247.958 0.382 67.5 0.924 -22.438 0.924 -22.438 0.382 67.5
16272.917 0.382 67.465 0.924 -22.472 0.924 -22.472 0.382 67.465
16297.875 0.383 67.431 0.923 -22.507 0.923 -22.507 0.383 67.431
16322.833 0.383 67.397 0.923 -22.541 0.923 -22.541 0.383 67.397
16347.792 0.384 67.363 0.923 -22.575 0.923 -22.575 0.384 67.363
16372.75 0.384 67.329 0.923 -22.609 0.923 -22.609 0.384 67.329
16397.708 0.385 67.295 0.923 -22.643 0.923 -22.643 0.385 67.295
16422.667 0.386 67.261 0.922 -22.678 0.922 -22.678 0.386 67.261
16447.625 0.386 67.227 0.922 -22.712 0.922 -22.712 0.386 67.227
16472.583 0.387 67.193 0.922 -22.746 0.922 -22.746 0.387 67.193
16497.542 0.387 67.159 0.922 -22.78 0.922 -22.78 0.387 67.159
16522.5 0.388 67.125 0.921 -22.814 0.921 -22.814 0.388 67.125
16547.458 0.388 67.091 0.921 -22.848 0.921 -22.848 0.388 67.091
16572.417 0.389 67.057 0.921 -22.882 0.921 -22.882 0.389 67.057
16597.375 0.389 67.023 0.921 -22.916 0.921 -22.916 0.389 67.023
16622.333 0.39 66.989 0.92 -22.95 0.92 -22.95 0.39 66.989
16647.292 0.39 66.955 0.92 -22.984 0.92 -22.984 0.39 66.955
16672.25 0.391 66.921 0.92 -23.018 0.92 -23.018 0.391 66.921
16697.208 0.392 66.887 0.92 -23.052 0.92 -23.052 0.392 66.887
16722.167 0.392 66.853 0.92 -23.086 0.92 -23.086 0.392 66.853
16747.125 0.393 66.82 0.919 -23.12 0.919 -23.12 0.393 66.82
16772.083 0.393 66.786 0.919 -23.154 0.919 -23.154 0.393 66.786
16797.042 0.394 66.752 0.919 -23.188 0.919 -23.188 0.394 66.752
16822 0.394 66.718 0.919 -23.222 0.919 -23.222 0.394 66.718
16846.958 0.395 66.685 0.918 -23.255 0.918 -23.255 0.395 66.685
16871.917 0.395 66.651 0.918 -23.289 0.918 -23.289 0.395 66.651
16896.875 0.396 66.617 0.918 -23.323 0.918 -23.323 0.396 66.617
16921.833 0.396 66.584 0.918 -23.357 0.918 -23.357 0.396 66.584
16946.792 0.397 66.55 0.917 -23.39 0.917 -23.39 0.397 66.55
16971.75 0.398 66.516 0.917 -23.424 0.917 -23.424 0.398 66.516
16996.708 0.398 66.483 0.917 -23.458 0.917 -23.458 0.398 66.483
17021.667 0.399 66.449 0.917 -23.491 0.917 -23.491 0.399 66.449
17046.625 0.399 66.416 0.916 -23.525 0.916 -23.525 0.399 66.416
17071.583 0.4 66.382 0.916 -23.559 0.916 -23.559 0.4 66.382
17096.542 0.4 66.349 0.916 -23.592 0.916 -23.592 0.4 66.349
17121.5 0.401 66.315 0.916 -23.626 0.916 -23.626 0.401 66.315
17146.458 0.401 66.282 0.916 -23.659 0.916 -23.659 0.401 66.282
17171.417 0.402 66.248 0.915 -23.693 0.915 -23.693 0.402 66.248
17196.375 0.402 66.215 0.915 -23.726 0.915 -23.726 0.402 66.215
17221.333 0.403 66.181 0.915 -23.76 0.915 -23.76 0.403 66.181
17246.292 0.403 66.148 0.915 -23.793 0.915 -23.793 0.403 66.148
17271.25 0.404 66.115 0.914 -23.827 0.914 -23.827 0.404 66.115
17296.208 0.405 66.081 0.914 -23.86 0.914 -23.86 0.405 66.081
17321.167 0.405 66.048 0.914 -23.894 0.914 -23.894 0.405 66.048
17346.125 0.406 66.015 0.914 -23.927 0.914 -23.927 0.406 66.015
17371.083 0.406 65.982 0.913 -23.96 0.913 -23.96 0.406 65.982
17396.042 0.407 65.948 0.913 -23.994 0.913 -23.994 0.407 65.948
17421 0.407 65.915 0.913 -24.027 0.913 -24.027 0.407 65.915
17445.958 0.408 65.882 0.913 -24.06 0.913 -24.06 0.408 65.882
17470.917 0.408 65.849 0.912 -24.094 0.912 -24.094 0.408 65.849
17495.875 0.409 65.816 0.912 -24.127 0.912 -24.127 0.409 65.816
17520.833 0.409 65.782 0.912 -24.16 0.912 -24.16 0.409 65.782
17545.792 0.41 65.749 0.912 -24.193 0.912 -24.193 0.41 65.749
17570.75 0.41 65.716 0.912 -24.226 0.912 -24.226 0.41 65.716
17595.708 0.411 65.683 0.911 -24.26 0.911 -24.26 0.411 65.683
17620.667 0.411 65.65 0.911 -24.293 0.911 -24.293 0.411 65.65
17645.625 0.412 65.617 0.911 -24.326 0.911 -24.326 0.412 65.617
17670.583 0.412 65.584 0.911 -24.359 0.911 -24.359 0.412 65.584
17695.542 0.413 65.551 0.91 -24.392 0.91 -24.392 0.413 65.551
17720.5 0.414 65.518 0.91 -24.425 0.91 -24.425 0.414 65.518
17745.458 0.414 65.485 0.91 -24.458 0.91 -24.458 0.414 65.485
17770.417 0.415 65.452 0.91 -24.491 0.91 -24.491 0.415 65.452
17795.375 0.415 65.419 0.909 -24.524 0.909 -24.524 0.415 65.419
17820.333 0.416 65.386 0.909 -24.557 0.909 -24.557 0.416 65.386
17845.292 0.416 65.353 0.909 -24.59 0.909 -24.59 0.416 65.353
17870.25 0.417 65.321 0.909 -24.623 0.909 -24.623 0.417 65.321
17895.208 0.417 65.288 0.908 -24.656 0.908 -24.656 0.417 65.288
17920.167 0.418 65.255 0.908 -24.689 0.908 -24.689 0.418 65.255
17945.125 0.418 65.222 0.908 -24.722 0.908 -24.722 0.418 65.222
17970.083 0.419 65.189 0.908 -24.755 0.908 -24.755 0.419 65.189
17995.042 0.419 65.157 0.907 -24.787 0.907 -24.787 0.419 65.157
18020 0.42 65.124 0.907 -24.82 0.907 -24.82 0.42 65.124
18044.958 0.42 65.091 0.907 -24.853 0.907 -24.853 0.42 65.091
18069.917 0.421 65.059 0.907 -24.886 0.907 -24.886 0.421 65.059
18094.875 0.421 65.026 0.906 -24.919 0.906 -24.919 0.421 65.026
18119.833 0.422 64.993 0.906 -24.951 0.906 -24.951 0.422 64.993
18144.792 0.422 64.961 0.906 -24.984 0.906 -24.984 0.422 64.961
18169.75 0.423 64.928 0.906 -25.017 0.906 -25.017 0.423 64.928
18194.708 0.423 64.895 0.906 -25.049 0.906 -25.049 0.423 64.895
18219.667 0.424 64.863 0.905 -25.082 0.905 -25.082 0.424 64.863
18244.625 0.424 64.83 0.905 -25.115 0.905 -25.115 0.424 64.83
18269.583 0.425 64.798 0.905 -25.147 0.905 -25.147 0.425 64.798
18294.542 0.425 64.765 0.905 -25.18 0.905 -25.18 0.425 64.765
18319.5 0.426 64.733 0.904 -25.212 0.904 -25.212 0.426 64.733
18344.458 0.426 64.7 0.904 -25.245 0.904 -25.245 0.426 64.7
18369.417 0.427 64.668 0.904 -25.277 0.904 -25.277 0.427 64.668
18394.375 0.428 64.636 0.904 -25.31 0.904 -25.31 0.428 64.636
18419.333 0.428 64.603 0.903 -25.342 0.903 -25.342 0.428 64.603
18444.292 0.429 64.571 0.903 -25.375 0.903 -25.375 0.429 64.571
18469.25 0.429 64.538 0.903 -25.407 0.903 -25.407 0.429 64.538
18494.208 0.43 64.506 0.903 -25.44 0.903 -25.44 0.43 64.506
18519.167 0.43 64.474 0.902 -25.472 0.902 -25.472 0.43 64.474
18544.125 0.431 64.441 0.902 -25.504 0.902 -25.504 0.431 64.441
18569.083 0.431 64.409 0.902 -25.537 0.902 -25.537 0.431 64.409
18594.042 0.432 64.377 0.902 -25.569 0.902 -25.569 0.432 64.377
18619 0.432 64.345 0.901 -25.601 0.901 -25.601 0.432 64.345
18643.958 0.433 64.312 0.901 -25.634 0.901 -25.634 0.433 64.312
18668.917 0.433 64.28 0.901 -25.666 0.901 -25.666 0.433 64.28
18693.875 0.434 64.248 0.901 -25.698 0.901 -25.698 0.434 64.248
18718.833 0.434 64.216 0.9 -25.731 0.9 -25.731 0.434 64.216
18743.792 0.435 64.184 0.9 -25.763 0.9 -25.763 0.435 64.184
18768.75 0.435 64.152 0.9 -25.795 0.9 -25.795 0.435 64.152
18793.708 0.436 64.12 0.9 -25.827 0.9 -25.827 0.436 64.12
18818.667 0.436 64.088 0.899 -25.859 0.899 -25.859 0.436 64.088
18843.625 0.437 64.055 0.899 -25.891 0.899 -25.891 0.437 64.055
18868.583 0.437 64.023 0.899 -25.923 0.899 -25.923 0.437 64.023
18893.542 0.438 63.991 0.899 -25.956 0.899 -25.956 0.438 63.991
18918.5 0.438 63.959 0.898 -25.988 0.898 -25.988 0.438 63.959
18943.458 0.439 63.927 0.898 -26.02 0.898 -26.02 0.439 63.927
18968.417 0.439 63.896 0.898 -26.052 0.898 -26.052 0.439 63.896
18993.375 0.44 63.864 0.898 -26.084 0.898 -26.084 0.44 63.864
19018.333 0.44 63.832 0.898 -26.116 0.898 -26.116 0.44 63.832
19043.292 0.441 63.8 0.897 -26.148 0.897 -26.148 0.441 63.8
19068.25 0.441 63.768 0.897 -26.18 0.897 -26.18 0.441 63.768
19093.208 0.442 63.736 0.897 -26.211 0.897 -26.211 0.442 63.736
19118.167 0.442 63.704 0.897 -26.243 0.897 -26.243 0.442 63.704
19143.125 0.443 63.672 0.896 -26.275 0.896 -26.275 0.443 63.672
19168.083 0.443 63.641 0.896 -26.307 0.896 -26.307 0.443 63.641
19193.042 0.444 63.609 0.896 -26.339 0.896 -26.339 0.444 63.609
19218 0.444 63.577 0.896 -26.371 0.896 -26.371 0.444 63.577
19242.958 0.445 63.545 0.895 -26.403 0.895 -26.403 0.445 63.545
19267.917 0.445 63.514 0.895 -26.434 0.895 -26.434 0.445 63.514
19292.875 0.446 63.482 0.895 -26.466 0.895 -26.466 0.446 63.482
19317.833 0.446 63.45 0.895 -26.498 0.895 -26.498 0.446 63.45
19342.792 0.447 63.419 0.894 -26.53 0.894 -26.53 0.447 63.419
19367.75 0.447 63.387 0.894 -26.561 0.894 -26.561 0.447 63.387
19392.708 0.448 63.355 0.894 -26.593 0.894 -26.593 0.448 63.355
19417.667 0.448 63.324 0.894 -26.625 0.894 -26.625 0.448 63.324
19442.625 0.449 63.292 0.893 -26.656 0.893 -26.656 0.449 63.292
19467.583 0.449 63.261 0.893 -26.688 0.893 -26.688 0.449 63.261
19492.542 0.45 63.229 0.893 -26.719 0.893 -26.719 0.45 63.229
19517.5 0.45 63.198 0.893 -26.751 0.893 -26.751 0.45 63.198
19542.458 0.451 63.166 0.892 -26.783 0.892 -26.783 0.451 63.166
19567.417 0.451 63.135 0.892 -26.814 0.892 -26.814 0.451 63.135
19592.375 0.452 63.103 0.892 -26.846 0.892 -26.846 0.452 63.103
19617.333 0.452 63.072 0.892 -26.877 0.892 -26.877 0.452 63.072
19642.292 0.453 63.041 0.891 -26.909 0.891 -26.909 0.453 63.041
19667.25 0.453 63.009 0.891 -26.94 0.891 -26.94 0.453 63.009
19692.208 0.454 62.978 0.891 -26.972 0.891 -26.972 0.454 62.978
19717.167 0.454 62.946 0.891 -27.003 0.891 -27.003 0.454 62.946
19742.125 0.455 62.915 0.89 -27.034 0.89 -27.034 0.455 62.915
19767.083 0.455 62.884 0.89 -27.066 0.89 -27.066 0.455 62.884
19792.042 0.455 62.853 0.89 -27.097 0.89 -27.097 0.455 62.853
19817 0.456 62.821 0.89 -27.128 0.89 -27.128 0.456 62.821
19841.958 0.456 62.79 0.889 -27.16 0.889 -27.16 0.456 62.79
19866.917 0.457 62.759 0.889 -27.191 0.889 -27.191 0.457 62.759
19891.875 0.457 62.728 0.889 -27.222 0.889 -27.222 0.457 62.728
19916.833 0.458 62.696 0.889 -27.254 0.889 -27.254 0.458 62.696
19941.792 0.458 62.665 0.888 -27.285 0.888 -27.285 0.458 62.665
19966.75 0.459 62.634 0.888 -27.316 0.888 -27.316 0.459 62.634
19991.708 0.459 62.603 0.888 -27.347 0.888 -27.347 0.459 62.603
20016.667 0.46 62.572 0.888 -27.378 0.888 -27.378 0.46 62.572
20041.625 0.46 62.541 0.887 -27.409 0.887 -27.409 0.46 62.541
20066.583 0.461 62.51 0.887 -27.441 0.887 -27.441 0.461 62.51
20091.542 0.461 62.479 0.887 -27.472 0.887 -27.472 0.461 62.479
20116.5 0.462 62.448 0.887 -27.503 0.887 -27.503 0.462 62.448
20141.458 0.462 62.417 0.886 -27.534 0.886 -27.534 0.462 62.417
20166.417 0.463 62.386 0.886 -27.565 0.886 -27.565 0.463 62.386
20191.375 0.463 62.355 0.886 -27.596 0.886 -27.596 0.463 62.355
20216.333 0.464 62.324 0.886 -27.627 0.886 -27.627 0.464 62.324
20241.292 0.464 62.293 0.885 -27.658 0.885 -27.658 0.464 62.293
20266.25 0.465 62.262 0.885 -27.689 0.885 -27.689 0.465 62.262
20291.208 0.465 62.231 0.885 -27.72 0.885 -27.72 0.465 62.231
20316.167 0.466 62.2 0.885 -27.751 0.885 -27.751 0.466 62.2
20341.125 0.466 62.169 0.884 -27.782 0.884 -27.782 0.466 62.169
20366.083 0.467 62.138 0.884 -27.813 0.884 -27.813 0.467 62.138
20391.042 0.467 62.108 0.884 -27.844 0.884 -27.844 0.467 62.108
20416 0.468 62.077 0.884 -27.874 0.884 -27.874 0.468 62.077
20440.958 0.468 62.046 0.883 -27.905 0.883 -27.905 0.468 62.046
20465.917 0.468 62.015 0.883 -27.936 0.883 -27.936 0.468 62.015
20490.875 0.469 61.985 0.883 -27.967 0.883 -27.967 0.469 61.985
20515.833 0.469 61.954 0.883 -27.998 0.883 -27.998 0.469 61.954
20540.792 0.47 61.923 0.882 -28.028 0.882 -28.028 0.47 61.923
20565.75 0.47 61.893 0.882 -28.059 0.882 -28.059 0.47 61.893
20590.708 0.471 61.862 0.882 -28.09 0.882 -28.09 0.471 61.862
20615.667 0.471 61.831 0.882 -28.12 0.882 -28.12 0.471 61.831
20640.625 0.472 61.801 0.881 -28.151 0.881 -28.151 0.472 61.801
20665.583 0.472 61.77 0.881 -28.182 0.881 -28.182 0.472 61.77
20690.542 0.473 61.739 0.881 -28.212 0.881 -28.212 0.473 61.739
20715.5 0.473 61.709 0.881 -28.243 0.881 -28.243 0.473 61.709
20740.458 0.474 61.678 0.88 -28.274 0.88 -28.274 0.474 61.678
20765.417 0.474 61.648 0.88 -28.304 0.88 -28.304 0.474 61.648
20790.375 0.475 61.617 0.88 -28.335 0.88 -28.335 0.475 61.617
20815.333 0.475 61.587 0.88 -28.365 0.88 -28.365 0.475 61.587
20840.292 0.476 61.556 0.879 -28.396 0.879 -28.396 0.476 61.556
20865.25 0.476 61.526 0.879 -28.426 0.879 -28.426 0.476 61.526
20890.208 0.476 61.496 0.879 -28.457 0.879 -28.457 0.476 61.496
20915.167 0.477 61.465 0.879 -28.487 0.879 -28.487 0.477 61.465
20940.125 0.477 61.435 0.878 -28.518 0.878 -28.518 0.477 61.435
20965.083 0.478 61.404 0.878 -28.548 0.878 -28.548 0.478 61.404
20990.042 0.478 61.374 0.878 -28.579 0.878 -28.579 0.478 61.374
21015 0.479 61.344 0.878 -28.609 0.878 -28.609 0.479 61.344
21039.958 0.479 61.313 0.877 -28.639 0.877 -28.639 0.479 61.313
21064.917 0.48 61.283 0.877 -28.67 0.877 -28.67 0.48 61.283
21089.875 0.48 61.253 0.877 -28.7 0.877 -28.7 0.48 61.253
21114.833 0.481 61.223 0.876 -28.73 0.876 -28.73 0.481 61.223
21139.792 0.481 61.192 0.876 -28.761 0.876 -28.761 0.481 61.192
21164.75 0.482 61.162 0.876 -28.791 0.876 -28.791 0.482 61.162
21189.708 0.482 61.132 0.876 -28.821 0.876 -28.821 0.482 61.132
21214.667 0.483 61.102 0.875 -28.851 0.875 -28.851 0.483 61.102
21239.625 0.483 61.072 0.875 -28.881 0.875 -28.881 0.483 61.072
21264.583 0.483 61.042 0.875 -28.912 0.875 -28.912 0.483 61.042
21289.542 0.484 61.012 0.875 -28.942 0.875 -28.942 0.484 61.012
21314.5 0.484 60.981 0.874 -28.972 0.874 -28.972 0.484 60.981
21339.458 0.485 60.951 0.874 -29.002 0.874 -29.002 0.485 60.951
21364.417 0.485 60.921 0.874 -29.032 0.874 -29.032 0.485 60.921
21389.375 0.486 60.891 0.874 -29.062 0.874 -29.062 0.486 60.891
21414.333 0.486 60.861 0.873 -29.092 0.873 -29.092 0.486 60.861
21439.292 0.487 60.831 0.873 -29.122 0.873 -29.122 0.487 60.831
21464.25 0.487 60.801 0.873 -29.152 0.873 -29.152 0.487 60.801
21489.208 0.488 60.771 0.873 -29.182 0.873 -29.182 0.488 60.771
21514.167 0.488 60.741 0.872 -29.212 0.872 -29.212 0.488 60.741
21539.125 0.489 60.712 0.872 -29.242 0.872 -29.242 0.489 60.712
21564.083 0.489 60.682 0.872 -29.272 0.872 -29.272 0.489 60.682
21589.042 0.489 60.652 0.872 -29.302 0.872 -29.302 0.489 60.652
21614 0.49 60.622 0.871 -29.332 0.871 -29.332 0.49 60.622
21638.958 0.49 60.592 0.871 -29.362 0.871 -29.362 0.49 60.592
21663.917 0.491 60.562 0.871 -29.392 0.871 -29.392 0.491 60.562
21688.875 0.491 60.532 0.871 -29.422 0.871 -29.422 0.491 60.532
21713.833 0.492 60.503 0.87 -29.452 0.87 -29.452 0.492 60.503
21738.792 0.492 60.473 0.87 -29.481 0.87 -29.481 0.492 60.473
21763.75 0.493 60.443 0.87 -29.511 0.87 -29.511 0.493 60.443
21788.708 0.493 60.413 0.87 -29.541 0.87 -29.541 0.493 60.413
21813.667 0.493 60.384 0.869 -29.571 0.869 -29.571 0.493 60.384
21838.625 0.494 60.354 0.869 -29.6 0.869 -29.6 0.494 60.354
21863.583 0.494 60.324 0.869 -29.63 0.869 -29.63 0.494 60.324
21888.542 0.495 60.295 0.869 -29.66 0.869 -29.66 0.495 60.295
21913.5 0.495 60.265 0.868 -29.69 0.868 -29.69 0.495 60.265
21938.458 0.496 60.236 0.868 -29.719 0.868 -29.719 0.496 60.236
21963.417 0.496 60.206 0.868 -29.749 0.868 -29.749 0.496 60.206
21988.375 0.497 60.176 0.868 -29.778 0.868 -29.778 0.497 60.176
22013.333 0.497 60.147 0.867 -29.808 0.867 -29.808 0.497 60.147
22038.292 0.498 60.117 0.867 -29.838 0.867 -29.838 0.498 60.117
22063.25 0.498 60.088 0.867 -29.867 0.867 -29.867 0.498 60.088
22088.208 0.498 60.058 0.867 -29.897 0.867 -29.897 0.498 60.058
22113.167 0.499 60.029 0.866 -29.926 0.866 -29.926 0.499 60.029
22138.125 0.499 59.999 0.866 -29.956 0.866 -29.956 0.499 59.999
22163.083 0.5 59.97 0.866 -29.985 0.866 -29.985 0.5 59.97
22188.042 0.5 59.941 0.866 -30.015 0.866 -30.015 0.5 59.941
22213 0.501 59.911 0.865 -30.044 0.865 -30.044 0.501 59.911
22237.958 0.501 59.882 0.865 -30.074 0.865 -30.074 0.501 59.882
22262.917 0.502 59.852 0.865 -30.103 0.865 -30.103 0.502 59.852
22287.875 0.502 59.823 0.864 -30.132 0.864 -30.132 0.502 59.823
22312.833 0.502 59.794 0.864 -30.162 0.864 -30.162 0.502 59.794
22337.792 0.503 59.765 0.864 -30.191 0.864 -30.191 0.503 59.765
22362.75 0.503 59.735 0.864 -30.22 0.864 -30.22 0.503 59.735
22387.708 0.504 59.706 0.863 -30.25 0.863 -30.25 0.504 59.706
22412.667 0.504 59.677 0.863 -30.279 0.863 -30.279 0.504 59.677
22437.625 0.505 59.648 0.863 -30.308 0.863 -30.308 0.505 59.648
22462.583 0.505 59.618 0.863 -30.338 0.863 -30.338 0.505 59.618
22487.542 0.506 59.589 0.862 -30.367 0.862 -30.367 0.506 59.589
22512.5 0.506 59.56 0.862 -30.396 0.862 -30.396 0.506 59.56
22537.458 0.506 59.531 0.862 -30.425 0.862 -30.425 0.506 59.531
22562.417 0.507 59.502 0.862 -30.454 0.862 -30.454 0.507 59.502
22587.375 0.507 59.473 0.861 -30.484 0.861 -30.484 0.507 59.473
22612.333 0.508 59.444 0.861 -30.513 0.861 -30.513 0.508 59.444
22637.292 0.508 59.414 0.861 -30.542 0.861 -30.542 0.508 59.414
22662.25 0.509 59.385 0.861 -30.571 0.861 -30.571 0.509 59.385
22687.208 0.509 59.356 0.86 -30.6 0.86 -30.6 0.509 59.356
22712.167 0.509 59.327 0.86 -30.629 0.86 -30.629 0.509 59.327
22737.125 0.51 59.298 0.86 -30.658 0.86 -30.658 0.51 59.298
22762.083 0.51 59.269 0.86 -30.687 0.86 -30.687 0.51 59.269
22787.042 0.511 59.24 0.859 -30.716 0.859 -30.716 0.511 59.24
22812 0.511 59.211 0.859 -30.745 0.859 -30.745 0.511 59.211
22836.958 0.512 59.183 0.859 -30.774 0.859 -30.774 0.512 59.183
22861.917 0.512 59.154 0.859 -30.803 0.859 -30.803 0.512 59.154
22886.875 0.513 59.125 0.858 -30.832 0.858 -30.832 0.513 59.125
22911.833 0.513 59.096 0.858 -30.861 0.858 -30.861 0.513 59.096
22936.792 0.513 59.067 0.858 -30.89 0.858 -30.89 0.513 59.067
22961.75 0.514 59.038 0.858 -30.919 0.858 -30.919 0.514 59.038
22986.708 0.514 59.009 0.857 -30.948 0.857 -30.948 0.514 59.009
23011.667 0.515 58.981 0.857 -30.976 0.857 -30.976 0.515 58.981
23036.625 0.515 58.952 0.857 -31.005 0.857 -31.005 0.515 58.952
23061.583 0.516 58.923 0.856 -31.034 0.856 -31.034 0.516 58.923
23086.542 0.516 58.894 0.856 -31.063 0.856 -31.063 0.516 58.894
23111.5 0.516 58.866 0.856 -31.091 0.856 -31.091 0.516 58.866
23136.458 0.517 58.837 0.856 -31.12 0.856 -31.12 0.517 58.837
23161.417 0.517 58.808 0.855 -31.149 0.855 -31.149 0.517 58.808
23186.375 0.518 58.78 0.855 -31.178 0.855 -31.178 0.518 58.78
23211.333 0.518 58.751 0.855 -31.206 0.855 -31.206 0.518 58.751
23236.292 0.519 58.722 0.855 -31.235 0.855 -31.235 0.519 58.722
23261.25 0.519 58.694 0.854 -31.264 0.854 -31.264 0.519 58.694
23286.208 0.519 58.665 0.854 -31.292 0.854 -31.292 0.519 58.665
23311.167 0.52 58.637 0.854 -31.321 0.854 -31.321 0.52 58.637
23336.125 0.52 58.608 0.854 -31.349 0.854 -31.349 0.52 58.608
23361.083 0.521 58.58 0.853 -31.378 0.853 -31.378 0.521 58.58
23386.042 0.521 58.551 0.853 -31.407 0.853 -31.407 0.521 58.551
23411 0.522 58.523 0.853 -31.435 0.853 -31.435 0.522 58.523
23435.958 0.522 58.494 0.853 -31.464 0.853 -31.464 0.522 58.494
23460.917 0.522 58.466 0.852 -31.492 0.852 -31.492 0.522 58.466
23485.875 0.523 58.437 0.852 -31.521 0.852 -31.521 0.523 58.437
23510.833 0.523 58.409 0.852 -31.549 0.852 -31.549 0.523 58.409
23535.792 0.524 58.38 0.852 -31.578 0.852 -31.578 0.524 58.38
23560.75 0.524 58.352 0.851 -31.606 0.851 -31.606 0.524 58.352
23585.708 0.524 58.324 0.851 -31.634 0.851 -31.634 0.524 58.324
23610.667 0.525 58.295 0.851 -31.663 0.851 -31.663 0.525 58.295
23635.625 0.525 58.267 0.851 -31.691 0.851 -31.691 0.525 58.267
23660.583 0.526 58.239 0.85 -31.719 0.85 -31.719 0.526 58.239
23685.542 0.526 58.211 0.85 -31.748 0.85 -31.748 0.526 58.211
23710.5 0.527 58.182 0.85 -31.776 0.85 -31.776 0.527 58.182
23735.458 0.527 58.154 0.849 -31.804 0.849 -31.804 0.527 58.154
23760.417 0.527 58.126 0.849 -31.833 0.849 -31.833 0.527 58.126
23785.375 0.528 58.098 0.849 -31.861 0.849 -31.861 0.528 58.098
23810.333 0.528 58.069 0.849 -31.889 0.849 -31.889 0.528 58.069
23835.292 0.529 58.041 0.848 -31.917 0.848 -31.917 0.529 58.041
23860.25 0.529 58.013 0.848 -31.946 0.848 -31.946 0.529 58.013
23885.208 0.53 57.985 0.848 -31.974 0.848 -31.974 0.53 57.985
23910.167 0.53 57.957 0.848 -32.002 0.848 -32.002 0.53 57.957
23935.125 0.53 57.929 0.847 -32.03 0.847 -32.03 0.53 57.929
23960.083 0.531 57.901 0.847 -32.058 0.847 -32.058 0.531 57.901
23985.042 0.531 57.873 0.847 -32.086 0.847 -32.086 0.531 57.873
24010 0.532 57.845 0.847 -32.114 0.847 -32.114 0.532 57.845
24034.958 0.532 57.817 0.846 -32.142 0.846 -32.142 0.532 57.817
24059.917 0.532 57.789 0.846 -32.17 0.846 -32.17 0.532 57.789
24084.875 0.533 57.761 0.846 -32.198 0.846 -32.198 0.533 57.761
24109.833 0.533 57.733 0.846 -32.226 0.846 -32.226 0.533 57.733
24134.792 0.534 57.705 0.845 -32.254 0.845 -32.254 0.534 57.705
24159.75 0.534 57.677 0.845 -32.282 0.845 -32.282 0.534 57.677
24184.708 0.535 57.649 0.845 -32.31 0.845 -32.31 0.535 57.649
24209.667 0.535 57.621 0.845 -32.338 0.845 -32.338 0.535 57.621
24234.625 0.535 57.593 0.844 -32.366 0.844 -32.366 0.535 57.593
24259.583 0.536 57.565 0.844 -32.394 0.844 -32.394 0.536 57.565
24284.542 0.536 57.537 0.844 -32.422 0.844 -32.422 0.536 57.537
24309.5 0.537 57.51 0.843 -32.45 0.843 -32.45 0.537 57.51
24334.458 0.537 57.482 0.843 -32.478 0.843 -32.478 0.537 57.482
24359.417 0.537 57.454 0.843 -32.506 0.843 -32.506 0.537 57.454
24384.375 0.538 57.426 0.843 -32.533 0.843 -32.533 0.538 57.426
24409.333 0.538 57.398 0.842 -32.561 0.842 -32.561 0.538 57.398
24434.292 0.539 57.371 0.842 -32.589 0.842 -32.589 0.539 57.371
24459.25 0.539 57.343 0.842 -32.617 0.842 -32.617 0.539 57.343
24484.208 0.539 57.315 0.842 -32.644 0.842 -32.644 0.539 57.315
24509.167 0.54 57.288 0.841 -32.672 0.841 -32.672 0.54 57.288
24534.125 0.54 57.26 0.841 -32.7 0.841 -32.7 0.54 57.26
24559.083 0.541 57.232 0.841 -32.728 0.841 -32.728 0.541 57.232
24584.042 0.541 57.205 0.841 -32.755 0.841 -32.755 0.541 57.205
24609 0.541 57.177 0.84 -32.783 0.84 -32.783 0.541 57.177
24633.958 0.542 57.15 0.84 -32.81 0.84 -32.81 0.542 57.15
24658.917 0.542 57.122 0.84 -32.838 0.84 -32.838 0.542 57.122
24683.875 0.543 57.094 0.84 -32.866 0.84 -32.866 0.543 57.094
24708.833 0.543 57.067 0.839 -32.893 0.839 -32.893 0.543 57.067
24733.792 0.543 57.039 0.839 -32.921 0.839 -32.921 0.543 57.039
24758.75 0.544 57.012 0.839 -32.948 0.839 -32.948 0.544 57.012
24783.708 0.544 56.984 0.839 -32.976 0.839 -32.976 0.544 56.984
24808.667 0.545 56.957 0.838 -33.003 0.838 -33.003 0.545 56.957
24833.625 0.545 56.93 0.838 -33.031 0.838 -33.031 0.545 56.93
24858.583 0.545 56.902 0.838 -33.058 0.838 -33.058 0.545 56.902
24883.542 0.546 56.875 0.837 -33.086 0.837 -33.086 0.546 56.875
24908.5 0.546 56.847 0.837 -33.113 0.837 -33.113 0.546 56.847
24933.458 0.547 56.82 0.837 -33.14 0.837 -33.14 0.547 56.82
24958.417 0.547 56.793 0.837 -33.168 0.837 -33.168 0.547 56.793
24983.375 0.547 56.765 0.836 -33.195 0.836 -33.195 0.547 56.765
25008.333 0.548 56.738 0.836 -33.223 0.836 -33.223 0.548 56.738
25033.292 0.548 56.711 0.836 -33.25 0.836 -33.25 0.548 56.711
25058.25 0.549 56.683 0.836 -33.277 0.836 -33.277 0.549 56.683
25083.208 0.549 56.656 0.835 -33.305 0.835 -33.305 0.549 56.656
25108.167 0.549 56.629 0.835 -33.332 0.835 -33.332 0.549 56.629
25133.125 0.55 56.602 0.835 -33.359 0.835 -33.359 0.55 56.602
25158.083 0.55 56.575 0.835 -33.386 0.835 -33.386 0.55 56.575
25183.042 0.551 56.547 0.834 -33.414 0.834 -33.414 0.551 56.547
25208 0.551 56.52 0.834 -33.441 0.834 -33.441 0.551 56.52
25232.958 0.551 56.493 0.834 -33.468 0.834 -33.468 0.551 56.493
25257.917 0.552 56.466 0.834 -33.495 0.834 -33.495 0.552 56.466
25282.875 0.552 56.439 0.833 -33.522 0.833 -33.522 0.552 56.439
25307.833 0.553 56.412 0.833 -33.549 0.833 -33.549 0.553 56.412
25332.792 0.553 56.385 0.833 -33.576 0.833 -33.576 0.553 56.385
25357.75 0.553 56.358 0.833 -33.604 0.833 -33.604 0.553 56.358
25382.708 0.554 56.331 0.832 -33.631 0.832 -33.631 0.554 56.331
25407.667 0.554 56.304 0.832 -33.658 0.832 -33.658 0.554 56.304
25432.625 0.555 56.277 0.832 -33.685 0.832 -33.685 0.555 56.277
25457.583 0.555 56.25 0.831 -33.712 0.831 -33.712 0.555 56.25
25482.542 0.555 56.223 0.831 -33.739 0.831 -33.739 0.555 56.223
25507.5 0.556 56.196 0.831 -33.766 0.831 -33.766 0.556 56.196
25532.458 0.556 56.169 0.831 -33.793 0.831 -33.793 0.556 56.169
25557.417 0.557 56.142 0.83 -33.82 0.83 -33.82 0.557 56.142
25582.375 0.557 56.115 0.83 -33.847 0.83 -33.847 0.557 56.115
25607.333 0.557 56.088 0.83 -33.874 0.83 -33.874 0.557 56.088
25632.292 0.558 56.061 0.83 -33.9 0.83 -33.9 0.558 56.061
25657.25 0.558 56.034 0.829 -33.927 0.829 -33.927 0.558 56.034
25682.208 0.559 56.008 0.829 -33.954 0.829 -33.954 0.559 56.008
25707.167 0.559 55.981 0.829 -33.981 0.829 -33.981 0.559 55.981
25732.125 0.559 55.954 0.829 -34.008 0.829 -34.008 0.559 55.954
25757.083 0.56 55.927 0.828 -34.035 0.828 -34.035 0.56 55.927
25782.042 0.56 55.9 0.828 -34.061 0.828 -34.061 0.56 55.9
25807 0.56 55.874 0.828 -34.088 0.828 -34.088 0.56 55.874
25831.958 0.561 55.847 0.828 -34.115 0.828 -34.115 0.561 55.847
25856.917 0.561 55.82 0.827 -34.142 0.827 -34.142 0.561 55.82
25881.875 0.562 55.794 0.827 -34.168 0.827 -34.168 0.562 55.794
25906.833 0.562 55.767 0.827 -34.195 0.827 -34.195 0.562 55.767
25931.792 0.562 55.74 0.826 -34.222 0.826 -34.222 0.562 55.74
25956.75 0.563 55.714 0.826 -34.248 0.826 -34.248 0.563 55.714
25981.708 0.563 55.687 0.826 -34.275 0.826 -34.275 0.563 55.687
26006.667 0.564 55.66 0.826 -34.302 0.826 -34.302 0.564 55.66
26031.625 0.564 55.634 0.825 -34.328 0.825 -34.328 0.564 55.634
26056.583 0.564 55.607 0.825 -34.355 0.825 -34.355 0.564 55.607
26081.542 0.565 55.581 0.825 -34.381 0.825 -34.381 0.565 55.581
26106.5 0.565 55.554 0.825 -34.408 0.825 -34.408 0.565 55.554
26131.458 0.565 55.528 0.824 -34.435 0.824 -34.435 0.565 55.528
26156.417 0.566 55.501 0.824 -34.461 0.824 -34.461 0.566 55.501
26181.375 0.566 55.475 0.824 -34.488 0.824 -34.488 0.566 55.475
26206.333 0.567 55.448 0.824 -34.514 0.824 -34.514 0.567 55.448
26231.292 0.567 55.422 0.823 -34.541 0.823 -34.541 0.567 55.422
26256.25 0.567 55.396 0.823 -34.567 0.823 -34.567 0.567 55.396
26281.208 0.568 55.369 0.823 -34.593 0.823 -34.593 0.568 55.369
26306.167 0.568 55.343 0.823 -34.62 0.823 -34.62 0.568 55.343
26331.125 0.569 55.316 0.822 -34.646 0.822 -34.646 0.569 55.316
26356.083 0.569 55.29 0.822 -34.673 0.822 -34.673 0.569 55.29
26381.042 0.569 55.264 0.822 -34.699 0.822 -34.699 0.569 55.264
26406 0.57 55.237 0.822 -34.725 0.822 -34.725 0.57 55.237
26430.958 0.57 55.211 0.821 -34.752 0.821 -34.752 0.57 55.211
26455.917 0.57 55.185 0.821 -34.778 0.821 -34.778 0.57 55.185
26480.875 0.571 55.159 0.821 -34.804 0.821 -34.804 0.571 55.159
26505.833 0.571 55.132 0.82 -34.831 0.82 -34.831 0.571 55.132
26530.792 0.572 55.106 0.82 -34.857 0.82 -34.857 0.572 55.106
26555.75 0.572 55.08 0.82 -34.883 0.82 -34.883 0.572 55.08
26580.708 0.572 55.054 0.82 -34.909 0.82 -34.909 0.572 55.054
26605.667 0.573 55.028 0.819 -34.935 0.819 -34.935 0.573 55.028
26630.625 0.573 55.001 0.819 -34.962 0.819 -34.962 0.573 55.001
26655.583 0.573 54.975 0.819 -34.988 0.819 -34.988 0.573 54.975
26680.542 0.574 54.949 0.819 -35.014 0.819 -35.014 0.574 54.949
26705.5 0.574 54.923 0.818 -35.04 0.818 -35.04 0.574 54.923
26730.458 0.575 54.897 0.818 -35.066 0.818 -35.066 0.575 54.897
26755.417 0.575 54.871 0.818 -35.092 0.818 -35.092 0.575 54.871
26780.375 0.575 54.845 0.818 -35.118 0.818 -35.118 0.575 54.845
26805.333 0.576 54.819 0.817 -35.144 0.817 -35.144 0.576 54.819
26830.292 0.576 54.793 0.817 -35.17 0.817 -35.17 0.576 54.793
26855.25 0.576 54.767 0.817 -35.196 0.817 -35.196 0.576 54.767
26880.208 0.577 54.741 0.817 -35.222 0.817 -35.222 0.577 54.741
26905.167 0.577 54.715 0.816 -35.248 0.816 -35.248 0.577 54.715
26930.125 0.577 54.689 0.816 -35.274 0.816 -35.274 0.577 54.689
26955.083 0.578 54.663 0.816 -35.3 0.816 -35.3 0.578 54.663
26980.042 0.578 54.637 0.816 -35.326 0.816 -35.326 0.578 54.637
27005 0.579 54.611 0.815 -35.352 0.815 -35.352 0.579 54.611
27029.958 0.579 54.586 0.815 -35.378 0.815 -35.378 0.579 54.586
27054.917 0.579 54.56 0.815 -35.404 0.815 -35.404 0.579 54.56
27079.875 0.58 54.534 0.814 -35.43 0.814 -35.43 0.58 54.534
27104.833 0.58 54.508 0.814 -35.456 0.814 -35.456 0.58 54.508
27129.792 0.58 54.482 0.814 -35.482 0.814 -35.482 0.58 54.482
27154.75 0.581 54.456 0.814 -35.507 0.814 -35.507 0.581 54.456
27179.708 0.581 54.431 0.813 -35.533 0.813 -35.533 0.581 54.431
27204.667 0.582 54.405 0.813 -35.559 0.813 -35.559 0.582 54.405
27229.625 0.582 54.379 0.813 -35.585 0.813 -35.585 0.582 54.379
27254.583 0.582 54.353 0.813 -35.61 0.813 -35.61 0.582 54.353
27279.542 0.583 54.328 0.812 -35.636 0.812 -35.636 0.583 54.328
27304.5 0.583 54.302 0.812 -35.662 0.812 -35.662 0.583 54.302
27329.458 0.583 54.276 0.812 -35.688 0.812 -35.688 0.583 54.276
27354.417 0.584 54.251 0.812 -35.713 0.812 -35.713 0.584 54.251
27379.375 0.584 54.225 0.811 -35.739 0.811 -35.739 0.584 54.225
27404.333 0.584 54.2 0.811 -35.765 0.811 -35.765 0.584 54.2
27429.292 0.585 54.174 0.811 -35.79 0.811 -35.79 0.585 54.174
27454.25 0.585 54.148 0.811 -35.816 0.811 -35.816 0.585 54.148
27479.208 0.586 54.123 0.81 -35.841 0.81 -35.841 0.586 54.123
27504.167 0.586 54.097 0.81 -35.867 0.81 -35.867 0.586 54.097
27529.125 0.586 54.072 0.81 -35.893 0.81 -35.893 0.586 54.072
27554.083 0.587 54.046 0.809 -35.918 0.809 -35.918 0.587 54.046
27579.042 0.587 54.021 0.809 -35.944 0.809 -35.944 0.587 54.021
27604 0.587 53.995 0.809 -35.969 0.809 -35.969 0.587 53.995
27628.958 0.588 53.97 0.809 -35.995 0.809 -35.995 0.588 53.97
27653.917 0.588 53.944 0.808 -36.02 0.808 -36.02 0.588 53.944
27678.875 0.588 53.919 0.808 -36.046 0.808 -36.046 0.588 53.919
27703.833 0.589 53.894 0.808 -36.071 0.808 -36.071 0.589 53.894
27728.792 0.589 53.868 0.808 -36.096 0.808 -36.096 0.589 53.868
27753.75 0.59 53.843 0.807 -36.122 0.807 -36.122 0.59 53.843
27778.708 0.59 53.818 0.807 -36.147 0.807 -36.147 0.59 53.818
27803.667 0.59 53.792 0.807 -36.173 0.807 -36.173 0.59 53.792
27828.625 0.591 53.767 0.807 -36.198 0.807 -36.198 0.591 53.767
27853.583 0.591 53.742 0.806 -36.223 0.806 -36.223 0.591 53.742
27878.542 0.591 53.716 0.806 -36.249 0.806 -36.249 0.591 53.716
27903.5 0.592 53.691 0.806 -36.274 0.806 -36.274 0.592 53.691
27928.458 0.592 53.666 0.806 -36.299 0.806 -36.299 0.592 53.666
27953.417 0.592 53.641 0.805 -36.324 0.805 -36.324 0.592 53.641
27978.375 0.593 53.615 0.805 -36.35 0.805 -36.35 0.593 53.615
28003.333 0.593 53.59 0.805 -36.375 0.805 -36.375 0.593 53.59
28028.292 0.593 53.565 0.805 -36.4 0.805 -36.4 0.593 53.565
28053.25 0.594 53.54 0.804 -36.425 0.804 -36.425 0.594 53.54
28078.208 0.594 53.515 0.804 -36.45 0.804 -36.45 0.594 53.515
28103.167 0.594 53.49 0.804 -36.476 0.804 -36.476 0.594 53.49
28128.125 0.595 53.464 0.803 -36.501 0.803 -36.501 0.595 53.464
28153.083 0.595 53.439 0.803 -36.526 0.803 -36.526 0.595 53.439
28178.042 0.596 53.414 0.803 -36.551 0.803 -36.551 0.596 53.414
28203 0.596 53.389 0.803 -36.576 0.803 -36.576 0.596 53.389
28227.958 0.596 53.364 0.802 -36.601 0.802 -36.601 0.596 53.364
28252.917 0.597 53.339 0.802 -36.626 0.802 -36.626 0.597 53.339
28277.875 0.597 53.314 0.802 -36.651 0.802 -36.651 0.597 53.314
28302.833 0.597 53.289 0.802 -36.676 0.802 -36.676 0.597 53.289
28327.792 0.598 53.264 0.801 -36.701 0.801 -36.701 0.598 53.264
28352.75 0.598 53.239 0.801 -36.726 0.801 -36.726 0.598 53.239
28377.708 0.598 53.214 0.801 -36.751 0.801 -36.751 0.598 53.214
28402.667 0.599 53.189 0.801 -36.776 0.801 -36.776 0.599 53.189
28427.625 0.599 53.164 0.8 -36.801 0.8 -36.801 0.599 53.164
28452.583 0.599 53.139 0.8 -36.826 0.8 -36.826 0.599 53.139
28477.542 0.6 53.115 0.8 -36.851 0.8 -36.851 0.6 53.115
28502.5 0.6 53.09 0.8 -36.876 0.8 -36.876 0.6 53.09
28527.458 0.6 53.065 0.799 -36.901 0.799 -36.901 0.6 53.065
28552.417 0.601 53.04 0.799 -36.926 0.799 -36.926 0.601 53.04
28577.375 0.601 53.015 0.799 -36.95 0.799 -36.95 0.601 53.015
28602.333 0.601 52.991 0.799 -36.975 0.799 -36.975 0.601 52.991
28627.292 0.602 52.966 0.798 -37 0.798 -37 0.602 52.966
28652.25 0.602 52.941 0.798 -37.025 0.798 -37.025 0.602 52.941
28677.208 0.603 52.916 0.798 -37.05 0.798 -37.05 0.603 52.916
28702.167 0.603 52.892 0.797 -37.074 0.797 -37.074 0.603 52.892
28727.125 0.603 52.867 0.797 -37.099 0.797 -37.099 0.603 52.867
28752.083 0.604 52.842 0.797 -37.124 0.797 -37.124 0.604 52.842
28777.042 0.604 52.817 0.797 -37.148 0.797 -37.148 0.604 52.817
28802 0.604 52.793 0.796 -37.173 0.796 -37.173 0.604 52.793
28826.958 0.605 52.768 0.796 -37.198 0.796 -37.198 0.605 52.768
28851.917 0.605 52.744 0.796 -37.222 0.796 -37.222 0.605 52.744
28876.875 0.605 52.719 0.796 -37.247 0.796 -37.247 0.605 52.719
28901.833 0.606 52.694 0.795 -37.272 0.795 -37.272 0.606 52.694
28926.792 0.606 52.67 0.795 -37.296 0.795 -37.296 0.606 52.67
28951.75 0.606 52.645 0.795 -37.321 0.795 -37.321 0.606 52.645
28976.708 0.607 52.621 0.795 -37.346 0.795 -37.346 0.607 52.621
29001.667 0.607 52.596 0.794 -37.37 0.794 -37.37 0.607 52.596
29026.625 0.607 52.572 0.794 -37.395 0.794 -37.395 0.607 52.572
29051.583 0.608 52.547 0.794 -37.419 0.794 -37.419 0.608 52.547
29076.542 0.608 52.523 0.794 -37.444 0.794 -37.444 0.608 52.523
29101.5 0.608 52.498 0.793 -37.468 0.793 -37.468 0.608 52.498
29126.458 0.609 52.474 0.793 -37.493 0.793 -37.493 0.609 52.474
29151.417 0.609 52.449 0.793 -37.517 0.793 -37.517 0.609 52.449
29176.375 0.609 52.425 0.793 -37.541 0.793 -37.541 0.609 52.425
29201.333 0.61 52.401 0.792 -37.566 0.792 -37.566 0.61 52.401
29226.292 0.61 52.376 0.792 -37.59 0.792 -37.59 0.61 52.376
29251.25 0.61 52.352 0.792 -37.615 0.792 -37.615 0.61 52.352
29276.208 0.611 52.327 0.792 -37.639 0.792 -37.639 0.611 52.327
29301.167 0.611 52.303 0.791 -37.663 0.791 -37.663 0.611 52.303
29326.125 0.611 52.279 0.791 -37.688 0.791 -37.688 0.611 52.279
29351.083 0.612 52.255 0.791 -37.712 0.791 -37.712 0.612 52.255
29376.042 0.612 52.23 0.79 -37.736 0.79 -37.736 0.612 52.23
29401 0.612 52.206 0.79 -37.761 0.79 -37.761 0.612 52.206
29425.958 0.613 52.182 0.79 -37.785 0.79 -37.785 0.613 52.182
29450.917 0.613 52.158 0.79 -37.809 0.79 -37.809 0.613 52.158
29475.875 0.613 52.133 0.789 -37.833 0.789 -37.833 0.613 52.133
29500.833 0.614 52.109 0.789 -37.858 0.789 -37.858 0.614 52.109
29525.792 0.614 52.085 0.789 -37.882 0.789 -37.882 0.614 52.085
29550.75 0.614 52.061 0.789 -37.906 0.789 -37.906 0.614 52.061
29575.708 0.615 52.037 0.788 -37.93 0.788 -37.93 0.615 52.037
29600.667 0.615 52.013 0.788 -37.954 0.788 -37.954 0.615 52.013
29625.625 0.615 51.988 0.788 -37.978 0.788 -37.978 0.615 51.988
29650.583 0.616 51.964 0.788 -38.003 0.788 -38.003 0.616 51.964
29675.542 0.616 51.94 0.787 -38.027 0.787 -38.027 0.616 51.94
29700.5 0.616 51.916 0.787 -38.051 0.787 -38.051 0.616 51.916
29725.458 0.617 51.892 0.787 -38.075 0.787 -38.075 0.617 51.892
29750.417 0.617 51.868 0.787 -38.099 0.787 -38.099 0.617 51.868
29775.375 0.617 51.844 0.786 -38.123 0.786 -38.123 0.617 51.844
29800.333 0.618 51.82 0.786 -38.147 0.786 -38.147 0.618 51.82
29825.292 0.618 51.796 0.786 -38.171 0.786 -38.171 0.618 51.796
29850.25 0.618 51.772 0.786 -38.195 0.786 -38.195 0.618 51.772
29875.208 0.619 51.748 0.785 -38.219 0.785 -38.219 0.619 51.748
29900.167 0.619 51.724 0.785 -38.243 0.785 -38.243 0.619 51.724
29925.125 0.619 51.7 0.785 -38.267 0.785 -38.267 0.619 51.7
29950.083 0.62 51.677 0.785 -38.291 0.785 -38.291 0.62 51.677
29975.042 0.62 51.653 0.784 -38.315 0.784 -38.315 0.62 51.653
30000 0.62 51.629 0.784 -38.339 0.784 -38.339 0.62 51.629
