!	AVX Thin Film Operation 	Date: April 2014		
!	Description: Accu-P® Series, Thin Film  SMD RF Capacitor
!	Part Number: 04021J1R7PBSTR					
!
# MHZ S MA R 50

50 0.999 -3.057 0.053 86.938 0.053 86.938 0.999 -3.057
74.958 0.997 -4.578 0.08 85.415 0.08 85.415 0.997 -4.578
99.917 0.994 -6.093 0.106 83.898 0.106 83.898 0.994 -6.093
124.875 0.991 -7.6 0.132 82.389 0.132 82.389 0.991 -7.6
149.833 0.987 -9.097 0.158 80.89 0.158 80.89 0.987 -9.097
174.792 0.983 -10.583 0.184 79.402 0.184 79.402 0.983 -10.583
199.75 0.978 -12.055 0.209 77.928 0.209 77.928 0.978 -12.055
224.708 0.972 -13.512 0.234 76.469 0.234 76.469 0.972 -13.512
249.667 0.966 -14.952 0.258 75.026 0.258 75.026 0.966 -14.952
274.625 0.959 -16.375 0.282 73.602 0.282 73.602 0.959 -16.375
299.583 0.952 -17.778 0.305 72.196 0.305 72.196 0.952 -17.778
324.542 0.944 -19.162 0.328 70.811 0.328 70.811 0.944 -19.162
349.5 0.936 -20.523 0.351 69.447 0.351 69.447 0.936 -20.523
374.458 0.928 -21.863 0.372 68.105 0.372 68.105 0.928 -21.863
399.417 0.919 -23.18 0.394 66.786 0.394 66.786 0.919 -23.18
424.375 0.91 -24.473 0.414 65.491 0.414 65.491 0.91 -24.473
449.333 0.9 -25.741 0.434 64.22 0.434 64.22 0.9 -25.741
474.292 0.891 -26.985 0.454 62.974 0.454 62.974 0.891 -26.985
499.25 0.881 -28.204 0.473 61.753 0.473 61.753 0.881 -28.204
524.208 0.871 -29.398 0.491 60.557 0.491 60.557 0.871 -29.398
549.167 0.861 -30.567 0.509 59.386 0.509 59.386 0.861 -30.567
574.125 0.85 -31.71 0.526 58.241 0.526 58.241 0.85 -31.71
599.083 0.84 -32.828 0.542 57.121 0.542 57.121 0.84 -32.828
624.042 0.829 -33.92 0.558 56.026 0.558 56.026 0.829 -33.92
649 0.819 -34.988 0.573 54.956 0.573 54.956 0.819 -34.988
673.958 0.808 -36.031 0.588 53.911 0.588 53.911 0.808 -36.031
698.917 0.797 -37.049 0.602 52.891 0.602 52.891 0.797 -37.049
723.875 0.787 -38.042 0.616 51.895 0.616 51.895 0.787 -38.042
748.833 0.776 -39.012 0.629 50.923 0.629 50.923 0.776 -39.012
773.792 0.766 -39.958 0.642 49.975 0.642 49.975 0.766 -39.958
798.75 0.755 -40.882 0.654 49.049 0.654 49.049 0.755 -40.882
823.708 0.745 -41.782 0.666 48.146 0.666 48.146 0.745 -41.782
848.667 0.735 -42.661 0.678 47.266 0.678 47.266 0.735 -42.661
873.625 0.724 -43.517 0.689 46.407 0.689 46.407 0.724 -43.517
898.583 0.714 -44.353 0.699 45.569 0.699 45.569 0.714 -44.353
923.542 0.704 -45.168 0.709 44.752 0.709 44.752 0.704 -45.168
948.5 0.694 -45.962 0.719 43.955 0.719 43.955 0.694 -45.962
973.458 0.684 -46.737 0.728 43.178 0.728 43.178 0.684 -46.737
998.417 0.675 -47.493 0.737 42.42 0.737 42.42 0.675 -47.493
1023.375 0.665 -48.23 0.746 41.681 0.746 41.681 0.665 -48.23
1048.333 0.656 -48.949 0.754 40.96 0.754 40.96 0.656 -48.949
1073.292 0.646 -49.65 0.762 40.256 0.762 40.256 0.646 -49.65
1098.25 0.637 -50.334 0.77 39.57 0.77 39.57 0.637 -50.334
1123.208 0.628 -51.001 0.777 38.9 0.777 38.9 0.628 -51.001
1148.167 0.619 -51.652 0.784 38.247 0.784 38.247 0.619 -51.652
1173.125 0.61 -52.287 0.791 37.609 0.791 37.609 0.61 -52.287
1198.083 0.602 -52.907 0.798 36.987 0.798 36.987 0.602 -52.907
1223.042 0.593 -53.513 0.804 36.379 0.804 36.379 0.593 -53.513
1248 0.585 -54.103 0.81 35.786 0.81 35.786 0.585 -54.103
1272.958 0.577 -54.68 0.816 35.207 0.816 35.207 0.577 -54.68
1297.917 0.568 -55.244 0.822 34.641 0.822 34.641 0.568 -55.244
1322.875 0.56 -55.794 0.827 34.088 0.827 34.088 0.56 -55.794
1347.833 0.553 -56.331 0.832 33.549 0.832 33.549 0.553 -56.331
1372.792 0.545 -56.857 0.837 33.021 0.837 33.021 0.545 -56.857
1397.75 0.537 -57.37 0.842 32.505 0.842 32.505 0.537 -57.37
1422.708 0.53 -57.871 0.847 32.001 0.847 32.001 0.53 -57.871
1447.667 0.523 -58.361 0.851 31.509 0.851 31.509 0.523 -58.361
1472.625 0.515 -58.841 0.856 31.027 0.856 31.027 0.515 -58.841
1497.583 0.508 -59.31 0.86 30.556 0.86 30.556 0.508 -59.31
1522.542 0.501 -59.768 0.864 30.095 0.864 30.095 0.501 -59.768
1547.5 0.495 -60.217 0.868 29.644 0.868 29.644 0.495 -60.217
1572.458 0.488 -60.655 0.872 29.202 0.872 29.202 0.488 -60.655
1597.417 0.481 -61.085 0.875 28.77 0.875 28.77 0.481 -61.085
1622.375 0.475 -61.505 0.879 28.347 0.879 28.347 0.475 -61.505
1647.333 0.468 -61.917 0.882 27.933 0.882 27.933 0.468 -61.917
1672.292 0.462 -62.32 0.886 27.528 0.886 27.528 0.462 -62.32
1697.25 0.456 -62.715 0.889 27.13 0.889 27.13 0.456 -62.715
1722.208 0.45 -63.101 0.892 26.741 0.892 26.741 0.45 -63.101
1747.167 0.444 -63.48 0.895 26.359 0.895 26.359 0.444 -63.48
1772.125 0.438 -63.851 0.898 25.986 0.898 25.986 0.438 -63.851
1797.083 0.432 -64.215 0.9 25.619 0.9 25.619 0.432 -64.215
1822.042 0.427 -64.572 0.903 25.26 0.903 25.26 0.427 -64.572
1847 0.421 -64.921 0.906 24.907 0.906 24.907 0.421 -64.921
1871.958 0.416 -65.264 0.908 24.562 0.908 24.562 0.416 -65.264
1896.917 0.41 -65.601 0.911 24.222 0.911 24.222 0.41 -65.601
1921.875 0.405 -65.931 0.913 23.89 0.913 23.89 0.405 -65.931
1946.833 0.4 -66.255 0.915 23.563 0.915 23.563 0.4 -66.255
1971.792 0.395 -66.572 0.918 23.242 0.918 23.242 0.395 -66.572
1996.75 0.39 -66.884 0.92 22.928 0.92 22.928 0.39 -66.884
2021.708 0.385 -67.19 0.922 22.619 0.922 22.619 0.385 -67.19
2046.667 0.38 -67.491 0.924 22.315 0.924 22.315 0.38 -67.491
2071.625 0.375 -67.786 0.926 22.017 0.926 22.017 0.375 -67.786
2096.583 0.37 -68.077 0.928 21.724 0.928 21.724 0.37 -68.077
2121.542 0.365 -68.361 0.93 21.436 0.93 21.436 0.365 -68.361
2146.5 0.361 -68.641 0.931 21.153 0.931 21.153 0.361 -68.641
2171.458 0.356 -68.917 0.933 20.875 0.933 20.875 0.356 -68.917
2196.417 0.352 -69.187 0.935 20.601 0.935 20.601 0.352 -69.187
2221.375 0.347 -69.453 0.936 20.332 0.936 20.332 0.347 -69.453
2246.333 0.343 -69.714 0.938 20.068 0.938 20.068 0.343 -69.714
2271.292 0.339 -69.972 0.94 19.808 0.94 19.808 0.339 -69.972
2296.25 0.335 -70.224 0.941 19.552 0.941 19.552 0.335 -70.224
2321.208 0.331 -70.473 0.942 19.3 0.942 19.3 0.331 -70.473
2346.167 0.326 -70.718 0.944 19.052 0.944 19.052 0.326 -70.718
2371.125 0.322 -70.959 0.945 18.808 0.945 18.808 0.322 -70.959
2396.083 0.318 -71.196 0.947 18.568 0.947 18.568 0.318 -71.196
2421.042 0.315 -71.429 0.948 18.331 0.948 18.331 0.315 -71.429
2446 0.311 -71.658 0.949 18.098 0.949 18.098 0.311 -71.658
2470.958 0.307 -71.885 0.95 17.869 0.95 17.869 0.307 -71.885
2495.917 0.303 -72.107 0.952 17.643 0.952 17.643 0.303 -72.107
2520.875 0.299 -72.326 0.953 17.42 0.953 17.42 0.299 -72.326
2545.833 0.296 -72.542 0.954 17.201 0.954 17.201 0.296 -72.542
2570.792 0.292 -72.755 0.955 16.984 0.955 16.984 0.292 -72.755
2595.75 0.289 -72.965 0.956 16.771 0.956 16.771 0.289 -72.965
2620.708 0.285 -73.171 0.957 16.561 0.957 16.561 0.285 -73.171
2645.667 0.282 -73.375 0.958 16.354 0.958 16.354 0.282 -73.375
2670.625 0.278 -73.575 0.959 16.15 0.959 16.15 0.278 -73.575
2695.583 0.275 -73.773 0.96 15.948 0.96 15.948 0.275 -73.773
2720.542 0.271 -73.968 0.961 15.75 0.961 15.75 0.271 -73.968
2745.5 0.268 -74.16 0.962 15.554 0.962 15.554 0.268 -74.16
2770.458 0.265 -74.35 0.963 15.36 0.963 15.36 0.265 -74.35
2795.417 0.262 -74.537 0.964 15.17 0.964 15.17 0.262 -74.537
2820.375 0.259 -74.721 0.965 14.981 0.965 14.981 0.259 -74.721
2845.333 0.255 -74.903 0.966 14.795 0.966 14.795 0.255 -74.903
2870.292 0.252 -75.083 0.966 14.612 0.966 14.612 0.252 -75.083
2895.25 0.249 -75.26 0.967 14.431 0.967 14.431 0.249 -75.26
2920.208 0.246 -75.435 0.968 14.252 0.968 14.252 0.246 -75.435
2945.167 0.243 -75.607 0.969 14.075 0.969 14.075 0.243 -75.607
2970.125 0.24 -75.778 0.969 13.901 0.969 13.901 0.24 -75.778
2995.083 0.237 -75.946 0.97 13.729 0.97 13.729 0.237 -75.946
3020.042 0.234 -76.112 0.971 13.559 0.971 13.559 0.234 -76.112
3045 0.232 -76.275 0.971 13.39 0.971 13.39 0.232 -76.275
3069.958 0.229 -76.437 0.972 13.224 0.972 13.224 0.229 -76.437
3094.917 0.226 -76.597 0.973 13.06 0.973 13.06 0.226 -76.597
3119.875 0.223 -76.755 0.973 12.898 0.973 12.898 0.223 -76.755
3144.833 0.22 -76.91 0.974 12.738 0.974 12.738 0.22 -76.91
3169.792 0.218 -77.064 0.975 12.579 0.975 12.579 0.218 -77.064
3194.75 0.215 -77.216 0.975 12.422 0.975 12.422 0.215 -77.216
3219.708 0.212 -77.367 0.976 12.267 0.976 12.267 0.212 -77.367
3244.667 0.21 -77.515 0.976 12.114 0.976 12.114 0.21 -77.515
3269.625 0.207 -77.662 0.977 11.963 0.977 11.963 0.207 -77.662
3294.583 0.205 -77.807 0.977 11.813 0.977 11.813 0.205 -77.807
3319.542 0.202 -77.95 0.978 11.665 0.978 11.665 0.202 -77.95
3344.5 0.2 -78.092 0.979 11.518 0.979 11.518 0.2 -78.092
3369.458 0.197 -78.232 0.979 11.373 0.979 11.373 0.197 -78.232
3394.417 0.195 -78.37 0.979 11.229 0.979 11.229 0.195 -78.37
3419.375 0.192 -78.507 0.98 11.087 0.98 11.087 0.192 -78.507
3444.333 0.19 -78.642 0.98 10.947 0.98 10.947 0.19 -78.642
3469.292 0.188 -78.776 0.981 10.808 0.981 10.808 0.188 -78.776
3494.25 0.185 -78.908 0.981 10.67 0.981 10.67 0.185 -78.908
3519.208 0.183 -79.039 0.982 10.534 0.982 10.534 0.183 -79.039
3544.167 0.181 -79.168 0.982 10.399 0.982 10.399 0.181 -79.168
3569.125 0.178 -79.296 0.983 10.265 0.983 10.265 0.178 -79.296
3594.083 0.176 -79.422 0.983 10.133 0.983 10.133 0.176 -79.422
3619.042 0.174 -79.547 0.983 10.002 0.983 10.002 0.174 -79.547
3644 0.171 -79.671 0.984 9.872 0.984 9.872 0.171 -79.671
3668.958 0.169 -79.793 0.984 9.743 0.984 9.743 0.169 -79.793
3693.917 0.167 -79.915 0.985 9.616 0.985 9.616 0.167 -79.915
3718.875 0.165 -80.034 0.985 9.49 0.985 9.49 0.165 -80.034
3743.833 0.163 -80.153 0.985 9.365 0.985 9.365 0.163 -80.153
3768.792 0.161 -80.27 0.986 9.241 0.986 9.241 0.161 -80.27
3793.75 0.158 -80.386 0.986 9.118 0.986 9.118 0.158 -80.386
3818.708 0.156 -80.501 0.986 8.997 0.986 8.997 0.156 -80.501
3843.667 0.154 -80.614 0.987 8.876 0.987 8.876 0.154 -80.614
3868.625 0.152 -80.727 0.987 8.757 0.987 8.757 0.152 -80.727
3893.583 0.15 -80.838 0.987 8.638 0.987 8.638 0.15 -80.838
3918.542 0.148 -80.948 0.988 8.521 0.988 8.521 0.148 -80.948
3943.5 0.146 -81.057 0.988 8.405 0.988 8.405 0.146 -81.057
3968.458 0.144 -81.165 0.988 8.289 0.988 8.289 0.144 -81.165
3993.417 0.142 -81.271 0.988 8.175 0.988 8.175 0.142 -81.271
4018.375 0.14 -81.377 0.989 8.062 0.989 8.062 0.14 -81.377
4043.333 0.138 -81.481 0.989 7.949 0.989 7.949 0.138 -81.481
4068.292 0.136 -81.584 0.989 7.838 0.989 7.838 0.136 -81.584
4093.25 0.134 -81.687 0.99 7.727 0.99 7.727 0.134 -81.687
4118.208 0.133 -81.788 0.99 7.617 0.99 7.617 0.133 -81.788
4143.167 0.131 -81.888 0.99 7.509 0.99 7.509 0.131 -81.888
4168.125 0.129 -81.987 0.99 7.401 0.99 7.401 0.129 -81.987
4193.083 0.127 -82.085 0.991 7.293 0.991 7.293 0.127 -82.085
4218.042 0.125 -82.182 0.991 7.187 0.991 7.187 0.125 -82.182
4243 0.123 -82.278 0.991 7.082 0.991 7.082 0.123 -82.278
4267.958 0.121 -82.373 0.991 6.977 0.991 6.977 0.121 -82.373
4292.917 0.12 -82.467 0.991 6.873 0.991 6.873 0.12 -82.467
4317.875 0.118 -82.56 0.992 6.77 0.992 6.77 0.118 -82.56
4342.833 0.116 -82.652 0.992 6.668 0.992 6.668 0.116 -82.652
4367.792 0.114 -82.742 0.992 6.566 0.992 6.566 0.114 -82.742
4392.75 0.113 -82.832 0.992 6.466 0.992 6.466 0.113 -82.832
4417.708 0.111 -82.921 0.992 6.366 0.992 6.366 0.111 -82.921
4442.667 0.109 -83.009 0.993 6.266 0.993 6.266 0.109 -83.009
4467.625 0.107 -83.096 0.993 6.168 0.993 6.168 0.107 -83.096
4492.583 0.106 -83.182 0.993 6.07 0.993 6.07 0.106 -83.182
4517.542 0.104 -83.267 0.993 5.973 0.993 5.973 0.104 -83.267
4542.5 0.102 -83.351 0.993 5.876 0.993 5.876 0.102 -83.351
4567.458 0.101 -83.434 0.994 5.78 0.994 5.78 0.101 -83.434
4592.417 0.099 -83.516 0.994 5.685 0.994 5.685 0.099 -83.516
4617.375 0.097 -83.597 0.994 5.591 0.994 5.591 0.097 -83.597
4642.333 0.096 -83.677 0.994 5.497 0.994 5.497 0.096 -83.677
4667.292 0.094 -83.755 0.994 5.404 0.994 5.404 0.094 -83.755
4692.25 0.093 -83.833 0.994 5.311 0.994 5.311 0.093 -83.833
4717.208 0.091 -83.91 0.994 5.219 0.994 5.219 0.091 -83.91
4742.167 0.089 -83.986 0.995 5.128 0.995 5.128 0.089 -83.986
4767.125 0.088 -84.061 0.995 5.037 0.995 5.037 0.088 -84.061
4792.083 0.086 -84.134 0.995 4.947 0.995 4.947 0.086 -84.134
4817.042 0.085 -84.207 0.995 4.857 0.995 4.857 0.085 -84.207
4842 0.083 -84.279 0.995 4.768 0.995 4.768 0.083 -84.279
4866.958 0.082 -84.349 0.995 4.679 0.995 4.679 0.082 -84.349
4891.917 0.08 -84.418 0.995 4.591 0.995 4.591 0.08 -84.418
4916.875 0.079 -84.486 0.996 4.504 0.996 4.504 0.079 -84.486
4941.833 0.077 -84.553 0.996 4.417 0.996 4.417 0.077 -84.553
4966.792 0.076 -84.619 0.996 4.331 0.996 4.331 0.076 -84.619
4991.75 0.074 -84.684 0.996 4.245 0.996 4.245 0.074 -84.684
5016.708 0.073 -84.747 0.996 4.16 0.996 4.16 0.073 -84.747
5041.667 0.071 -84.809 0.996 4.075 0.996 4.075 0.071 -84.809
5066.625 0.07 -84.869 0.996 3.99 0.996 3.99 0.07 -84.869
5091.583 0.068 -84.929 0.996 3.907 0.996 3.907 0.068 -84.929
5116.542 0.067 -84.987 0.996 3.823 0.996 3.823 0.067 -84.987
5141.5 0.065 -85.043 0.996 3.74 0.996 3.74 0.065 -85.043
5166.458 0.064 -85.098 0.997 3.658 0.997 3.658 0.064 -85.098
5191.417 0.062 -85.151 0.997 3.576 0.997 3.576 0.062 -85.151
5216.375 0.061 -85.203 0.997 3.495 0.997 3.495 0.061 -85.203
5241.333 0.06 -85.253 0.997 3.414 0.997 3.414 0.06 -85.253
5266.292 0.058 -85.301 0.997 3.333 0.997 3.333 0.058 -85.301
5291.25 0.057 -85.348 0.997 3.253 0.997 3.253 0.057 -85.348
5316.208 0.055 -85.392 0.997 3.173 0.997 3.173 0.055 -85.392
5341.167 0.054 -85.435 0.997 3.094 0.997 3.094 0.054 -85.435
5366.125 0.053 -85.475 0.997 3.015 0.997 3.015 0.053 -85.475
5391.083 0.051 -85.513 0.997 2.937 0.997 2.937 0.051 -85.513
5416.042 0.05 -85.549 0.997 2.859 0.997 2.859 0.05 -85.549
5441 0.049 -85.582 0.997 2.781 0.997 2.781 0.049 -85.582
5465.958 0.047 -85.612 0.997 2.704 0.997 2.704 0.047 -85.612
5490.917 0.046 -85.64 0.998 2.627 0.998 2.627 0.046 -85.64
5515.875 0.045 -85.664 0.998 2.551 0.998 2.551 0.045 -85.664
5540.833 0.043 -85.685 0.998 2.475 0.998 2.475 0.043 -85.685
5565.792 0.042 -85.703 0.998 2.4 0.998 2.4 0.042 -85.703
5590.75 0.041 -85.717 0.998 2.324 0.998 2.324 0.041 -85.717
5615.708 0.039 -85.726 0.998 2.249 0.998 2.249 0.039 -85.726
5640.667 0.038 -85.731 0.998 2.175 0.998 2.175 0.038 -85.731
5665.625 0.037 -85.732 0.998 2.101 0.998 2.101 0.037 -85.732
5690.583 0.035 -85.727 0.998 2.027 0.998 2.027 0.035 -85.727
5715.542 0.034 -85.716 0.998 1.954 0.998 1.954 0.034 -85.716
5740.5 0.033 -85.698 0.998 1.881 0.998 1.881 0.033 -85.698
5765.458 0.032 -85.674 0.998 1.808 0.998 1.808 0.032 -85.674
5790.417 0.03 -85.641 0.998 1.736 0.998 1.736 0.03 -85.641
5815.375 0.029 -85.6 0.998 1.663 0.998 1.663 0.029 -85.6
5840.333 0.028 -85.548 0.998 1.592 0.998 1.592 0.028 -85.548
5865.292 0.027 -85.485 0.998 1.52 0.998 1.52 0.027 -85.485
5890.25 0.025 -85.41 0.998 1.449 0.998 1.449 0.025 -85.41
5915.208 0.024 -85.32 0.998 1.379 0.998 1.379 0.024 -85.32
5940.167 0.023 -85.213 0.998 1.308 0.998 1.308 0.023 -85.213
5965.125 0.022 -85.086 0.998 1.238 0.998 1.238 0.022 -85.086
5990.083 0.02 -84.937 0.998 1.168 0.998 1.168 0.02 -84.937
6015.042 0.019 -84.761 0.998 1.099 0.998 1.099 0.019 -84.761
6040 0.018 -84.554 0.998 1.03 0.998 1.03 0.018 -84.554
6064.958 0.017 -84.307 0.998 0.961 0.998 0.961 0.017 -84.307
6089.917 0.016 -84.014 0.998 0.892 0.998 0.892 0.016 -84.014
6114.875 0.014 -83.663 0.999 0.824 0.999 0.824 0.014 -83.663
6139.833 0.013 -83.238 0.999 0.756 0.999 0.756 0.013 -83.238
6164.792 0.012 -82.72 0.999 0.688 0.999 0.688 0.012 -82.72
6189.75 0.011 -82.079 0.999 0.621 0.999 0.621 0.011 -82.079
6214.708 9.765e-3 -81.273 0.999 0.554 0.999 0.554 9.765e-3 -81.273
6239.667 8.611e-3 -80.236 0.999 0.487 0.999 0.487 8.611e-3 -80.236
6264.625 7.467e-3 -78.864 0.999 0.42 0.999 0.42 7.467e-3 -78.864
6289.583 6.333e-3 -76.983 0.999 0.354 0.999 0.354 6.333e-3 -76.983
6314.542 5.215e-3 -74.271 0.999 0.288 0.999 0.288 5.215e-3 -74.271
6339.5 4.119e-3 -70.081 0.999 0.222 0.999 0.222 4.119e-3 -70.081
6364.458 3.067e-3 -62.927 0.999 0.157 0.999 0.157 3.067e-3 -62.927
6389.417 2.115e-3 -48.88 0.999 0.091 0.999 0.091 2.115e-3 -48.88
6414.375 1.463e-3 -18.338 0.999 0.026 0.999 0.026 1.463e-3 -18.338
6439.333 1.541e-3 25.702 0.999 -0.038 0.999 -0.038 1.541e-3 25.702
6464.292 2.269e-3 52.181 0.999 -0.103 0.999 -0.103 2.269e-3 52.181
6489.25 3.23e-3 64.379 0.999 -0.167 0.999 -0.167 3.23e-3 64.379
6514.208 4.266e-3 70.778 0.999 -0.231 0.999 -0.231 4.266e-3 70.778
6539.167 5.331e-3 74.61 0.999 -0.295 0.999 -0.295 5.331e-3 74.61
6564.125 6.408e-3 77.129 0.999 -0.358 0.999 -0.358 6.408e-3 77.129
6589.083 7.491e-3 78.897 0.999 -0.422 0.999 -0.422 7.491e-3 78.897
6614.042 8.575e-3 80.197 0.999 -0.485 0.999 -0.485 8.575e-3 80.197
6639 9.658e-3 81.188 0.999 -0.548 0.999 -0.548 9.658e-3 81.188
6663.958 0.011 81.963 0.999 -0.61 0.999 -0.61 0.011 81.963
6688.917 0.012 82.583 0.999 -0.673 0.999 -0.673 0.012 82.583
6713.875 0.013 83.087 0.999 -0.735 0.999 -0.735 0.013 83.087
6738.833 0.014 83.502 0.999 -0.797 0.999 -0.797 0.014 83.502
6763.792 0.015 83.848 0.998 -0.858 0.998 -0.858 0.015 83.848
6788.75 0.016 84.138 0.998 -0.92 0.998 -0.92 0.016 84.138
6813.708 0.017 84.384 0.998 -0.981 0.998 -0.981 0.017 84.384
6838.667 0.018 84.594 0.998 -1.042 0.998 -1.042 0.018 84.594
6863.625 0.019 84.773 0.998 -1.103 0.998 -1.103 0.019 84.773
6888.583 0.02 84.926 0.998 -1.164 0.998 -1.164 0.02 84.926
6913.542 0.021 85.059 0.998 -1.224 0.998 -1.224 0.021 85.059
6938.5 0.022 85.172 0.998 -1.284 0.998 -1.284 0.022 85.172
6963.458 0.024 85.27 0.998 -1.344 0.998 -1.344 0.024 85.27
6988.417 0.025 85.354 0.998 -1.404 0.998 -1.404 0.025 85.354
7013.375 0.026 85.426 0.998 -1.464 0.998 -1.464 0.026 85.426
7038.333 0.027 85.488 0.998 -1.523 0.998 -1.523 0.027 85.488
7063.292 0.028 85.541 0.998 -1.583 0.998 -1.583 0.028 85.541
7088.25 0.029 85.585 0.998 -1.642 0.998 -1.642 0.029 85.585
7113.208 0.03 85.622 0.998 -1.7 0.998 -1.7 0.03 85.622
7138.167 0.031 85.653 0.998 -1.759 0.998 -1.759 0.031 85.653
7163.125 0.032 85.677 0.998 -1.818 0.998 -1.818 0.032 85.677
7188.083 0.033 85.697 0.998 -1.876 0.998 -1.876 0.033 85.697
7213.042 0.034 85.712 0.998 -1.934 0.998 -1.934 0.034 85.712
7238 0.035 85.722 0.998 -1.992 0.998 -1.992 0.035 85.722
7262.958 0.036 85.729 0.998 -2.05 0.998 -2.05 0.036 85.729
7287.917 0.037 85.732 0.998 -2.107 0.998 -2.107 0.037 85.732
7312.875 0.038 85.732 0.998 -2.165 0.998 -2.165 0.038 85.732
7337.833 0.039 85.729 0.998 -2.222 0.998 -2.222 0.039 85.729
7362.792 0.04 85.723 0.998 -2.279 0.998 -2.279 0.04 85.723
7387.75 0.041 85.715 0.998 -2.336 0.998 -2.336 0.041 85.715
7412.708 0.042 85.704 0.998 -2.393 0.998 -2.393 0.042 85.704
7437.667 0.043 85.692 0.998 -2.449 0.998 -2.449 0.043 85.692
7462.625 0.044 85.677 0.998 -2.505 0.998 -2.505 0.044 85.677
7487.583 0.045 85.661 0.998 -2.562 0.998 -2.562 0.045 85.661
7512.542 0.046 85.643 0.998 -2.618 0.998 -2.618 0.046 85.643
7537.5 0.047 85.623 0.998 -2.674 0.998 -2.674 0.047 85.623
7562.458 0.048 85.603 0.997 -2.729 0.997 -2.729 0.048 85.603
7587.417 0.049 85.58 0.997 -2.785 0.997 -2.785 0.049 85.58
7612.375 0.05 85.557 0.997 -2.84 0.997 -2.84 0.05 85.557
7637.333 0.051 85.532 0.997 -2.896 0.997 -2.896 0.051 85.532
7662.292 0.051 85.506 0.997 -2.951 0.997 -2.951 0.051 85.506
7687.25 0.052 85.48 0.997 -3.006 0.997 -3.006 0.052 85.48
7712.208 0.053 85.452 0.997 -3.06 0.997 -3.06 0.053 85.452
7737.167 0.054 85.424 0.997 -3.115 0.997 -3.115 0.054 85.424
7762.125 0.055 85.394 0.997 -3.169 0.997 -3.169 0.055 85.394
7787.083 0.056 85.364 0.997 -3.224 0.997 -3.224 0.056 85.364
7812.042 0.057 85.333 0.997 -3.278 0.997 -3.278 0.057 85.333
7837 0.058 85.302 0.997 -3.332 0.997 -3.332 0.058 85.302
7861.958 0.059 85.27 0.997 -3.386 0.997 -3.386 0.059 85.27
7886.917 0.06 85.237 0.997 -3.44 0.997 -3.44 0.06 85.237
7911.875 0.061 85.204 0.997 -3.493 0.997 -3.493 0.061 85.204
7936.833 0.062 85.17 0.997 -3.547 0.997 -3.547 0.062 85.17
7961.792 0.063 85.136 0.997 -3.6 0.997 -3.6 0.063 85.136
7986.75 0.064 85.101 0.997 -3.653 0.997 -3.653 0.064 85.101
8011.708 0.065 85.066 0.997 -3.706 0.997 -3.706 0.065 85.066
8036.667 0.066 85.03 0.996 -3.759 0.996 -3.759 0.066 85.03
8061.625 0.066 84.994 0.996 -3.812 0.996 -3.812 0.066 84.994
8086.583 0.067 84.958 0.996 -3.865 0.996 -3.865 0.067 84.958
8111.542 0.068 84.921 0.996 -3.917 0.996 -3.917 0.068 84.921
8136.5 0.069 84.884 0.996 -3.97 0.996 -3.97 0.069 84.884
8161.458 0.07 84.847 0.996 -4.022 0.996 -4.022 0.07 84.847
8186.417 0.071 84.809 0.996 -4.074 0.996 -4.074 0.071 84.809
8211.375 0.072 84.771 0.996 -4.126 0.996 -4.126 0.072 84.771
8236.333 0.073 84.733 0.996 -4.178 0.996 -4.178 0.073 84.733
8261.292 0.074 84.695 0.996 -4.23 0.996 -4.23 0.074 84.695
8286.25 0.075 84.656 0.996 -4.281 0.996 -4.281 0.075 84.656
8311.208 0.076 84.617 0.996 -4.333 0.996 -4.333 0.076 84.617
8336.167 0.076 84.578 0.996 -4.384 0.996 -4.384 0.076 84.578
8361.125 0.077 84.539 0.996 -4.436 0.996 -4.436 0.077 84.539
8386.083 0.078 84.5 0.996 -4.487 0.996 -4.487 0.078 84.5
8411.042 0.079 84.46 0.995 -4.538 0.995 -4.538 0.079 84.46
8436 0.08 84.42 0.995 -4.589 0.995 -4.589 0.08 84.42
8460.958 0.081 84.38 0.995 -4.639 0.995 -4.639 0.081 84.38
8485.917 0.082 84.34 0.995 -4.69 0.995 -4.69 0.082 84.34
8510.875 0.083 84.3 0.995 -4.741 0.995 -4.741 0.083 84.3
8535.833 0.084 84.26 0.995 -4.791 0.995 -4.791 0.084 84.26
8560.792 0.084 84.219 0.995 -4.841 0.995 -4.841 0.084 84.219
8585.75 0.085 84.179 0.995 -4.892 0.995 -4.892 0.085 84.179
8610.708 0.086 84.138 0.995 -4.942 0.995 -4.942 0.086 84.138
8635.667 0.087 84.098 0.995 -4.992 0.995 -4.992 0.087 84.098
8660.625 0.088 84.057 0.995 -5.042 0.995 -5.042 0.088 84.057
8685.583 0.089 84.016 0.995 -5.091 0.995 -5.091 0.089 84.016
8710.542 0.09 83.975 0.995 -5.141 0.995 -5.141 0.09 83.975
8735.5 0.09 83.934 0.995 -5.191 0.995 -5.191 0.09 83.934
8760.458 0.091 83.893 0.994 -5.24 0.994 -5.24 0.091 83.893
8785.417 0.092 83.851 0.994 -5.289 0.994 -5.289 0.092 83.851
8810.375 0.093 83.81 0.994 -5.339 0.994 -5.339 0.093 83.81
8835.333 0.094 83.769 0.994 -5.388 0.994 -5.388 0.094 83.769
8860.292 0.095 83.727 0.994 -5.437 0.994 -5.437 0.095 83.727
8885.25 0.096 83.686 0.994 -5.486 0.994 -5.486 0.096 83.686
8910.208 0.096 83.645 0.994 -5.535 0.994 -5.535 0.096 83.645
8935.167 0.097 83.603 0.994 -5.583 0.994 -5.583 0.097 83.603
8960.125 0.098 83.561 0.994 -5.632 0.994 -5.632 0.098 83.561
8985.083 0.099 83.52 0.994 -5.68 0.994 -5.68 0.099 83.52
9010.042 0.1 83.478 0.994 -5.729 0.994 -5.729 0.1 83.478
9035 0.101 83.437 0.994 -5.777 0.994 -5.777 0.101 83.437
9059.958 0.102 83.395 0.993 -5.825 0.993 -5.825 0.102 83.395
9084.917 0.102 83.353 0.993 -5.874 0.993 -5.874 0.102 83.353
9109.875 0.103 83.312 0.993 -5.922 0.993 -5.922 0.103 83.312
9134.833 0.104 83.27 0.993 -5.97 0.993 -5.97 0.104 83.27
9159.792 0.105 83.228 0.993 -6.017 0.993 -6.017 0.105 83.228
9184.75 0.106 83.186 0.993 -6.065 0.993 -6.065 0.106 83.186
9209.708 0.106 83.145 0.993 -6.113 0.993 -6.113 0.106 83.145
9234.667 0.107 83.103 0.993 -6.16 0.993 -6.16 0.107 83.103
9259.625 0.108 83.061 0.993 -6.208 0.993 -6.208 0.108 83.061
9284.583 0.109 83.019 0.993 -6.255 0.993 -6.255 0.109 83.019
9309.542 0.11 82.977 0.993 -6.302 0.993 -6.302 0.11 82.977
9334.5 0.111 82.936 0.992 -6.35 0.992 -6.35 0.111 82.936
9359.458 0.111 82.894 0.992 -6.397 0.992 -6.397 0.111 82.894
9384.417 0.112 82.852 0.992 -6.444 0.992 -6.444 0.112 82.852
9409.375 0.113 82.81 0.992 -6.491 0.992 -6.491 0.113 82.81
9434.333 0.114 82.768 0.992 -6.538 0.992 -6.538 0.114 82.768
9459.292 0.115 82.727 0.992 -6.584 0.992 -6.584 0.115 82.727
9484.25 0.115 82.685 0.992 -6.631 0.992 -6.631 0.115 82.685
9509.208 0.116 82.643 0.992 -6.678 0.992 -6.678 0.116 82.643
9534.167 0.117 82.601 0.992 -6.724 0.992 -6.724 0.117 82.601
9559.125 0.118 82.56 0.992 -6.77 0.992 -6.77 0.118 82.56
9584.083 0.119 82.518 0.992 -6.817 0.992 -6.817 0.119 82.518
9609.042 0.12 82.476 0.991 -6.863 0.991 -6.863 0.12 82.476
9634 0.12 82.434 0.991 -6.909 0.991 -6.909 0.12 82.434
9658.958 0.121 82.393 0.991 -6.955 0.991 -6.955 0.121 82.393
9683.917 0.122 82.351 0.991 -7.001 0.991 -7.001 0.122 82.351
9708.875 0.123 82.309 0.991 -7.047 0.991 -7.047 0.123 82.309
9733.833 0.123 82.268 0.991 -7.093 0.991 -7.093 0.123 82.268
9758.792 0.124 82.226 0.991 -7.139 0.991 -7.139 0.124 82.226
9783.75 0.125 82.185 0.991 -7.184 0.991 -7.184 0.125 82.185
9808.708 0.126 82.143 0.991 -7.23 0.991 -7.23 0.126 82.143
9833.667 0.127 82.101 0.991 -7.276 0.991 -7.276 0.127 82.101
9858.625 0.127 82.06 0.99 -7.321 0.99 -7.321 0.127 82.06
9883.583 0.128 82.018 0.99 -7.366 0.99 -7.366 0.128 82.018
9908.542 0.129 81.977 0.99 -7.412 0.99 -7.412 0.129 81.977
9933.5 0.13 81.935 0.99 -7.457 0.99 -7.457 0.13 81.935
9958.458 0.131 81.894 0.99 -7.502 0.99 -7.502 0.131 81.894
9983.417 0.131 81.853 0.99 -7.547 0.99 -7.547 0.131 81.853
10008.375 0.132 81.811 0.99 -7.592 0.99 -7.592 0.132 81.811
10033.333 0.133 81.77 0.99 -7.637 0.99 -7.637 0.133 81.77
10058.292 0.134 81.729 0.99 -7.682 0.99 -7.682 0.134 81.729
10083.25 0.134 81.687 0.99 -7.726 0.99 -7.726 0.134 81.687
10108.208 0.135 81.646 0.989 -7.771 0.989 -7.771 0.135 81.646
10133.167 0.136 81.605 0.989 -7.816 0.989 -7.816 0.136 81.605
10158.125 0.137 81.564 0.989 -7.86 0.989 -7.86 0.137 81.564
10183.083 0.138 81.522 0.989 -7.905 0.989 -7.905 0.138 81.522
10208.042 0.138 81.481 0.989 -7.949 0.989 -7.949 0.138 81.481
10233 0.139 81.44 0.989 -7.993 0.989 -7.993 0.139 81.44
10257.958 0.14 81.399 0.989 -8.038 0.989 -8.038 0.14 81.399
10282.917 0.141 81.358 0.989 -8.082 0.989 -8.082 0.141 81.358
10307.875 0.141 81.317 0.989 -8.126 0.989 -8.126 0.141 81.317
10332.833 0.142 81.276 0.988 -8.17 0.988 -8.17 0.142 81.276
10357.792 0.143 81.235 0.988 -8.214 0.988 -8.214 0.143 81.235
10382.75 0.144 81.194 0.988 -8.258 0.988 -8.258 0.144 81.194
10407.708 0.144 81.153 0.988 -8.302 0.988 -8.302 0.144 81.153
10432.667 0.145 81.112 0.988 -8.345 0.988 -8.345 0.145 81.112
10457.625 0.146 81.071 0.988 -8.389 0.988 -8.389 0.146 81.071
10482.583 0.147 81.031 0.988 -8.433 0.988 -8.433 0.147 81.031
10507.542 0.147 80.99 0.988 -8.476 0.988 -8.476 0.147 80.99
10532.5 0.148 80.949 0.988 -8.52 0.988 -8.52 0.148 80.949
10557.458 0.149 80.908 0.987 -8.563 0.987 -8.563 0.149 80.908
10582.417 0.15 80.868 0.987 -8.607 0.987 -8.607 0.15 80.868
10607.375 0.15 80.827 0.987 -8.65 0.987 -8.65 0.15 80.827
10632.333 0.151 80.787 0.987 -8.693 0.987 -8.693 0.151 80.787
10657.292 0.152 80.746 0.987 -8.736 0.987 -8.736 0.152 80.746
10682.25 0.153 80.705 0.987 -8.78 0.987 -8.78 0.153 80.705
10707.208 0.153 80.665 0.987 -8.823 0.987 -8.823 0.153 80.665
10732.167 0.154 80.624 0.987 -8.866 0.987 -8.866 0.154 80.624
10757.125 0.155 80.584 0.987 -8.908 0.987 -8.908 0.155 80.584
10782.083 0.156 80.544 0.986 -8.951 0.986 -8.951 0.156 80.544
10807.042 0.156 80.503 0.986 -8.994 0.986 -8.994 0.156 80.503
10832 0.157 80.463 0.986 -9.037 0.986 -9.037 0.157 80.463
10856.958 0.158 80.423 0.986 -9.08 0.986 -9.08 0.158 80.423
10881.917 0.159 80.382 0.986 -9.122 0.986 -9.122 0.159 80.382
10906.875 0.159 80.342 0.986 -9.165 0.986 -9.165 0.159 80.342
10931.833 0.16 80.302 0.986 -9.207 0.986 -9.207 0.16 80.302
10956.792 0.161 80.262 0.986 -9.25 0.986 -9.25 0.161 80.262
10981.75 0.161 80.222 0.986 -9.292 0.986 -9.292 0.161 80.222
11006.708 0.162 80.182 0.985 -9.334 0.985 -9.334 0.162 80.182
11031.667 0.163 80.142 0.985 -9.377 0.985 -9.377 0.163 80.142
11056.625 0.164 80.102 0.985 -9.419 0.985 -9.419 0.164 80.102
11081.583 0.164 80.062 0.985 -9.461 0.985 -9.461 0.164 80.062
11106.542 0.165 80.022 0.985 -9.503 0.985 -9.503 0.165 80.022
11131.5 0.166 79.982 0.985 -9.545 0.985 -9.545 0.166 79.982
11156.458 0.167 79.942 0.985 -9.587 0.985 -9.587 0.167 79.942
11181.417 0.167 79.902 0.985 -9.629 0.985 -9.629 0.167 79.902
11206.375 0.168 79.862 0.984 -9.671 0.984 -9.671 0.168 79.862
11231.333 0.169 79.823 0.984 -9.713 0.984 -9.713 0.169 79.823
11256.292 0.169 79.783 0.984 -9.754 0.984 -9.754 0.169 79.783
11281.25 0.17 79.743 0.984 -9.796 0.984 -9.796 0.17 79.743
11306.208 0.171 79.704 0.984 -9.838 0.984 -9.838 0.171 79.704
11331.167 0.172 79.664 0.984 -9.879 0.984 -9.879 0.172 79.664
11356.125 0.172 79.625 0.984 -9.921 0.984 -9.921 0.172 79.625
11381.083 0.173 79.585 0.984 -9.962 0.984 -9.962 0.173 79.585
11406.042 0.174 79.546 0.983 -10.004 0.983 -10.004 0.174 79.546
11431 0.174 79.506 0.983 -10.045 0.983 -10.045 0.174 79.506
11455.958 0.175 79.467 0.983 -10.086 0.983 -10.086 0.175 79.467
11480.917 0.176 79.427 0.983 -10.127 0.983 -10.127 0.176 79.427
11505.875 0.177 79.388 0.983 -10.169 0.983 -10.169 0.177 79.388
11530.833 0.177 79.349 0.983 -10.21 0.983 -10.21 0.177 79.349
11555.792 0.178 79.309 0.983 -10.251 0.983 -10.251 0.178 79.309
11580.75 0.179 79.27 0.983 -10.292 0.983 -10.292 0.179 79.27
11605.708 0.179 79.231 0.982 -10.333 0.982 -10.333 0.179 79.231
11630.667 0.18 79.192 0.982 -10.374 0.982 -10.374 0.18 79.192
11655.625 0.181 79.153 0.982 -10.415 0.982 -10.415 0.181 79.153
11680.583 0.181 79.113 0.982 -10.455 0.982 -10.455 0.181 79.113
11705.542 0.182 79.074 0.982 -10.496 0.982 -10.496 0.182 79.074
11730.5 0.183 79.035 0.982 -10.537 0.982 -10.537 0.183 79.035
11755.458 0.184 78.996 0.982 -10.578 0.982 -10.578 0.184 78.996
11780.417 0.184 78.957 0.982 -10.618 0.982 -10.618 0.184 78.957
11805.375 0.185 78.918 0.981 -10.659 0.981 -10.659 0.185 78.918
11830.333 0.186 78.88 0.981 -10.699 0.981 -10.699 0.186 78.88
11855.292 0.186 78.841 0.981 -10.74 0.981 -10.74 0.186 78.841
11880.25 0.187 78.802 0.981 -10.78 0.981 -10.78 0.187 78.802
11905.208 0.188 78.763 0.981 -10.821 0.981 -10.821 0.188 78.763
11930.167 0.188 78.724 0.981 -10.861 0.981 -10.861 0.188 78.724
11955.125 0.189 78.686 0.981 -10.901 0.981 -10.901 0.189 78.686
11980.083 0.19 78.647 0.98 -10.941 0.98 -10.941 0.19 78.647
12005.042 0.19 78.608 0.98 -10.982 0.98 -10.982 0.19 78.608
12030 0.191 78.57 0.98 -11.022 0.98 -11.022 0.191 78.57
12054.958 0.192 78.531 0.98 -11.062 0.98 -11.062 0.192 78.531
12079.917 0.193 78.493 0.98 -11.102 0.98 -11.102 0.193 78.493
12104.875 0.193 78.454 0.98 -11.142 0.98 -11.142 0.193 78.454
12129.833 0.194 78.416 0.98 -11.182 0.98 -11.182 0.194 78.416
12154.792 0.195 78.377 0.98 -11.222 0.98 -11.222 0.195 78.377
12179.75 0.195 78.339 0.979 -11.262 0.979 -11.262 0.195 78.339
12204.708 0.196 78.301 0.979 -11.301 0.979 -11.301 0.196 78.301
12229.667 0.197 78.262 0.979 -11.341 0.979 -11.341 0.197 78.262
12254.625 0.197 78.224 0.979 -11.381 0.979 -11.381 0.197 78.224
12279.583 0.198 78.186 0.979 -11.42 0.979 -11.42 0.198 78.186
12304.542 0.199 78.147 0.979 -11.46 0.979 -11.46 0.199 78.147
12329.5 0.199 78.109 0.979 -11.5 0.979 -11.5 0.199 78.109
12354.458 0.2 78.071 0.978 -11.539 0.978 -11.539 0.2 78.071
12379.417 0.201 78.033 0.978 -11.579 0.978 -11.579 0.201 78.033
12404.375 0.201 77.995 0.978 -11.618 0.978 -11.618 0.201 77.995
12429.333 0.202 77.957 0.978 -11.658 0.978 -11.658 0.202 77.957
12454.292 0.203 77.919 0.978 -11.697 0.978 -11.697 0.203 77.919
12479.25 0.203 77.881 0.978 -11.736 0.978 -11.736 0.203 77.881
12504.208 0.204 77.843 0.978 -11.775 0.978 -11.775 0.204 77.843
12529.167 0.205 77.805 0.977 -11.815 0.977 -11.815 0.205 77.805
12554.125 0.205 77.767 0.977 -11.854 0.977 -11.854 0.205 77.767
12579.083 0.206 77.729 0.977 -11.893 0.977 -11.893 0.206 77.729
12604.042 0.207 77.692 0.977 -11.932 0.977 -11.932 0.207 77.692
12629 0.207 77.654 0.977 -11.971 0.977 -11.971 0.207 77.654
12653.958 0.208 77.616 0.977 -12.01 0.977 -12.01 0.208 77.616
12678.917 0.209 77.578 0.977 -12.049 0.977 -12.049 0.209 77.578
12703.875 0.209 77.541 0.976 -12.088 0.976 -12.088 0.209 77.541
12728.833 0.21 77.503 0.976 -12.127 0.976 -12.127 0.21 77.503
12753.792 0.211 77.465 0.976 -12.166 0.976 -12.166 0.211 77.465
12778.75 0.211 77.428 0.976 -12.204 0.976 -12.204 0.211 77.428
12803.708 0.212 77.39 0.976 -12.243 0.976 -12.243 0.212 77.39
12828.667 0.213 77.353 0.976 -12.282 0.976 -12.282 0.213 77.353
12853.625 0.213 77.315 0.976 -12.321 0.976 -12.321 0.213 77.315
12878.583 0.214 77.278 0.975 -12.359 0.975 -12.359 0.214 77.278
12903.542 0.215 77.24 0.975 -12.398 0.975 -12.398 0.215 77.24
12928.5 0.215 77.203 0.975 -12.436 0.975 -12.436 0.215 77.203
12953.458 0.216 77.166 0.975 -12.475 0.975 -12.475 0.216 77.166
12978.417 0.217 77.128 0.975 -12.513 0.975 -12.513 0.217 77.128
13003.375 0.217 77.091 0.975 -12.552 0.975 -12.552 0.217 77.091
13028.333 0.218 77.054 0.975 -12.59 0.975 -12.59 0.218 77.054
13053.292 0.219 77.017 0.974 -12.628 0.974 -12.628 0.219 77.017
13078.25 0.219 76.979 0.974 -12.667 0.974 -12.667 0.219 76.979
13103.208 0.22 76.942 0.974 -12.705 0.974 -12.705 0.22 76.942
13128.167 0.221 76.905 0.974 -12.743 0.974 -12.743 0.221 76.905
13153.125 0.221 76.868 0.974 -12.781 0.974 -12.781 0.221 76.868
13178.083 0.222 76.831 0.974 -12.819 0.974 -12.819 0.222 76.831
13203.042 0.223 76.794 0.974 -12.857 0.974 -12.857 0.223 76.794
13228 0.223 76.757 0.973 -12.896 0.973 -12.896 0.223 76.757
13252.958 0.224 76.72 0.973 -12.934 0.973 -12.934 0.224 76.72
13277.917 0.224 76.683 0.973 -12.972 0.973 -12.972 0.224 76.683
13302.875 0.225 76.646 0.973 -13.009 0.973 -13.009 0.225 76.646
13327.833 0.226 76.609 0.973 -13.047 0.973 -13.047 0.226 76.609
13352.792 0.226 76.573 0.973 -13.085 0.973 -13.085 0.226 76.573
13377.75 0.227 76.536 0.973 -13.123 0.973 -13.123 0.227 76.536
13402.708 0.228 76.499 0.972 -13.161 0.972 -13.161 0.228 76.499
13427.667 0.228 76.462 0.972 -13.199 0.972 -13.199 0.228 76.462
13452.625 0.229 76.425 0.972 -13.236 0.972 -13.236 0.229 76.425
13477.583 0.23 76.389 0.972 -13.274 0.972 -13.274 0.23 76.389
13502.542 0.23 76.352 0.972 -13.312 0.972 -13.312 0.23 76.352
13527.5 0.231 76.316 0.972 -13.349 0.972 -13.349 0.231 76.316
13552.458 0.232 76.279 0.971 -13.387 0.971 -13.387 0.232 76.279
13577.417 0.232 76.242 0.971 -13.424 0.971 -13.424 0.232 76.242
13602.375 0.233 76.206 0.971 -13.462 0.971 -13.462 0.233 76.206
13627.333 0.233 76.169 0.971 -13.499 0.971 -13.499 0.233 76.169
13652.292 0.234 76.133 0.971 -13.537 0.971 -13.537 0.234 76.133
13677.25 0.235 76.096 0.971 -13.574 0.971 -13.574 0.235 76.096
13702.208 0.235 76.06 0.971 -13.611 0.971 -13.611 0.235 76.06
13727.167 0.236 76.024 0.97 -13.649 0.97 -13.649 0.236 76.024
13752.125 0.237 75.987 0.97 -13.686 0.97 -13.686 0.237 75.987
13777.083 0.237 75.951 0.97 -13.723 0.97 -13.723 0.237 75.951
13802.042 0.238 75.915 0.97 -13.76 0.97 -13.76 0.238 75.915
13827 0.238 75.879 0.97 -13.798 0.97 -13.798 0.238 75.879
13851.958 0.239 75.842 0.97 -13.835 0.97 -13.835 0.239 75.842
13876.917 0.24 75.806 0.969 -13.872 0.969 -13.872 0.24 75.806
13901.875 0.24 75.77 0.969 -13.909 0.969 -13.909 0.24 75.77
13926.833 0.241 75.734 0.969 -13.946 0.969 -13.946 0.241 75.734
13951.792 0.242 75.698 0.969 -13.983 0.969 -13.983 0.242 75.698
13976.75 0.242 75.662 0.969 -14.02 0.969 -14.02 0.242 75.662
14001.708 0.243 75.626 0.969 -14.057 0.969 -14.057 0.243 75.626
14026.667 0.244 75.59 0.969 -14.094 0.969 -14.094 0.244 75.59
14051.625 0.244 75.554 0.968 -14.13 0.968 -14.13 0.244 75.554
14076.583 0.245 75.518 0.968 -14.167 0.968 -14.167 0.245 75.518
14101.542 0.245 75.482 0.968 -14.204 0.968 -14.204 0.245 75.482
14126.5 0.246 75.446 0.968 -14.241 0.968 -14.241 0.246 75.446
14151.458 0.247 75.41 0.968 -14.277 0.968 -14.277 0.247 75.41
14176.417 0.247 75.374 0.968 -14.314 0.968 -14.314 0.247 75.374
14201.375 0.248 75.338 0.967 -14.351 0.967 -14.351 0.248 75.338
14226.333 0.248 75.303 0.967 -14.387 0.967 -14.387 0.248 75.303
14251.292 0.249 75.267 0.967 -14.424 0.967 -14.424 0.249 75.267
14276.25 0.25 75.231 0.967 -14.46 0.967 -14.46 0.25 75.231
14301.208 0.25 75.195 0.967 -14.497 0.967 -14.497 0.25 75.195
14326.167 0.251 75.16 0.967 -14.533 0.967 -14.533 0.251 75.16
14351.125 0.252 75.124 0.966 -14.57 0.966 -14.57 0.252 75.124
14376.083 0.252 75.088 0.966 -14.606 0.966 -14.606 0.252 75.088
14401.042 0.253 75.053 0.966 -14.643 0.966 -14.643 0.253 75.053
14426 0.253 75.017 0.966 -14.679 0.966 -14.679 0.253 75.017
14450.958 0.254 74.982 0.966 -14.715 0.966 -14.715 0.254 74.982
14475.917 0.255 74.946 0.966 -14.752 0.966 -14.752 0.255 74.946
14500.875 0.255 74.911 0.966 -14.788 0.966 -14.788 0.255 74.911
14525.833 0.256 74.875 0.965 -14.824 0.965 -14.824 0.256 74.875
14550.792 0.256 74.84 0.965 -14.86 0.965 -14.86 0.256 74.84
14575.75 0.257 74.805 0.965 -14.896 0.965 -14.896 0.257 74.805
14600.708 0.258 74.769 0.965 -14.932 0.965 -14.932 0.258 74.769
14625.667 0.258 74.734 0.965 -14.969 0.965 -14.969 0.258 74.734
14650.625 0.259 74.699 0.965 -15.005 0.965 -15.005 0.259 74.699
14675.583 0.26 74.663 0.964 -15.041 0.964 -15.041 0.26 74.663
14700.542 0.26 74.628 0.964 -15.077 0.964 -15.077 0.26 74.628
14725.5 0.261 74.593 0.964 -15.113 0.964 -15.113 0.261 74.593
14750.458 0.261 74.558 0.964 -15.148 0.964 -15.148 0.261 74.558
14775.417 0.262 74.523 0.964 -15.184 0.964 -15.184 0.262 74.523
14800.375 0.263 74.487 0.964 -15.22 0.964 -15.22 0.263 74.487
14825.333 0.263 74.452 0.963 -15.256 0.963 -15.256 0.263 74.452
14850.292 0.264 74.417 0.963 -15.292 0.963 -15.292 0.264 74.417
14875.25 0.264 74.382 0.963 -15.328 0.963 -15.328 0.264 74.382
14900.208 0.265 74.347 0.963 -15.363 0.963 -15.363 0.265 74.347
14925.167 0.266 74.312 0.963 -15.399 0.963 -15.399 0.266 74.312
14950.125 0.266 74.277 0.963 -15.435 0.963 -15.435 0.266 74.277
14975.083 0.267 74.242 0.962 -15.47 0.962 -15.47 0.267 74.242
15000.042 0.267 74.207 0.962 -15.506 0.962 -15.506 0.267 74.207
15025 0.268 74.172 0.962 -15.542 0.962 -15.542 0.268 74.172
15049.958 0.269 74.138 0.962 -15.577 0.962 -15.577 0.269 74.138
15074.917 0.269 74.103 0.962 -15.613 0.962 -15.613 0.269 74.103
15099.875 0.27 74.068 0.962 -15.648 0.962 -15.648 0.27 74.068
15124.833 0.27 74.033 0.961 -15.684 0.961 -15.684 0.27 74.033
15149.792 0.271 73.998 0.961 -15.719 0.961 -15.719 0.271 73.998
15174.75 0.272 73.964 0.961 -15.754 0.961 -15.754 0.272 73.964
15199.708 0.272 73.929 0.961 -15.79 0.961 -15.79 0.272 73.929
15224.667 0.273 73.894 0.961 -15.825 0.961 -15.825 0.273 73.894
15249.625 0.273 73.86 0.961 -15.86 0.961 -15.86 0.273 73.86
15274.583 0.274 73.825 0.96 -15.896 0.96 -15.896 0.274 73.825
15299.542 0.274 73.79 0.96 -15.931 0.96 -15.931 0.274 73.79
15324.5 0.275 73.756 0.96 -15.966 0.96 -15.966 0.275 73.756
15349.458 0.276 73.721 0.96 -16.001 0.96 -16.001 0.276 73.721
15374.417 0.276 73.687 0.96 -16.036 0.96 -16.036 0.276 73.687
15399.375 0.277 73.652 0.96 -16.072 0.96 -16.072 0.277 73.652
15424.333 0.277 73.618 0.959 -16.107 0.959 -16.107 0.277 73.618
15449.292 0.278 73.583 0.959 -16.142 0.959 -16.142 0.278 73.583
15474.25 0.279 73.549 0.959 -16.177 0.959 -16.177 0.279 73.549
15499.208 0.279 73.515 0.959 -16.212 0.959 -16.212 0.279 73.515
15524.167 0.28 73.48 0.959 -16.247 0.959 -16.247 0.28 73.48
15549.125 0.28 73.446 0.959 -16.282 0.959 -16.282 0.28 73.446
15574.083 0.281 73.412 0.958 -16.317 0.958 -16.317 0.281 73.412
15599.042 0.282 73.377 0.958 -16.352 0.958 -16.352 0.282 73.377
15624 0.282 73.343 0.958 -16.386 0.958 -16.386 0.282 73.343
15648.958 0.283 73.309 0.958 -16.421 0.958 -16.421 0.283 73.309
15673.917 0.283 73.275 0.958 -16.456 0.958 -16.456 0.283 73.275
15698.875 0.284 73.24 0.958 -16.491 0.958 -16.491 0.284 73.24
15723.833 0.284 73.206 0.957 -16.526 0.957 -16.526 0.284 73.206
15748.792 0.285 73.172 0.957 -16.56 0.957 -16.56 0.285 73.172
15773.75 0.286 73.138 0.957 -16.595 0.957 -16.595 0.286 73.138
15798.708 0.286 73.104 0.957 -16.63 0.957 -16.63 0.286 73.104
15823.667 0.287 73.07 0.957 -16.664 0.957 -16.664 0.287 73.07
15848.625 0.287 73.036 0.956 -16.699 0.956 -16.699 0.287 73.036
15873.583 0.288 73.002 0.956 -16.734 0.956 -16.734 0.288 73.002
15898.542 0.289 72.968 0.956 -16.768 0.956 -16.768 0.289 72.968
15923.5 0.289 72.934 0.956 -16.803 0.956 -16.803 0.289 72.934
15948.458 0.29 72.9 0.956 -16.837 0.956 -16.837 0.29 72.9
15973.417 0.29 72.866 0.956 -16.872 0.956 -16.872 0.29 72.866
15998.375 0.291 72.832 0.955 -16.906 0.955 -16.906 0.291 72.832
16023.333 0.291 72.798 0.955 -16.94 0.955 -16.94 0.291 72.798
16048.292 0.292 72.765 0.955 -16.975 0.955 -16.975 0.292 72.765
16073.25 0.293 72.731 0.955 -17.009 0.955 -17.009 0.293 72.731
16098.208 0.293 72.697 0.955 -17.044 0.955 -17.044 0.293 72.697
16123.167 0.294 72.663 0.955 -17.078 0.955 -17.078 0.294 72.663
16148.125 0.294 72.629 0.954 -17.112 0.954 -17.112 0.294 72.629
16173.083 0.295 72.596 0.954 -17.146 0.954 -17.146 0.295 72.596
16198.042 0.295 72.562 0.954 -17.181 0.954 -17.181 0.295 72.562
16223 0.296 72.528 0.954 -17.215 0.954 -17.215 0.296 72.528
16247.958 0.297 72.495 0.954 -17.249 0.954 -17.249 0.297 72.495
16272.917 0.297 72.461 0.954 -17.283 0.954 -17.283 0.297 72.461
16297.875 0.298 72.428 0.953 -17.317 0.953 -17.317 0.298 72.428
16322.833 0.298 72.394 0.953 -17.351 0.953 -17.351 0.298 72.394
16347.792 0.299 72.36 0.953 -17.385 0.953 -17.385 0.299 72.36
16372.75 0.299 72.327 0.953 -17.419 0.953 -17.419 0.299 72.327
16397.708 0.3 72.293 0.953 -17.454 0.953 -17.454 0.3 72.293
16422.667 0.301 72.26 0.952 -17.487 0.952 -17.487 0.301 72.26
16447.625 0.301 72.227 0.952 -17.521 0.952 -17.521 0.301 72.227
16472.583 0.302 72.193 0.952 -17.555 0.952 -17.555 0.302 72.193
16497.542 0.302 72.16 0.952 -17.589 0.952 -17.589 0.302 72.16
16522.5 0.303 72.126 0.952 -17.623 0.952 -17.623 0.303 72.126
16547.458 0.303 72.093 0.952 -17.657 0.952 -17.657 0.303 72.093
16572.417 0.304 72.06 0.951 -17.691 0.951 -17.691 0.304 72.06
16597.375 0.304 72.026 0.951 -17.725 0.951 -17.725 0.304 72.026
16622.333 0.305 71.993 0.951 -17.758 0.951 -17.758 0.305 71.993
16647.292 0.306 71.96 0.951 -17.792 0.951 -17.792 0.306 71.96
16672.25 0.306 71.927 0.951 -17.826 0.951 -17.826 0.306 71.927
16697.208 0.307 71.893 0.95 -17.86 0.95 -17.86 0.307 71.893
16722.167 0.307 71.86 0.95 -17.893 0.95 -17.893 0.307 71.86
16747.125 0.308 71.827 0.95 -17.927 0.95 -17.927 0.308 71.827
16772.083 0.308 71.794 0.95 -17.961 0.95 -17.961 0.308 71.794
16797.042 0.309 71.761 0.95 -17.994 0.95 -17.994 0.309 71.761
16822 0.309 71.728 0.95 -18.028 0.95 -18.028 0.309 71.728
16846.958 0.31 71.695 0.949 -18.061 0.949 -18.061 0.31 71.695
16871.917 0.311 71.662 0.949 -18.095 0.949 -18.095 0.311 71.662
16896.875 0.311 71.629 0.949 -18.128 0.949 -18.128 0.311 71.629
16921.833 0.312 71.596 0.949 -18.162 0.949 -18.162 0.312 71.596
16946.792 0.312 71.563 0.949 -18.195 0.949 -18.195 0.312 71.563
16971.75 0.313 71.53 0.948 -18.229 0.948 -18.229 0.313 71.53
16996.708 0.313 71.497 0.948 -18.262 0.948 -18.262 0.313 71.497
17021.667 0.314 71.464 0.948 -18.295 0.948 -18.295 0.314 71.464
17046.625 0.314 71.431 0.948 -18.329 0.948 -18.329 0.314 71.431
17071.583 0.315 71.398 0.948 -18.362 0.948 -18.362 0.315 71.398
17096.542 0.316 71.365 0.948 -18.395 0.948 -18.395 0.316 71.365
17121.5 0.316 71.333 0.947 -18.429 0.947 -18.429 0.316 71.333
17146.458 0.317 71.3 0.947 -18.462 0.947 -18.462 0.317 71.3
17171.417 0.317 71.267 0.947 -18.495 0.947 -18.495 0.317 71.267
17196.375 0.318 71.234 0.947 -18.528 0.947 -18.528 0.318 71.234
17221.333 0.318 71.202 0.947 -18.562 0.947 -18.562 0.318 71.202
17246.292 0.319 71.169 0.946 -18.595 0.946 -18.595 0.319 71.169
17271.25 0.319 71.136 0.946 -18.628 0.946 -18.628 0.319 71.136
17296.208 0.32 71.104 0.946 -18.661 0.946 -18.661 0.32 71.104
17321.167 0.321 71.071 0.946 -18.694 0.946 -18.694 0.321 71.071
17346.125 0.321 71.038 0.946 -18.727 0.946 -18.727 0.321 71.038
17371.083 0.322 71.006 0.946 -18.76 0.946 -18.76 0.322 71.006
17396.042 0.322 70.973 0.945 -18.793 0.945 -18.793 0.322 70.973
17421 0.323 70.941 0.945 -18.826 0.945 -18.826 0.323 70.941
17445.958 0.323 70.908 0.945 -18.859 0.945 -18.859 0.323 70.908
17470.917 0.324 70.876 0.945 -18.892 0.945 -18.892 0.324 70.876
17495.875 0.324 70.843 0.945 -18.925 0.945 -18.925 0.324 70.843
17520.833 0.325 70.811 0.944 -18.958 0.944 -18.958 0.325 70.811
17545.792 0.325 70.778 0.944 -18.991 0.944 -18.991 0.325 70.778
17570.75 0.326 70.746 0.944 -19.023 0.944 -19.023 0.326 70.746
17595.708 0.326 70.714 0.944 -19.056 0.944 -19.056 0.326 70.714
17620.667 0.327 70.681 0.944 -19.089 0.944 -19.089 0.327 70.681
17645.625 0.328 70.649 0.944 -19.122 0.944 -19.122 0.328 70.649
17670.583 0.328 70.617 0.943 -19.154 0.943 -19.154 0.328 70.617
17695.542 0.329 70.584 0.943 -19.187 0.943 -19.187 0.329 70.584
17720.5 0.329 70.552 0.943 -19.22 0.943 -19.22 0.329 70.552
17745.458 0.33 70.52 0.943 -19.253 0.943 -19.253 0.33 70.52
17770.417 0.33 70.487 0.943 -19.285 0.943 -19.285 0.33 70.487
17795.375 0.331 70.455 0.942 -19.318 0.942 -19.318 0.331 70.455
17820.333 0.331 70.423 0.942 -19.35 0.942 -19.35 0.331 70.423
17845.292 0.332 70.391 0.942 -19.383 0.942 -19.383 0.332 70.391
17870.25 0.332 70.359 0.942 -19.415 0.942 -19.415 0.332 70.359
17895.208 0.333 70.327 0.942 -19.448 0.942 -19.448 0.333 70.327
17920.167 0.333 70.295 0.941 -19.48 0.941 -19.48 0.333 70.295
17945.125 0.334 70.263 0.941 -19.513 0.941 -19.513 0.334 70.263
17970.083 0.335 70.23 0.941 -19.545 0.941 -19.545 0.335 70.23
17995.042 0.335 70.198 0.941 -19.578 0.941 -19.578 0.335 70.198
18020 0.336 70.166 0.941 -19.61 0.941 -19.61 0.336 70.166
18044.958 0.336 70.134 0.94 -19.643 0.94 -19.643 0.336 70.134
18069.917 0.337 70.102 0.94 -19.675 0.94 -19.675 0.337 70.102
18094.875 0.337 70.071 0.94 -19.707 0.94 -19.707 0.337 70.071
18119.833 0.338 70.039 0.94 -19.74 0.94 -19.74 0.338 70.039
18144.792 0.338 70.007 0.94 -19.772 0.94 -19.772 0.338 70.007
18169.75 0.339 69.975 0.94 -19.804 0.94 -19.804 0.339 69.975
18194.708 0.339 69.943 0.939 -19.836 0.939 -19.836 0.339 69.943
18219.667 0.34 69.911 0.939 -19.869 0.939 -19.869 0.34 69.911
18244.625 0.34 69.879 0.939 -19.901 0.939 -19.901 0.34 69.879
18269.583 0.341 69.848 0.939 -19.933 0.939 -19.933 0.341 69.848
18294.542 0.341 69.816 0.939 -19.965 0.939 -19.965 0.341 69.816
18319.5 0.342 69.784 0.938 -19.997 0.938 -19.997 0.342 69.784
18344.458 0.343 69.752 0.938 -20.029 0.938 -20.029 0.343 69.752
18369.417 0.343 69.721 0.938 -20.062 0.938 -20.062 0.343 69.721
18394.375 0.344 69.689 0.938 -20.094 0.938 -20.094 0.344 69.689
18419.333 0.344 69.657 0.938 -20.126 0.938 -20.126 0.344 69.657
18444.292 0.345 69.626 0.937 -20.158 0.937 -20.158 0.345 69.626
18469.25 0.345 69.594 0.937 -20.19 0.937 -20.19 0.345 69.594
18494.208 0.346 69.562 0.937 -20.222 0.937 -20.222 0.346 69.562
18519.167 0.346 69.531 0.937 -20.254 0.937 -20.254 0.346 69.531
18544.125 0.347 69.499 0.937 -20.286 0.937 -20.286 0.347 69.499
18569.083 0.347 69.468 0.936 -20.317 0.936 -20.317 0.347 69.468
18594.042 0.348 69.436 0.936 -20.349 0.936 -20.349 0.348 69.436
18619 0.348 69.405 0.936 -20.381 0.936 -20.381 0.348 69.405
18643.958 0.349 69.373 0.936 -20.413 0.936 -20.413 0.349 69.373
18668.917 0.349 69.342 0.936 -20.445 0.936 -20.445 0.349 69.342
18693.875 0.35 69.31 0.936 -20.477 0.936 -20.477 0.35 69.31
18718.833 0.35 69.279 0.935 -20.508 0.935 -20.508 0.35 69.279
18743.792 0.351 69.248 0.935 -20.54 0.935 -20.54 0.351 69.248
18768.75 0.351 69.216 0.935 -20.572 0.935 -20.572 0.351 69.216
18793.708 0.352 69.185 0.935 -20.604 0.935 -20.604 0.352 69.185
18818.667 0.352 69.153 0.935 -20.635 0.935 -20.635 0.352 69.153
18843.625 0.353 69.122 0.934 -20.667 0.934 -20.667 0.353 69.122
18868.583 0.353 69.091 0.934 -20.699 0.934 -20.699 0.353 69.091
18893.542 0.354 69.06 0.934 -20.73 0.934 -20.73 0.354 69.06
18918.5 0.354 69.028 0.934 -20.762 0.934 -20.762 0.354 69.028
18943.458 0.355 68.997 0.934 -20.793 0.934 -20.793 0.355 68.997
18968.417 0.356 68.966 0.933 -20.825 0.933 -20.825 0.356 68.966
18993.375 0.356 68.935 0.933 -20.856 0.933 -20.856 0.356 68.935
19018.333 0.357 68.904 0.933 -20.888 0.933 -20.888 0.357 68.904
19043.292 0.357 68.872 0.933 -20.919 0.933 -20.919 0.357 68.872
19068.25 0.358 68.841 0.933 -20.951 0.933 -20.951 0.358 68.841
19093.208 0.358 68.81 0.932 -20.982 0.932 -20.982 0.358 68.81
19118.167 0.359 68.779 0.932 -21.014 0.932 -21.014 0.359 68.779
19143.125 0.359 68.748 0.932 -21.045 0.932 -21.045 0.359 68.748
19168.083 0.36 68.717 0.932 -21.077 0.932 -21.077 0.36 68.717
19193.042 0.36 68.686 0.932 -21.108 0.932 -21.108 0.36 68.686
19218 0.361 68.655 0.931 -21.139 0.931 -21.139 0.361 68.655
19242.958 0.361 68.624 0.931 -21.171 0.931 -21.171 0.361 68.624
19267.917 0.362 68.593 0.931 -21.202 0.931 -21.202 0.362 68.593
19292.875 0.362 68.562 0.931 -21.233 0.931 -21.233 0.362 68.562
19317.833 0.363 68.531 0.931 -21.264 0.931 -21.264 0.363 68.531
19342.792 0.363 68.5 0.93 -21.296 0.93 -21.296 0.363 68.5
19367.75 0.364 68.469 0.93 -21.327 0.93 -21.327 0.364 68.469
19392.708 0.364 68.439 0.93 -21.358 0.93 -21.358 0.364 68.439
19417.667 0.365 68.408 0.93 -21.389 0.93 -21.389 0.365 68.408
19442.625 0.365 68.377 0.93 -21.42 0.93 -21.42 0.365 68.377
19467.583 0.366 68.346 0.929 -21.451 0.929 -21.451 0.366 68.346
19492.542 0.366 68.315 0.929 -21.483 0.929 -21.483 0.366 68.315
19517.5 0.367 68.284 0.929 -21.514 0.929 -21.514 0.367 68.284
19542.458 0.367 68.254 0.929 -21.545 0.929 -21.545 0.367 68.254
19567.417 0.368 68.223 0.929 -21.576 0.929 -21.576 0.368 68.223
19592.375 0.368 68.192 0.928 -21.607 0.928 -21.607 0.368 68.192
19617.333 0.369 68.162 0.928 -21.638 0.928 -21.638 0.369 68.162
19642.292 0.369 68.131 0.928 -21.669 0.928 -21.669 0.369 68.131
19667.25 0.37 68.1 0.928 -21.7 0.928 -21.7 0.37 68.1
19692.208 0.37 68.07 0.928 -21.731 0.928 -21.731 0.37 68.07
19717.167 0.371 68.039 0.927 -21.762 0.927 -21.762 0.371 68.039
19742.125 0.371 68.009 0.927 -21.792 0.927 -21.792 0.371 68.009
19767.083 0.372 67.978 0.927 -21.823 0.927 -21.823 0.372 67.978
19792.042 0.372 67.947 0.927 -21.854 0.927 -21.854 0.372 67.947
19817 0.373 67.917 0.927 -21.885 0.927 -21.885 0.373 67.917
19841.958 0.373 67.886 0.926 -21.916 0.926 -21.916 0.373 67.886
19866.917 0.374 67.856 0.926 -21.947 0.926 -21.947 0.374 67.856
19891.875 0.374 67.825 0.926 -21.977 0.926 -21.977 0.374 67.825
19916.833 0.375 67.795 0.926 -22.008 0.926 -22.008 0.375 67.795
19941.792 0.375 67.765 0.926 -22.039 0.926 -22.039 0.375 67.765
19966.75 0.376 67.734 0.925 -22.07 0.925 -22.07 0.376 67.734
19991.708 0.376 67.704 0.925 -22.1 0.925 -22.1 0.376 67.704
20016.667 0.377 67.673 0.925 -22.131 0.925 -22.131 0.377 67.673
20041.625 0.377 67.643 0.925 -22.162 0.925 -22.162 0.377 67.643
20066.583 0.378 67.613 0.925 -22.192 0.925 -22.192 0.378 67.613
20091.542 0.378 67.582 0.924 -22.223 0.924 -22.223 0.378 67.582
20116.5 0.379 67.552 0.924 -22.253 0.924 -22.253 0.379 67.552
20141.458 0.379 67.522 0.924 -22.284 0.924 -22.284 0.379 67.522
20166.417 0.38 67.492 0.924 -22.315 0.924 -22.315 0.38 67.492
20191.375 0.38 67.461 0.924 -22.345 0.924 -22.345 0.38 67.461
20216.333 0.381 67.431 0.923 -22.376 0.923 -22.376 0.381 67.431
20241.292 0.381 67.401 0.923 -22.406 0.923 -22.406 0.381 67.401
20266.25 0.382 67.371 0.923 -22.436 0.923 -22.436 0.382 67.371
20291.208 0.382 67.341 0.923 -22.467 0.923 -22.467 0.382 67.341
20316.167 0.383 67.311 0.923 -22.497 0.923 -22.497 0.383 67.311
20341.125 0.383 67.28 0.922 -22.528 0.922 -22.528 0.383 67.28
20366.083 0.384 67.25 0.922 -22.558 0.922 -22.558 0.384 67.25
20391.042 0.384 67.22 0.922 -22.589 0.922 -22.589 0.384 67.22
20416 0.385 67.19 0.922 -22.619 0.922 -22.619 0.385 67.19
20440.958 0.385 67.16 0.922 -22.649 0.922 -22.649 0.385 67.16
20465.917 0.386 67.13 0.921 -22.679 0.921 -22.679 0.386 67.13
20490.875 0.386 67.1 0.921 -22.71 0.921 -22.71 0.386 67.1
20515.833 0.387 67.07 0.921 -22.74 0.921 -22.74 0.387 67.07
20540.792 0.387 67.04 0.921 -22.77 0.921 -22.77 0.387 67.04
20565.75 0.388 67.01 0.921 -22.8 0.921 -22.8 0.388 67.01
20590.708 0.388 66.98 0.92 -22.831 0.92 -22.831 0.388 66.98
20615.667 0.388 66.95 0.92 -22.861 0.92 -22.861 0.388 66.95
20640.625 0.389 66.921 0.92 -22.891 0.92 -22.891 0.389 66.921
20665.583 0.389 66.891 0.92 -22.921 0.92 -22.921 0.389 66.891
20690.542 0.39 66.861 0.92 -22.951 0.92 -22.951 0.39 66.861
20715.5 0.39 66.831 0.919 -22.981 0.919 -22.981 0.39 66.831
20740.458 0.391 66.801 0.919 -23.011 0.919 -23.011 0.391 66.801
20765.417 0.391 66.771 0.919 -23.042 0.919 -23.042 0.391 66.771
20790.375 0.392 66.742 0.919 -23.072 0.919 -23.072 0.392 66.742
20815.333 0.392 66.712 0.919 -23.102 0.919 -23.102 0.392 66.712
20840.292 0.393 66.682 0.918 -23.132 0.918 -23.132 0.393 66.682
20865.25 0.393 66.652 0.918 -23.162 0.918 -23.162 0.393 66.652
20890.208 0.394 66.623 0.918 -23.192 0.918 -23.192 0.394 66.623
20915.167 0.394 66.593 0.918 -23.222 0.918 -23.222 0.394 66.593
20940.125 0.395 66.563 0.918 -23.251 0.918 -23.251 0.395 66.563
20965.083 0.395 66.534 0.917 -23.281 0.917 -23.281 0.395 66.534
20990.042 0.396 66.504 0.917 -23.311 0.917 -23.311 0.396 66.504
21015 0.396 66.475 0.917 -23.341 0.917 -23.341 0.396 66.475
21039.958 0.397 66.445 0.917 -23.371 0.917 -23.371 0.397 66.445
21064.917 0.397 66.415 0.916 -23.401 0.916 -23.401 0.397 66.415
21089.875 0.398 66.386 0.916 -23.431 0.916 -23.431 0.398 66.386
21114.833 0.398 66.356 0.916 -23.46 0.916 -23.46 0.398 66.356
21139.792 0.399 66.327 0.916 -23.49 0.916 -23.49 0.399 66.327
21164.75 0.399 66.297 0.916 -23.52 0.916 -23.52 0.399 66.297
21189.708 0.4 66.268 0.915 -23.55 0.915 -23.55 0.4 66.268
21214.667 0.4 66.238 0.915 -23.579 0.915 -23.579 0.4 66.238
21239.625 0.4 66.209 0.915 -23.609 0.915 -23.609 0.4 66.209
21264.583 0.401 66.179 0.915 -23.639 0.915 -23.639 0.401 66.179
21289.542 0.401 66.15 0.915 -23.668 0.915 -23.668 0.401 66.15
21314.5 0.402 66.121 0.914 -23.698 0.914 -23.698 0.402 66.121
21339.458 0.402 66.091 0.914 -23.728 0.914 -23.728 0.402 66.091
21364.417 0.403 66.062 0.914 -23.757 0.914 -23.757 0.403 66.062
21389.375 0.403 66.033 0.914 -23.787 0.914 -23.787 0.403 66.033
21414.333 0.404 66.003 0.914 -23.816 0.914 -23.816 0.404 66.003
21439.292 0.404 65.974 0.913 -23.846 0.913 -23.846 0.404 65.974
21464.25 0.405 65.945 0.913 -23.875 0.913 -23.875 0.405 65.945
21489.208 0.405 65.916 0.913 -23.905 0.913 -23.905 0.405 65.916
21514.167 0.406 65.886 0.913 -23.934 0.913 -23.934 0.406 65.886
21539.125 0.406 65.857 0.913 -23.964 0.913 -23.964 0.406 65.857
21564.083 0.407 65.828 0.912 -23.993 0.912 -23.993 0.407 65.828
21589.042 0.407 65.799 0.912 -24.023 0.912 -24.023 0.407 65.799
21614 0.408 65.77 0.912 -24.052 0.912 -24.052 0.408 65.77
21638.958 0.408 65.74 0.912 -24.082 0.912 -24.082 0.408 65.74
21663.917 0.409 65.711 0.911 -24.111 0.911 -24.111 0.409 65.711
21688.875 0.409 65.682 0.911 -24.14 0.911 -24.14 0.409 65.682
21713.833 0.409 65.653 0.911 -24.17 0.911 -24.17 0.409 65.653
21738.792 0.41 65.624 0.911 -24.199 0.911 -24.199 0.41 65.624
21763.75 0.41 65.595 0.911 -24.228 0.911 -24.228 0.41 65.595
21788.708 0.411 65.566 0.91 -24.257 0.91 -24.257 0.411 65.566
21813.667 0.411 65.537 0.91 -24.287 0.91 -24.287 0.411 65.537
21838.625 0.412 65.508 0.91 -24.316 0.91 -24.316 0.412 65.508
21863.583 0.412 65.479 0.91 -24.345 0.91 -24.345 0.412 65.479
21888.542 0.413 65.45 0.91 -24.374 0.91 -24.374 0.413 65.45
21913.5 0.413 65.421 0.909 -24.404 0.909 -24.404 0.413 65.421
21938.458 0.414 65.392 0.909 -24.433 0.909 -24.433 0.414 65.392
21963.417 0.414 65.363 0.909 -24.462 0.909 -24.462 0.414 65.363
21988.375 0.415 65.334 0.909 -24.491 0.909 -24.491 0.415 65.334
22013.333 0.415 65.305 0.909 -24.52 0.909 -24.52 0.415 65.305
22038.292 0.415 65.277 0.908 -24.549 0.908 -24.549 0.415 65.277
22063.25 0.416 65.248 0.908 -24.578 0.908 -24.578 0.416 65.248
22088.208 0.416 65.219 0.908 -24.607 0.908 -24.607 0.416 65.219
22113.167 0.417 65.19 0.908 -24.636 0.908 -24.636 0.417 65.19
22138.125 0.417 65.161 0.907 -24.665 0.907 -24.665 0.417 65.161
22163.083 0.418 65.133 0.907 -24.694 0.907 -24.694 0.418 65.133
22188.042 0.418 65.104 0.907 -24.723 0.907 -24.723 0.418 65.104
22213 0.419 65.075 0.907 -24.752 0.907 -24.752 0.419 65.075
22237.958 0.419 65.046 0.907 -24.781 0.907 -24.781 0.419 65.046
22262.917 0.42 65.018 0.906 -24.81 0.906 -24.81 0.42 65.018
22287.875 0.42 64.989 0.906 -24.839 0.906 -24.839 0.42 64.989
22312.833 0.421 64.96 0.906 -24.868 0.906 -24.868 0.421 64.96
22337.792 0.421 64.932 0.906 -24.897 0.906 -24.897 0.421 64.932
22362.75 0.421 64.903 0.906 -24.926 0.906 -24.926 0.421 64.903
22387.708 0.422 64.875 0.905 -24.954 0.905 -24.954 0.422 64.875
22412.667 0.422 64.846 0.905 -24.983 0.905 -24.983 0.422 64.846
22437.625 0.423 64.817 0.905 -25.012 0.905 -25.012 0.423 64.817
22462.583 0.423 64.789 0.905 -25.041 0.905 -25.041 0.423 64.789
22487.542 0.424 64.76 0.905 -25.07 0.905 -25.07 0.424 64.76
22512.5 0.424 64.732 0.904 -25.098 0.904 -25.098 0.424 64.732
22537.458 0.425 64.703 0.904 -25.127 0.904 -25.127 0.425 64.703
22562.417 0.425 64.675 0.904 -25.156 0.904 -25.156 0.425 64.675
22587.375 0.426 64.646 0.904 -25.184 0.904 -25.184 0.426 64.646
22612.333 0.426 64.618 0.903 -25.213 0.903 -25.213 0.426 64.618
22637.292 0.426 64.59 0.903 -25.242 0.903 -25.242 0.426 64.59
22662.25 0.427 64.561 0.903 -25.27 0.903 -25.27 0.427 64.561
22687.208 0.427 64.533 0.903 -25.299 0.903 -25.299 0.427 64.533
22712.167 0.428 64.504 0.903 -25.328 0.903 -25.328 0.428 64.504
22737.125 0.428 64.476 0.902 -25.356 0.902 -25.356 0.428 64.476
22762.083 0.429 64.448 0.902 -25.385 0.902 -25.385 0.429 64.448
22787.042 0.429 64.419 0.902 -25.413 0.902 -25.413 0.429 64.419
22812 0.43 64.391 0.902 -25.442 0.902 -25.442 0.43 64.391
22836.958 0.43 64.363 0.902 -25.47 0.902 -25.47 0.43 64.363
22861.917 0.43 64.335 0.901 -25.499 0.901 -25.499 0.43 64.335
22886.875 0.431 64.306 0.901 -25.527 0.901 -25.527 0.431 64.306
22911.833 0.431 64.278 0.901 -25.556 0.901 -25.556 0.431 64.278
22936.792 0.432 64.25 0.901 -25.584 0.901 -25.584 0.432 64.25
22961.75 0.432 64.222 0.9 -25.612 0.9 -25.612 0.432 64.222
22986.708 0.433 64.193 0.9 -25.641 0.9 -25.641 0.433 64.193
23011.667 0.433 64.165 0.9 -25.669 0.9 -25.669 0.433 64.165
23036.625 0.434 64.137 0.9 -25.698 0.9 -25.698 0.434 64.137
23061.583 0.434 64.109 0.9 -25.726 0.9 -25.726 0.434 64.109
23086.542 0.435 64.081 0.899 -25.754 0.899 -25.754 0.435 64.081
23111.5 0.435 64.053 0.899 -25.782 0.899 -25.782 0.435 64.053
23136.458 0.435 64.025 0.899 -25.811 0.899 -25.811 0.435 64.025
23161.417 0.436 63.997 0.899 -25.839 0.899 -25.839 0.436 63.997
23186.375 0.436 63.969 0.899 -25.867 0.899 -25.867 0.436 63.969
23211.333 0.437 63.941 0.898 -25.896 0.898 -25.896 0.437 63.941
23236.292 0.437 63.913 0.898 -25.924 0.898 -25.924 0.437 63.913
23261.25 0.438 63.885 0.898 -25.952 0.898 -25.952 0.438 63.885
23286.208 0.438 63.857 0.898 -25.98 0.898 -25.98 0.438 63.857
23311.167 0.439 63.829 0.897 -26.008 0.897 -26.008 0.439 63.829
23336.125 0.439 63.801 0.897 -26.036 0.897 -26.036 0.439 63.801
23361.083 0.439 63.773 0.897 -26.065 0.897 -26.065 0.439 63.773
23386.042 0.44 63.745 0.897 -26.093 0.897 -26.093 0.44 63.745
23411 0.44 63.717 0.897 -26.121 0.897 -26.121 0.44 63.717
23435.958 0.441 63.689 0.896 -26.149 0.896 -26.149 0.441 63.689
23460.917 0.441 63.661 0.896 -26.177 0.896 -26.177 0.441 63.661
23485.875 0.442 63.633 0.896 -26.205 0.896 -26.205 0.442 63.633
23510.833 0.442 63.606 0.896 -26.233 0.896 -26.233 0.442 63.606
23535.792 0.442 63.578 0.896 -26.261 0.896 -26.261 0.442 63.578
23560.75 0.443 63.55 0.895 -26.289 0.895 -26.289 0.443 63.55
23585.708 0.443 63.522 0.895 -26.317 0.895 -26.317 0.443 63.522
23610.667 0.444 63.495 0.895 -26.345 0.895 -26.345 0.444 63.495
23635.625 0.444 63.467 0.895 -26.373 0.895 -26.373 0.444 63.467
23660.583 0.445 63.439 0.894 -26.401 0.894 -26.401 0.445 63.439
23685.542 0.445 63.411 0.894 -26.429 0.894 -26.429 0.445 63.411
23710.5 0.446 63.384 0.894 -26.456 0.894 -26.456 0.446 63.384
23735.458 0.446 63.356 0.894 -26.484 0.894 -26.484 0.446 63.356
23760.417 0.446 63.328 0.894 -26.512 0.894 -26.512 0.446 63.328
23785.375 0.447 63.301 0.893 -26.54 0.893 -26.54 0.447 63.301
23810.333 0.447 63.273 0.893 -26.568 0.893 -26.568 0.447 63.273
23835.292 0.448 63.246 0.893 -26.596 0.893 -26.596 0.448 63.246
23860.25 0.448 63.218 0.893 -26.623 0.893 -26.623 0.448 63.218
23885.208 0.449 63.19 0.893 -26.651 0.893 -26.651 0.449 63.19
23910.167 0.449 63.163 0.892 -26.679 0.892 -26.679 0.449 63.163
23935.125 0.449 63.135 0.892 -26.707 0.892 -26.707 0.449 63.135
23960.083 0.45 63.108 0.892 -26.734 0.892 -26.734 0.45 63.108
23985.042 0.45 63.08 0.892 -26.762 0.892 -26.762 0.45 63.08
24010 0.451 63.053 0.891 -26.79 0.891 -26.79 0.451 63.053
24034.958 0.451 63.025 0.891 -26.817 0.891 -26.817 0.451 63.025
24059.917 0.452 62.998 0.891 -26.845 0.891 -26.845 0.452 62.998
24084.875 0.452 62.971 0.891 -26.872 0.891 -26.872 0.452 62.971
24109.833 0.452 62.943 0.891 -26.9 0.891 -26.9 0.452 62.943
24134.792 0.453 62.916 0.89 -26.928 0.89 -26.928 0.453 62.916
24159.75 0.453 62.888 0.89 -26.955 0.89 -26.955 0.453 62.888
24184.708 0.454 62.861 0.89 -26.983 0.89 -26.983 0.454 62.861
24209.667 0.454 62.834 0.89 -27.01 0.89 -27.01 0.454 62.834
24234.625 0.455 62.806 0.889 -27.038 0.889 -27.038 0.455 62.806
24259.583 0.455 62.779 0.889 -27.065 0.889 -27.065 0.455 62.779
24284.542 0.455 62.752 0.889 -27.093 0.889 -27.093 0.455 62.752
24309.5 0.456 62.724 0.889 -27.12 0.889 -27.12 0.456 62.724
24334.458 0.456 62.697 0.889 -27.148 0.889 -27.148 0.456 62.697
24359.417 0.457 62.67 0.888 -27.175 0.888 -27.175 0.457 62.67
24384.375 0.457 62.643 0.888 -27.202 0.888 -27.202 0.457 62.643
24409.333 0.458 62.615 0.888 -27.23 0.888 -27.23 0.458 62.615
24434.292 0.458 62.588 0.888 -27.257 0.888 -27.257 0.458 62.588
24459.25 0.458 62.561 0.888 -27.285 0.888 -27.285 0.458 62.561
24484.208 0.459 62.534 0.887 -27.312 0.887 -27.312 0.459 62.534
24509.167 0.459 62.507 0.887 -27.339 0.887 -27.339 0.459 62.507
24534.125 0.46 62.48 0.887 -27.367 0.887 -27.367 0.46 62.48
24559.083 0.46 62.453 0.887 -27.394 0.887 -27.394 0.46 62.453
24584.042 0.461 62.425 0.886 -27.421 0.886 -27.421 0.461 62.425
24609 0.461 62.398 0.886 -27.448 0.886 -27.448 0.461 62.398
24633.958 0.461 62.371 0.886 -27.476 0.886 -27.476 0.461 62.371
24658.917 0.462 62.344 0.886 -27.503 0.886 -27.503 0.462 62.344
24683.875 0.462 62.317 0.886 -27.53 0.886 -27.53 0.462 62.317
24708.833 0.463 62.29 0.885 -27.557 0.885 -27.557 0.463 62.29
24733.792 0.463 62.263 0.885 -27.584 0.885 -27.584 0.463 62.263
24758.75 0.463 62.236 0.885 -27.612 0.885 -27.612 0.463 62.236
24783.708 0.464 62.209 0.885 -27.639 0.885 -27.639 0.464 62.209
24808.667 0.464 62.182 0.884 -27.666 0.884 -27.666 0.464 62.182
24833.625 0.465 62.155 0.884 -27.693 0.884 -27.693 0.465 62.155
24858.583 0.465 62.129 0.884 -27.72 0.884 -27.72 0.465 62.129
24883.542 0.466 62.102 0.884 -27.747 0.884 -27.747 0.466 62.102
24908.5 0.466 62.075 0.884 -27.774 0.884 -27.774 0.466 62.075
24933.458 0.466 62.048 0.883 -27.801 0.883 -27.801 0.466 62.048
24958.417 0.467 62.021 0.883 -27.828 0.883 -27.828 0.467 62.021
24983.375 0.467 61.994 0.883 -27.855 0.883 -27.855 0.467 61.994
25008.333 0.468 61.967 0.883 -27.882 0.883 -27.882 0.468 61.967
25033.292 0.468 61.941 0.882 -27.909 0.882 -27.909 0.468 61.941
25058.25 0.468 61.914 0.882 -27.936 0.882 -27.936 0.468 61.914
25083.208 0.469 61.887 0.882 -27.963 0.882 -27.963 0.469 61.887
25108.167 0.469 61.86 0.882 -27.99 0.882 -27.99 0.469 61.86
25133.125 0.47 61.834 0.882 -28.017 0.882 -28.017 0.47 61.834
25158.083 0.47 61.807 0.881 -28.044 0.881 -28.044 0.47 61.807
25183.042 0.471 61.78 0.881 -28.071 0.881 -28.071 0.471 61.78
25208 0.471 61.753 0.881 -28.097 0.881 -28.097 0.471 61.753
25232.958 0.471 61.727 0.881 -28.124 0.881 -28.124 0.471 61.727
25257.917 0.472 61.7 0.88 -28.151 0.88 -28.151 0.472 61.7
25282.875 0.472 61.674 0.88 -28.178 0.88 -28.178 0.472 61.674
25307.833 0.473 61.647 0.88 -28.205 0.88 -28.205 0.473 61.647
25332.792 0.473 61.62 0.88 -28.231 0.88 -28.231 0.473 61.62
25357.75 0.473 61.594 0.88 -28.258 0.88 -28.258 0.473 61.594
25382.708 0.474 61.567 0.879 -28.285 0.879 -28.285 0.474 61.567
25407.667 0.474 61.541 0.879 -28.312 0.879 -28.312 0.474 61.541
25432.625 0.475 61.514 0.879 -28.338 0.879 -28.338 0.475 61.514
25457.583 0.475 61.488 0.879 -28.365 0.879 -28.365 0.475 61.488
25482.542 0.475 61.461 0.878 -28.392 0.878 -28.392 0.475 61.461
25507.5 0.476 61.435 0.878 -28.418 0.878 -28.418 0.476 61.435
25532.458 0.476 61.408 0.878 -28.445 0.878 -28.445 0.476 61.408
25557.417 0.477 61.382 0.878 -28.472 0.878 -28.472 0.477 61.382
25582.375 0.477 61.355 0.878 -28.498 0.878 -28.498 0.477 61.355
25607.333 0.478 61.329 0.877 -28.525 0.877 -28.525 0.478 61.329
25632.292 0.478 61.302 0.877 -28.551 0.877 -28.551 0.478 61.302
25657.25 0.478 61.276 0.877 -28.578 0.877 -28.578 0.478 61.276
25682.208 0.479 61.25 0.877 -28.605 0.877 -28.605 0.479 61.25
25707.167 0.479 61.223 0.877 -28.631 0.877 -28.631 0.479 61.223
25732.125 0.48 61.197 0.876 -28.658 0.876 -28.658 0.48 61.197
25757.083 0.48 61.171 0.876 -28.684 0.876 -28.684 0.48 61.171
25782.042 0.48 61.144 0.876 -28.71 0.876 -28.71 0.48 61.144
25807 0.481 61.118 0.876 -28.737 0.876 -28.737 0.481 61.118
25831.958 0.481 61.092 0.875 -28.763 0.875 -28.763 0.481 61.092
25856.917 0.482 61.065 0.875 -28.79 0.875 -28.79 0.482 61.065
25881.875 0.482 61.039 0.875 -28.816 0.875 -28.816 0.482 61.039
25906.833 0.482 61.013 0.875 -28.843 0.875 -28.843 0.482 61.013
25931.792 0.483 60.987 0.875 -28.869 0.875 -28.869 0.483 60.987
25956.75 0.483 60.961 0.874 -28.895 0.874 -28.895 0.483 60.961
25981.708 0.484 60.934 0.874 -28.922 0.874 -28.922 0.484 60.934
26006.667 0.484 60.908 0.874 -28.948 0.874 -28.948 0.484 60.908
26031.625 0.484 60.882 0.874 -28.974 0.874 -28.974 0.484 60.882
26056.583 0.485 60.856 0.873 -29.001 0.873 -29.001 0.485 60.856
26081.542 0.485 60.83 0.873 -29.027 0.873 -29.027 0.485 60.83
26106.5 0.486 60.804 0.873 -29.053 0.873 -29.053 0.486 60.804
26131.458 0.486 60.778 0.873 -29.079 0.873 -29.079 0.486 60.778
26156.417 0.486 60.751 0.873 -29.106 0.873 -29.106 0.486 60.751
26181.375 0.487 60.725 0.872 -29.132 0.872 -29.132 0.487 60.725
26206.333 0.487 60.699 0.872 -29.158 0.872 -29.158 0.487 60.699
26231.292 0.488 60.673 0.872 -29.184 0.872 -29.184 0.488 60.673
26256.25 0.488 60.647 0.872 -29.21 0.872 -29.21 0.488 60.647
26281.208 0.488 60.621 0.871 -29.236 0.871 -29.236 0.488 60.621
26306.167 0.489 60.595 0.871 -29.263 0.871 -29.263 0.489 60.595
26331.125 0.489 60.569 0.871 -29.289 0.871 -29.289 0.489 60.569
26356.083 0.49 60.543 0.871 -29.315 0.871 -29.315 0.49 60.543
26381.042 0.49 60.518 0.871 -29.341 0.871 -29.341 0.49 60.518
26406 0.49 60.492 0.87 -29.367 0.87 -29.367 0.49 60.492
26430.958 0.491 60.466 0.87 -29.393 0.87 -29.393 0.491 60.466
26455.917 0.491 60.44 0.87 -29.419 0.87 -29.419 0.491 60.44
26480.875 0.492 60.414 0.87 -29.445 0.87 -29.445 0.492 60.414
26505.833 0.492 60.388 0.869 -29.471 0.869 -29.471 0.492 60.388
26530.792 0.492 60.362 0.869 -29.497 0.869 -29.497 0.492 60.362
26555.75 0.493 60.336 0.869 -29.523 0.869 -29.523 0.493 60.336
26580.708 0.493 60.311 0.869 -29.549 0.869 -29.549 0.493 60.311
26605.667 0.494 60.285 0.869 -29.575 0.869 -29.575 0.494 60.285
26630.625 0.494 60.259 0.868 -29.601 0.868 -29.601 0.494 60.259
26655.583 0.494 60.233 0.868 -29.627 0.868 -29.627 0.494 60.233
26680.542 0.495 60.208 0.868 -29.653 0.868 -29.653 0.495 60.208
26705.5 0.495 60.182 0.868 -29.679 0.868 -29.679 0.495 60.182
26730.458 0.496 60.156 0.867 -29.704 0.867 -29.704 0.496 60.156
26755.417 0.496 60.13 0.867 -29.73 0.867 -29.73 0.496 60.13
26780.375 0.496 60.105 0.867 -29.756 0.867 -29.756 0.496 60.105
26805.333 0.497 60.079 0.867 -29.782 0.867 -29.782 0.497 60.079
26830.292 0.497 60.053 0.866 -29.808 0.866 -29.808 0.497 60.053
26855.25 0.497 60.028 0.866 -29.833 0.866 -29.833 0.497 60.028
26880.208 0.498 60.002 0.866 -29.859 0.866 -29.859 0.498 60.002
26905.167 0.498 59.977 0.866 -29.885 0.866 -29.885 0.498 59.977
26930.125 0.499 59.951 0.866 -29.911 0.866 -29.911 0.499 59.951
26955.083 0.499 59.925 0.865 -29.936 0.865 -29.936 0.499 59.925
26980.042 0.499 59.9 0.865 -29.962 0.865 -29.962 0.499 59.9
27005 0.5 59.874 0.865 -29.988 0.865 -29.988 0.5 59.874
27029.958 0.5 59.849 0.865 -30.013 0.865 -30.013 0.5 59.849
27054.917 0.501 59.823 0.864 -30.039 0.864 -30.039 0.501 59.823
27079.875 0.501 59.798 0.864 -30.065 0.864 -30.065 0.501 59.798
27104.833 0.501 59.772 0.864 -30.09 0.864 -30.09 0.501 59.772
27129.792 0.502 59.747 0.864 -30.116 0.864 -30.116 0.502 59.747
27154.75 0.502 59.721 0.864 -30.142 0.864 -30.142 0.502 59.721
27179.708 0.503 59.696 0.863 -30.167 0.863 -30.167 0.503 59.696
27204.667 0.503 59.671 0.863 -30.193 0.863 -30.193 0.503 59.671
27229.625 0.503 59.645 0.863 -30.218 0.863 -30.218 0.503 59.645
27254.583 0.504 59.62 0.863 -30.244 0.863 -30.244 0.504 59.62
27279.542 0.504 59.594 0.862 -30.269 0.862 -30.269 0.504 59.594
27304.5 0.504 59.569 0.862 -30.295 0.862 -30.295 0.504 59.569
27329.458 0.505 59.544 0.862 -30.32 0.862 -30.32 0.505 59.544
27354.417 0.505 59.518 0.862 -30.346 0.862 -30.346 0.505 59.518
27379.375 0.506 59.493 0.862 -30.371 0.862 -30.371 0.506 59.493
27404.333 0.506 59.468 0.861 -30.397 0.861 -30.397 0.506 59.468
27429.292 0.506 59.443 0.861 -30.422 0.861 -30.422 0.506 59.443
27454.25 0.507 59.417 0.861 -30.447 0.861 -30.447 0.507 59.417
27479.208 0.507 59.392 0.861 -30.473 0.861 -30.473 0.507 59.392
27504.167 0.508 59.367 0.86 -30.498 0.86 -30.498 0.508 59.367
27529.125 0.508 59.342 0.86 -30.523 0.86 -30.523 0.508 59.342
27554.083 0.508 59.316 0.86 -30.549 0.86 -30.549 0.508 59.316
27579.042 0.509 59.291 0.86 -30.574 0.86 -30.574 0.509 59.291
27604 0.509 59.266 0.86 -30.599 0.86 -30.599 0.509 59.266
27628.958 0.509 59.241 0.859 -30.625 0.859 -30.625 0.509 59.241
27653.917 0.51 59.216 0.859 -30.65 0.859 -30.65 0.51 59.216
27678.875 0.51 59.191 0.859 -30.675 0.859 -30.675 0.51 59.191
27703.833 0.511 59.166 0.859 -30.7 0.859 -30.7 0.511 59.166
27728.792 0.511 59.14 0.858 -30.726 0.858 -30.726 0.511 59.14
27753.75 0.511 59.115 0.858 -30.751 0.858 -30.751 0.511 59.115
27778.708 0.512 59.09 0.858 -30.776 0.858 -30.776 0.512 59.09
27803.667 0.512 59.065 0.858 -30.801 0.858 -30.801 0.512 59.065
27828.625 0.512 59.04 0.858 -30.826 0.858 -30.826 0.512 59.04
27853.583 0.513 59.015 0.857 -30.852 0.857 -30.852 0.513 59.015
27878.542 0.513 58.99 0.857 -30.877 0.857 -30.877 0.513 58.99
27903.5 0.514 58.965 0.857 -30.902 0.857 -30.902 0.514 58.965
27928.458 0.514 58.94 0.857 -30.927 0.857 -30.927 0.514 58.94
27953.417 0.514 58.915 0.856 -30.952 0.856 -30.952 0.514 58.915
27978.375 0.515 58.89 0.856 -30.977 0.856 -30.977 0.515 58.89
28003.333 0.515 58.865 0.856 -31.002 0.856 -31.002 0.515 58.865
28028.292 0.515 58.84 0.856 -31.027 0.856 -31.027 0.515 58.84
28053.25 0.516 58.816 0.856 -31.052 0.856 -31.052 0.516 58.816
28078.208 0.516 58.791 0.855 -31.077 0.855 -31.077 0.516 58.791
28103.167 0.517 58.766 0.855 -31.102 0.855 -31.102 0.517 58.766
28128.125 0.517 58.741 0.855 -31.127 0.855 -31.127 0.517 58.741
28153.083 0.517 58.716 0.855 -31.152 0.855 -31.152 0.517 58.716
28178.042 0.518 58.691 0.854 -31.177 0.854 -31.177 0.518 58.691
28203 0.518 58.667 0.854 -31.202 0.854 -31.202 0.518 58.667
28227.958 0.518 58.642 0.854 -31.227 0.854 -31.227 0.518 58.642
28252.917 0.519 58.617 0.854 -31.252 0.854 -31.252 0.519 58.617
28277.875 0.519 58.592 0.853 -31.277 0.853 -31.277 0.519 58.592
28302.833 0.52 58.567 0.853 -31.302 0.853 -31.302 0.52 58.567
28327.792 0.52 58.543 0.853 -31.327 0.853 -31.327 0.52 58.543
28352.75 0.52 58.518 0.853 -31.351 0.853 -31.351 0.52 58.518
28377.708 0.521 58.493 0.853 -31.376 0.853 -31.376 0.521 58.493
28402.667 0.521 58.469 0.852 -31.401 0.852 -31.401 0.521 58.469
28427.625 0.521 58.444 0.852 -31.426 0.852 -31.426 0.521 58.444
28452.583 0.522 58.419 0.852 -31.451 0.852 -31.451 0.522 58.419
28477.542 0.522 58.395 0.852 -31.475 0.852 -31.475 0.522 58.395
28502.5 0.523 58.37 0.851 -31.5 0.851 -31.5 0.523 58.37
28527.458 0.523 58.345 0.851 -31.525 0.851 -31.525 0.523 58.345
28552.417 0.523 58.321 0.851 -31.55 0.851 -31.55 0.523 58.321
28577.375 0.524 58.296 0.851 -31.574 0.851 -31.574 0.524 58.296
28602.333 0.524 58.272 0.851 -31.599 0.851 -31.599 0.524 58.272
28627.292 0.524 58.247 0.85 -31.624 0.85 -31.624 0.524 58.247
28652.25 0.525 58.223 0.85 -31.648 0.85 -31.648 0.525 58.223
28677.208 0.525 58.198 0.85 -31.673 0.85 -31.673 0.525 58.198
28702.167 0.525 58.174 0.85 -31.698 0.85 -31.698 0.525 58.174
28727.125 0.526 58.149 0.849 -31.722 0.849 -31.722 0.526 58.149
28752.083 0.526 58.125 0.849 -31.747 0.849 -31.747 0.526 58.125
28777.042 0.527 58.1 0.849 -31.771 0.849 -31.771 0.527 58.1
28802 0.527 58.076 0.849 -31.796 0.849 -31.796 0.527 58.076
28826.958 0.527 58.051 0.849 -31.821 0.849 -31.821 0.527 58.051
28851.917 0.528 58.027 0.848 -31.845 0.848 -31.845 0.528 58.027
28876.875 0.528 58.002 0.848 -31.87 0.848 -31.87 0.528 58.002
28901.833 0.528 57.978 0.848 -31.894 0.848 -31.894 0.528 57.978
28926.792 0.529 57.954 0.848 -31.919 0.848 -31.919 0.529 57.954
28951.75 0.529 57.929 0.847 -31.943 0.847 -31.943 0.529 57.929
28976.708 0.529 57.905 0.847 -31.968 0.847 -31.968 0.529 57.905
29001.667 0.53 57.881 0.847 -31.992 0.847 -31.992 0.53 57.881
29026.625 0.53 57.856 0.847 -32.016 0.847 -32.016 0.53 57.856
29051.583 0.531 57.832 0.846 -32.041 0.846 -32.041 0.531 57.832
29076.542 0.531 57.808 0.846 -32.065 0.846 -32.065 0.531 57.808
29101.5 0.531 57.783 0.846 -32.09 0.846 -32.09 0.531 57.783
29126.458 0.532 57.759 0.846 -32.114 0.846 -32.114 0.532 57.759
29151.417 0.532 57.735 0.846 -32.138 0.846 -32.138 0.532 57.735
29176.375 0.532 57.711 0.845 -32.163 0.845 -32.163 0.532 57.711
29201.333 0.533 57.687 0.845 -32.187 0.845 -32.187 0.533 57.687
29226.292 0.533 57.662 0.845 -32.211 0.845 -32.211 0.533 57.662
29251.25 0.533 57.638 0.845 -32.236 0.845 -32.236 0.533 57.638
29276.208 0.534 57.614 0.844 -32.26 0.844 -32.26 0.534 57.614
29301.167 0.534 57.59 0.844 -32.284 0.844 -32.284 0.534 57.59
29326.125 0.534 57.566 0.844 -32.308 0.844 -32.308 0.534 57.566
29351.083 0.535 57.542 0.844 -32.333 0.844 -32.333 0.535 57.542
29376.042 0.535 57.517 0.844 -32.357 0.844 -32.357 0.535 57.517
29401 0.536 57.493 0.843 -32.381 0.843 -32.381 0.536 57.493
29425.958 0.536 57.469 0.843 -32.405 0.843 -32.405 0.536 57.469
29450.917 0.536 57.445 0.843 -32.43 0.843 -32.43 0.536 57.445
29475.875 0.537 57.421 0.843 -32.454 0.843 -32.454 0.537 57.421
29500.833 0.537 57.397 0.842 -32.478 0.842 -32.478 0.537 57.397
29525.792 0.537 57.373 0.842 -32.502 0.842 -32.502 0.537 57.373
29550.75 0.538 57.349 0.842 -32.526 0.842 -32.526 0.538 57.349
29575.708 0.538 57.325 0.842 -32.55 0.842 -32.55 0.538 57.325
29600.667 0.538 57.301 0.842 -32.574 0.842 -32.574 0.538 57.301
29625.625 0.539 57.277 0.841 -32.598 0.841 -32.598 0.539 57.277
29650.583 0.539 57.253 0.841 -32.622 0.841 -32.622 0.539 57.253
29675.542 0.539 57.229 0.841 -32.646 0.841 -32.646 0.539 57.229
29700.5 0.54 57.205 0.841 -32.671 0.841 -32.671 0.54 57.205
29725.458 0.54 57.181 0.84 -32.695 0.84 -32.695 0.54 57.181
29750.417 0.541 57.158 0.84 -32.719 0.84 -32.719 0.541 57.158
29775.375 0.541 57.134 0.84 -32.743 0.84 -32.743 0.541 57.134
29800.333 0.541 57.11 0.84 -32.767 0.84 -32.767 0.541 57.11
29825.292 0.542 57.086 0.839 -32.79 0.839 -32.79 0.542 57.086
29850.25 0.542 57.062 0.839 -32.814 0.839 -32.814 0.542 57.062
29875.208 0.542 57.038 0.839 -32.838 0.839 -32.838 0.542 57.038
29900.167 0.543 57.015 0.839 -32.862 0.839 -32.862 0.543 57.015
29925.125 0.543 56.991 0.839 -32.886 0.839 -32.886 0.543 56.991
29950.083 0.543 56.967 0.838 -32.91 0.838 -32.91 0.543 56.967
29975.042 0.544 56.943 0.838 -32.934 0.838 -32.934 0.544 56.943
30000 0.544 56.919 0.838 -32.958 0.838 -32.958 0.544 56.919
