!	AVX Thin Film Operation 	Date: April 2014		
!	Description: Accu-P® Series, Thin Film  SMD RF Capacitor
!	Part Number: 04021JA45ZBSTR					
!								
# MHZ S MA R 50

50 0.999 -2.608 0.046 87.387 0.046 87.387 0.999 -2.608
74.958 0.998 -3.907 0.068 86.086 0.068 86.086 0.998 -3.907
99.917 0.996 -5.202 0.091 84.789 0.091 84.789 0.996 -5.202
124.875 0.994 -6.493 0.113 83.497 0.113 83.497 0.994 -6.493
149.833 0.991 -7.777 0.135 82.21 0.135 82.21 0.991 -7.777
174.792 0.987 -9.054 0.157 80.931 0.157 80.931 0.987 -9.054
199.75 0.984 -10.323 0.179 79.66 0.179 79.66 0.984 -10.323
224.708 0.98 -11.582 0.201 78.399 0.201 78.399 0.98 -11.582
249.667 0.975 -12.831 0.222 77.148 0.222 77.148 0.975 -12.831
274.625 0.97 -14.069 0.243 75.908 0.243 75.908 0.97 -14.069
299.583 0.964 -15.294 0.264 74.68 0.264 74.68 0.964 -15.294
324.542 0.959 -16.506 0.284 73.466 0.284 73.466 0.959 -16.506
349.5 0.952 -17.705 0.304 72.265 0.304 72.265 0.952 -17.705
374.458 0.946 -18.889 0.324 71.079 0.324 71.079 0.946 -18.889
399.417 0.939 -20.058 0.343 69.907 0.343 69.907 0.939 -20.058
424.375 0.932 -21.211 0.362 68.752 0.362 68.752 0.932 -21.211
449.333 0.925 -22.349 0.38 67.613 0.38 67.613 0.925 -22.349
474.292 0.917 -23.469 0.398 66.49 0.398 66.49 0.917 -23.469
499.25 0.909 -24.572 0.416 65.385 0.416 65.385 0.909 -24.572
524.208 0.901 -25.658 0.433 64.297 0.433 64.297 0.901 -25.658
549.167 0.893 -26.726 0.45 63.226 0.45 63.226 0.893 -26.726
574.125 0.884 -27.777 0.466 62.174 0.466 62.174 0.884 -27.777
599.083 0.876 -28.809 0.482 61.139 0.482 61.139 0.876 -28.809
624.042 0.867 -29.823 0.497 60.123 0.497 60.123 0.867 -29.823
649 0.858 -30.819 0.512 59.125 0.512 59.125 0.858 -30.819
673.958 0.849 -31.797 0.527 58.145 0.527 58.145 0.849 -31.797
698.917 0.84 -32.756 0.541 57.183 0.541 57.183 0.84 -32.756
723.875 0.831 -33.697 0.555 56.24 0.555 56.24 0.831 -33.697
748.833 0.822 -34.621 0.568 55.314 0.568 55.314 0.822 -34.621
773.792 0.813 -35.526 0.581 54.407 0.581 54.407 0.813 -35.526
798.75 0.804 -36.413 0.594 53.517 0.594 53.517 0.804 -36.413
823.708 0.795 -37.283 0.606 52.645 0.606 52.645 0.795 -37.283
848.667 0.786 -38.135 0.618 51.791 0.618 51.791 0.786 -38.135
873.625 0.777 -38.97 0.629 50.954 0.629 50.954 0.777 -38.97
898.583 0.768 -39.788 0.64 50.133 0.64 50.133 0.768 -39.788
923.542 0.758 -40.589 0.651 49.33 0.651 49.33 0.758 -40.589
948.5 0.749 -41.374 0.661 48.543 0.661 48.543 0.749 -41.374
973.458 0.74 -42.143 0.671 47.772 0.671 47.772 0.74 -42.143
998.417 0.732 -42.895 0.681 47.017 0.681 47.017 0.732 -42.895
1023.375 0.723 -43.632 0.69 46.278 0.69 46.278 0.723 -43.632
1048.333 0.714 -44.354 0.699 45.554 0.699 45.554 0.714 -44.354
1073.292 0.705 -45.061 0.708 44.845 0.708 44.845 0.705 -45.061
1098.25 0.697 -45.753 0.716 44.151 0.716 44.151 0.697 -45.753
1123.208 0.688 -46.43 0.725 43.471 0.725 43.471 0.688 -46.43
1148.167 0.68 -47.093 0.732 42.805 0.732 42.805 0.68 -47.093
1173.125 0.671 -47.743 0.74 42.153 0.74 42.153 0.671 -47.743
1198.083 0.663 -48.379 0.748 41.515 0.748 41.515 0.663 -48.379
1223.042 0.655 -49.002 0.755 40.89 0.755 40.89 0.655 -49.002
1248 0.646 -49.612 0.762 40.277 0.762 40.277 0.646 -49.612
1272.958 0.638 -50.21 0.768 39.677 0.768 39.677 0.638 -50.21
1297.917 0.631 -50.795 0.775 39.09 0.775 39.09 0.631 -50.795
1322.875 0.623 -51.368 0.781 38.514 0.781 38.514 0.623 -51.368
1347.833 0.615 -51.93 0.787 37.95 0.787 37.95 0.615 -51.93
1372.792 0.607 -52.48 0.793 37.397 0.793 37.397 0.607 -52.48
1397.75 0.6 -53.019 0.799 36.856 0.799 36.856 0.6 -53.019
1422.708 0.592 -53.547 0.804 36.325 0.804 36.325 0.592 -53.547
1447.667 0.585 -54.065 0.81 35.805 0.81 35.805 0.585 -54.065
1472.625 0.578 -54.572 0.815 35.295 0.815 35.295 0.578 -54.572
1497.583 0.571 -55.069 0.82 34.796 0.82 34.796 0.571 -55.069
1522.542 0.564 -55.557 0.825 34.305 0.825 34.305 0.564 -55.557
1547.5 0.557 -56.035 0.829 33.825 0.829 33.825 0.557 -56.035
1572.458 0.55 -56.504 0.834 33.354 0.834 33.354 0.55 -56.504
1597.417 0.543 -56.963 0.838 32.891 0.838 32.891 0.543 -56.963
1622.375 0.536 -57.414 0.843 32.438 0.843 32.438 0.536 -57.414
1647.333 0.53 -57.857 0.847 31.993 0.847 31.993 0.53 -57.857
1672.292 0.523 -58.291 0.851 31.557 0.851 31.557 0.523 -58.291
1697.25 0.517 -58.716 0.855 31.128 0.855 31.128 0.517 -58.716
1722.208 0.511 -59.134 0.858 30.708 0.858 30.708 0.511 -59.134
1747.167 0.504 -59.544 0.862 30.295 0.862 30.295 0.504 -59.544
1772.125 0.498 -59.947 0.866 29.89 0.866 29.89 0.498 -59.947
1797.083 0.492 -60.342 0.869 29.492 0.869 29.492 0.492 -60.342
1822.042 0.486 -60.73 0.872 29.101 0.872 29.101 0.486 -60.73
1847 0.48 -61.111 0.876 28.718 0.876 28.718 0.48 -61.111
1871.958 0.475 -61.485 0.879 28.341 0.879 28.341 0.475 -61.485
1896.917 0.469 -61.853 0.882 27.97 0.882 27.97 0.469 -61.853
1921.875 0.463 -62.214 0.885 27.606 0.885 27.606 0.463 -62.214
1946.833 0.458 -62.569 0.888 27.249 0.888 27.249 0.458 -62.569
1971.792 0.452 -62.918 0.89 26.897 0.89 26.897 0.452 -62.918
1996.75 0.447 -63.261 0.893 26.551 0.893 26.551 0.447 -63.261
2021.708 0.442 -63.598 0.896 26.212 0.896 26.212 0.442 -63.598
2046.667 0.436 -63.929 0.898 25.878 0.898 25.878 0.436 -63.929
2071.625 0.431 -64.255 0.901 25.549 0.901 25.549 0.431 -64.255
2096.583 0.426 -64.575 0.903 25.226 0.903 25.226 0.426 -64.575
2121.542 0.421 -64.89 0.905 24.908 0.905 24.908 0.421 -64.89
2146.5 0.416 -65.2 0.908 24.595 0.908 24.595 0.416 -65.2
2171.458 0.411 -65.505 0.91 24.287 0.91 24.287 0.411 -65.505
2196.417 0.406 -65.805 0.912 23.984 0.912 23.984 0.406 -65.805
2221.375 0.402 -66.1 0.914 23.686 0.914 23.686 0.402 -66.1
2246.333 0.397 -66.39 0.916 23.393 0.916 23.393 0.397 -66.39
2271.292 0.392 -66.676 0.918 23.104 0.918 23.104 0.392 -66.676
2296.25 0.388 -66.958 0.92 22.819 0.92 22.819 0.388 -66.958
2321.208 0.383 -67.235 0.922 22.539 0.922 22.539 0.383 -67.235
2346.167 0.379 -67.508 0.924 22.263 0.924 22.263 0.379 -67.508
2371.125 0.374 -67.776 0.926 21.991 0.926 21.991 0.374 -67.776
2396.083 0.37 -68.041 0.927 21.723 0.927 21.723 0.37 -68.041
2421.042 0.366 -68.302 0.929 21.459 0.929 21.459 0.366 -68.302
2446 0.362 -68.559 0.931 21.199 0.931 21.199 0.362 -68.559
2470.958 0.357 -68.812 0.932 20.943 0.932 20.943 0.357 -68.812
2495.917 0.353 -69.061 0.934 20.69 0.934 20.69 0.353 -69.061
2520.875 0.349 -69.307 0.935 20.441 0.935 20.441 0.349 -69.307
2545.833 0.345 -69.55 0.937 20.195 0.937 20.195 0.345 -69.55
2570.792 0.341 -69.788 0.938 19.953 0.938 19.953 0.341 -69.788
2595.75 0.337 -70.024 0.94 19.714 0.94 19.714 0.337 -70.024
2620.708 0.333 -70.256 0.941 19.479 0.941 19.479 0.333 -70.256
2645.667 0.33 -70.485 0.943 19.246 0.943 19.246 0.33 -70.485
2670.625 0.326 -70.711 0.944 19.017 0.944 19.017 0.326 -70.711
2695.583 0.322 -70.934 0.945 18.79 0.945 18.79 0.322 -70.934
2720.542 0.318 -71.154 0.946 18.567 0.946 18.567 0.318 -71.154
2745.5 0.315 -71.37 0.948 18.347 0.948 18.347 0.315 -71.37
2770.458 0.311 -71.584 0.949 18.129 0.949 18.129 0.311 -71.584
2795.417 0.308 -71.795 0.95 17.914 0.95 17.914 0.308 -71.795
2820.375 0.304 -72.004 0.951 17.702 0.951 17.702 0.304 -72.004
2845.333 0.301 -72.209 0.952 17.493 0.952 17.493 0.301 -72.209
2870.292 0.297 -72.412 0.953 17.286 0.953 17.286 0.297 -72.412
2895.25 0.294 -72.613 0.954 17.082 0.954 17.082 0.294 -72.613
2920.208 0.29 -72.81 0.955 16.88 0.955 16.88 0.29 -72.81
2945.167 0.287 -73.006 0.956 16.681 0.956 16.681 0.287 -73.006
2970.125 0.284 -73.199 0.957 16.484 0.957 16.484 0.284 -73.199
2995.083 0.28 -73.389 0.958 16.29 0.958 16.29 0.28 -73.389
3020.042 0.277 -73.577 0.959 16.098 0.959 16.098 0.277 -73.577
3045 0.274 -73.763 0.96 15.908 0.96 15.908 0.274 -73.763
3069.958 0.271 -73.947 0.961 15.72 0.961 15.72 0.271 -73.947
3094.917 0.268 -74.128 0.962 15.534 0.962 15.534 0.268 -74.128
3119.875 0.265 -74.307 0.963 15.351 0.963 15.351 0.265 -74.307
3144.833 0.262 -74.484 0.964 15.169 0.964 15.169 0.262 -74.484
3169.792 0.259 -74.659 0.964 14.99 0.964 14.99 0.259 -74.659
3194.75 0.256 -74.832 0.965 14.813 0.965 14.813 0.256 -74.832
3219.708 0.253 -75.003 0.966 14.637 0.966 14.637 0.253 -75.003
3244.667 0.25 -75.172 0.967 14.464 0.967 14.464 0.25 -75.172
3269.625 0.247 -75.339 0.967 14.292 0.967 14.292 0.247 -75.339
3294.583 0.244 -75.505 0.968 14.123 0.968 14.123 0.244 -75.505
3319.542 0.241 -75.668 0.969 13.955 0.969 13.955 0.241 -75.668
3344.5 0.238 -75.829 0.97 13.788 0.97 13.788 0.238 -75.829
3369.458 0.236 -75.989 0.97 13.624 0.97 13.624 0.236 -75.989
3394.417 0.233 -76.147 0.971 13.461 0.971 13.461 0.233 -76.147
3419.375 0.23 -76.303 0.972 13.3 0.972 13.3 0.23 -76.303
3444.333 0.227 -76.457 0.972 13.141 0.972 13.141 0.227 -76.457
3469.292 0.225 -76.61 0.973 12.983 0.973 12.983 0.225 -76.61
3494.25 0.222 -76.761 0.973 12.827 0.973 12.827 0.222 -76.761
3519.208 0.219 -76.911 0.974 12.672 0.974 12.672 0.219 -76.911
3544.167 0.217 -77.059 0.975 12.519 0.975 12.519 0.217 -77.059
3569.125 0.214 -77.205 0.975 12.367 0.975 12.367 0.214 -77.205
3594.083 0.212 -77.35 0.976 12.217 0.976 12.217 0.212 -77.35
3619.042 0.209 -77.493 0.976 12.068 0.976 12.068 0.209 -77.493
3644 0.207 -77.635 0.977 11.921 0.977 11.921 0.207 -77.635
3668.958 0.204 -77.775 0.977 11.775 0.977 11.775 0.204 -77.775
3693.917 0.202 -77.914 0.978 11.63 0.978 11.63 0.202 -77.914
3718.875 0.199 -78.051 0.978 11.487 0.978 11.487 0.199 -78.051
3743.833 0.197 -78.187 0.979 11.345 0.979 11.345 0.197 -78.187
3768.792 0.194 -78.322 0.979 11.205 0.979 11.205 0.194 -78.322
3793.75 0.192 -78.455 0.98 11.065 0.98 11.065 0.192 -78.455
3818.708 0.19 -78.587 0.98 10.927 0.98 10.927 0.19 -78.587
3843.667 0.187 -78.717 0.981 10.79 0.981 10.79 0.187 -78.717
3868.625 0.185 -78.847 0.981 10.655 0.981 10.655 0.185 -78.847
3893.583 0.183 -78.975 0.982 10.52 0.982 10.52 0.183 -78.975
3918.542 0.18 -79.101 0.982 10.387 0.982 10.387 0.18 -79.101
3943.5 0.178 -79.227 0.982 10.255 0.982 10.255 0.178 -79.227
3968.458 0.176 -79.351 0.983 10.123 0.983 10.123 0.176 -79.351
3993.417 0.174 -79.474 0.983 9.994 0.983 9.994 0.174 -79.474
4018.375 0.171 -79.596 0.984 9.865 0.984 9.865 0.171 -79.596
4043.333 0.169 -79.716 0.984 9.737 0.984 9.737 0.169 -79.716
4068.292 0.167 -79.836 0.984 9.61 0.984 9.61 0.167 -79.836
4093.25 0.165 -79.954 0.985 9.484 0.985 9.484 0.165 -79.954
4118.208 0.163 -80.071 0.985 9.36 0.985 9.36 0.163 -80.071
4143.167 0.161 -80.187 0.985 9.236 0.985 9.236 0.161 -80.187
4168.125 0.158 -80.302 0.986 9.113 0.986 9.113 0.158 -80.302
4193.083 0.156 -80.415 0.986 8.992 0.986 8.992 0.156 -80.415
4218.042 0.154 -80.528 0.986 8.871 0.986 8.871 0.154 -80.528
4243 0.152 -80.64 0.987 8.751 0.987 8.751 0.152 -80.64
4267.958 0.15 -80.75 0.987 8.632 0.987 8.632 0.15 -80.75
4292.917 0.148 -80.859 0.987 8.514 0.987 8.514 0.148 -80.859
4317.875 0.146 -80.967 0.988 8.397 0.988 8.397 0.146 -80.967
4342.833 0.144 -81.075 0.988 8.281 0.988 8.281 0.144 -81.075
4367.792 0.142 -81.181 0.988 8.165 0.988 8.165 0.142 -81.181
4392.75 0.14 -81.286 0.989 8.051 0.989 8.051 0.14 -81.286
4417.708 0.138 -81.39 0.989 7.937 0.989 7.937 0.138 -81.39
4442.667 0.136 -81.493 0.989 7.824 0.989 7.824 0.136 -81.493
4467.625 0.134 -81.595 0.989 7.712 0.989 7.712 0.134 -81.595
4492.583 0.132 -81.696 0.99 7.601 0.99 7.601 0.132 -81.696
4517.542 0.13 -81.796 0.99 7.491 0.99 7.491 0.13 -81.796
4542.5 0.128 -81.895 0.99 7.381 0.99 7.381 0.128 -81.895
4567.458 0.127 -81.993 0.99 7.272 0.99 7.272 0.127 -81.993
4592.417 0.125 -82.09 0.991 7.164 0.991 7.164 0.125 -82.09
4617.375 0.123 -82.186 0.991 7.057 0.991 7.057 0.123 -82.186
4642.333 0.121 -82.28 0.991 6.95 0.991 6.95 0.121 -82.28
4667.292 0.119 -82.374 0.991 6.844 0.991 6.844 0.119 -82.374
4692.25 0.117 -82.467 0.991 6.739 0.991 6.739 0.117 -82.467
4717.208 0.116 -82.559 0.992 6.634 0.992 6.634 0.116 -82.559
4742.167 0.114 -82.65 0.992 6.53 0.992 6.53 0.114 -82.65
4767.125 0.112 -82.74 0.992 6.427 0.992 6.427 0.112 -82.74
4792.083 0.11 -82.829 0.992 6.325 0.992 6.325 0.11 -82.829
4817.042 0.108 -82.917 0.992 6.223 0.992 6.223 0.108 -82.917
4842 0.107 -83.003 0.993 6.122 0.993 6.122 0.107 -83.003
4866.958 0.105 -83.089 0.993 6.021 0.993 6.021 0.105 -83.089
4891.917 0.103 -83.174 0.993 5.921 0.993 5.921 0.103 -83.174
4916.875 0.101 -83.258 0.993 5.822 0.993 5.822 0.101 -83.258
4941.833 0.1 -83.34 0.993 5.723 0.993 5.723 0.1 -83.34
4966.792 0.098 -83.422 0.994 5.625 0.994 5.625 0.098 -83.422
4991.75 0.096 -83.503 0.994 5.528 0.994 5.528 0.096 -83.503
5016.708 0.095 -83.582 0.994 5.431 0.994 5.431 0.095 -83.582
5041.667 0.093 -83.66 0.994 5.335 0.994 5.335 0.093 -83.66
5066.625 0.091 -83.738 0.994 5.239 0.994 5.239 0.091 -83.738
5091.583 0.09 -83.814 0.994 5.144 0.994 5.144 0.09 -83.814
5116.542 0.088 -83.889 0.994 5.049 0.994 5.049 0.088 -83.889
5141.5 0.086 -83.963 0.995 4.955 0.995 4.955 0.086 -83.963
5166.458 0.085 -84.035 0.995 4.862 0.995 4.862 0.085 -84.035
5191.417 0.083 -84.106 0.995 4.769 0.995 4.769 0.083 -84.106
5216.375 0.082 -84.177 0.995 4.677 0.995 4.677 0.082 -84.177
5241.333 0.08 -84.245 0.995 4.585 0.995 4.585 0.08 -84.245
5266.292 0.078 -84.313 0.995 4.493 0.995 4.493 0.078 -84.313
5291.25 0.077 -84.379 0.995 4.403 0.995 4.403 0.077 -84.379
5316.208 0.075 -84.444 0.996 4.312 0.996 4.312 0.075 -84.444
5341.167 0.074 -84.507 0.996 4.222 0.996 4.222 0.074 -84.507
5366.125 0.072 -84.569 0.996 4.133 0.996 4.133 0.072 -84.569
5391.083 0.071 -84.629 0.996 4.044 0.996 4.044 0.071 -84.629
5416.042 0.069 -84.688 0.996 3.956 0.996 3.956 0.069 -84.688
5441 0.067 -84.745 0.996 3.868 0.996 3.868 0.067 -84.745
5465.958 0.066 -84.8 0.996 3.78 0.996 3.78 0.066 -84.8
5490.917 0.064 -84.853 0.996 3.693 0.996 3.693 0.064 -84.853
5515.875 0.063 -84.905 0.996 3.607 0.996 3.607 0.063 -84.905
5540.833 0.061 -84.955 0.996 3.521 0.996 3.521 0.061 -84.955
5565.792 0.06 -85.002 0.997 3.435 0.997 3.435 0.06 -85.002
5590.75 0.058 -85.048 0.997 3.35 0.997 3.35 0.058 -85.048
5615.708 0.057 -85.091 0.997 3.265 0.997 3.265 0.057 -85.091
5640.667 0.056 -85.131 0.997 3.181 0.997 3.181 0.056 -85.131
5665.625 0.054 -85.169 0.997 3.097 0.997 3.097 0.054 -85.169
5690.583 0.053 -85.205 0.997 3.013 0.997 3.013 0.053 -85.205
5715.542 0.051 -85.237 0.997 2.93 0.997 2.93 0.051 -85.237
5740.5 0.05 -85.267 0.997 2.847 0.997 2.847 0.05 -85.267
5765.458 0.048 -85.293 0.997 2.765 0.997 2.765 0.048 -85.293
5790.417 0.047 -85.316 0.997 2.683 0.997 2.683 0.047 -85.316
5815.375 0.045 -85.334 0.997 2.602 0.997 2.602 0.045 -85.334
5840.333 0.044 -85.349 0.997 2.52 0.997 2.52 0.044 -85.349
5865.292 0.043 -85.359 0.997 2.44 0.997 2.44 0.043 -85.359
5890.25 0.041 -85.365 0.998 2.359 0.998 2.359 0.041 -85.365
5915.208 0.04 -85.365 0.998 2.279 0.998 2.279 0.04 -85.365
5940.167 0.038 -85.359 0.998 2.2 0.998 2.2 0.038 -85.359
5965.125 0.037 -85.347 0.998 2.12 0.998 2.12 0.037 -85.347
5990.083 0.036 -85.328 0.998 2.041 0.998 2.041 0.036 -85.328
6015.042 0.034 -85.301 0.998 1.963 0.998 1.963 0.034 -85.301
6040 0.033 -85.266 0.998 1.885 0.998 1.885 0.033 -85.266
6064.958 0.032 -85.221 0.998 1.807 0.998 1.807 0.032 -85.221
6089.917 0.03 -85.166 0.998 1.729 0.998 1.729 0.03 -85.166
6114.875 0.029 -85.098 0.998 1.652 0.998 1.652 0.029 -85.098
6139.833 0.028 -85.017 0.998 1.575 0.998 1.575 0.028 -85.017
6164.792 0.026 -84.92 0.998 1.499 0.998 1.499 0.026 -84.92
6189.75 0.025 -84.805 0.998 1.423 0.998 1.423 0.025 -84.805
6214.708 0.024 -84.668 0.998 1.347 0.998 1.347 0.024 -84.668
6239.667 0.022 -84.508 0.998 1.271 0.998 1.271 0.022 -84.508
6264.625 0.021 -84.319 0.998 1.196 0.998 1.196 0.021 -84.319
6289.583 0.02 -84.095 0.998 1.121 0.998 1.121 0.02 -84.095
6314.542 0.018 -83.831 0.998 1.046 0.998 1.046 0.018 -83.831
6339.5 0.017 -83.516 0.998 0.972 0.998 0.972 0.017 -83.516
6364.458 0.016 -83.139 0.998 0.898 0.998 0.898 0.016 -83.139
6389.417 0.014 -82.684 0.998 0.825 0.998 0.825 0.014 -82.684
6414.375 0.013 -82.129 0.998 0.751 0.998 0.751 0.013 -82.129
6439.333 0.012 -81.444 0.998 0.678 0.998 0.678 0.012 -81.444
6464.292 0.011 -80.583 0.998 0.605 0.998 0.605 0.011 -80.583
6489.25 9.441e-3 -79.479 0.998 0.533 0.998 0.533 9.441e-3 -79.479
6514.208 8.203e-3 -78.023 0.998 0.461 0.998 0.461 8.203e-3 -78.023
6539.167 6.977e-3 -76.036 0.998 0.389 0.998 0.389 6.977e-3 -76.036
6564.125 5.768e-3 -73.19 0.998 0.317 0.998 0.317 5.768e-3 -73.19
6589.083 4.587e-3 -68.838 0.998 0.246 0.998 0.246 4.587e-3 -68.838
6614.042 3.456e-3 -61.543 0.998 0.174 0.998 0.174 3.456e-3 -61.543
6639 2.439e-3 -47.712 0.998 0.104 0.998 0.104 2.439e-3 -47.712
6663.958 1.736e-3 -19.318 0.998 0.033 0.998 0.033 1.736e-3 -19.318
6688.917 1.763e-3 21.676 0.998 -0.037 0.998 -0.037 1.763e-3 21.676
6713.875 2.489e-3 48.757 0.998 -0.107 0.998 -0.107 2.489e-3 48.757
6738.833 3.5e-3 61.924 0.998 -0.177 0.998 -0.177 3.5e-3 61.924
6763.792 4.608e-3 68.934 0.998 -0.247 0.998 -0.247 4.608e-3 68.934
6788.75 5.754e-3 73.149 0.998 -0.316 0.998 -0.316 5.754e-3 73.149
6813.708 6.918e-3 75.921 0.998 -0.385 0.998 -0.385 6.918e-3 75.921
6838.667 8.089e-3 77.866 0.998 -0.454 0.998 -0.454 8.089e-3 77.866
6863.625 9.264e-3 79.296 0.998 -0.522 0.998 -0.522 9.264e-3 79.296
6888.583 0.01 80.384 0.998 -0.591 0.998 -0.591 0.01 80.384
6913.542 0.012 81.235 0.998 -0.659 0.998 -0.659 0.012 81.235
6938.5 0.013 81.916 0.998 -0.727 0.998 -0.727 0.013 81.916
6963.458 0.014 82.468 0.998 -0.794 0.998 -0.794 0.014 82.468
6988.417 0.015 82.923 0.998 -0.862 0.998 -0.862 0.015 82.923
7013.375 0.016 83.302 0.998 -0.929 0.998 -0.929 0.016 83.302
7038.333 0.017 83.621 0.998 -0.996 0.998 -0.996 0.017 83.621
7063.292 0.019 83.89 0.998 -1.062 0.998 -1.062 0.019 83.89
7088.25 0.02 84.12 0.998 -1.129 0.998 -1.129 0.02 84.12
7113.208 0.021 84.316 0.998 -1.195 0.998 -1.195 0.021 84.316
7138.167 0.022 84.484 0.998 -1.261 0.998 -1.261 0.022 84.484
7163.125 0.023 84.628 0.998 -1.327 0.998 -1.327 0.023 84.628
7188.083 0.024 84.753 0.998 -1.392 0.998 -1.392 0.024 84.753
7213.042 0.025 84.86 0.998 -1.458 0.998 -1.458 0.025 84.86
7238 0.027 84.952 0.998 -1.523 0.998 -1.523 0.027 84.952
7262.958 0.028 85.031 0.998 -1.588 0.998 -1.588 0.028 85.031
7287.917 0.029 85.098 0.998 -1.652 0.998 -1.652 0.029 85.098
7312.875 0.03 85.156 0.998 -1.717 0.998 -1.717 0.03 85.156
7337.833 0.031 85.204 0.998 -1.781 0.998 -1.781 0.031 85.204
7362.792 0.032 85.245 0.998 -1.845 0.998 -1.845 0.032 85.245
7387.75 0.033 85.278 0.998 -1.909 0.998 -1.909 0.033 85.278
7412.708 0.034 85.305 0.998 -1.973 0.998 -1.973 0.034 85.305
7437.667 0.036 85.327 0.998 -2.036 0.998 -2.036 0.036 85.327
7462.625 0.037 85.343 0.998 -2.1 0.998 -2.1 0.037 85.343
7487.583 0.038 85.354 0.998 -2.163 0.998 -2.163 0.038 85.354
7512.542 0.039 85.361 0.998 -2.226 0.998 -2.226 0.039 85.361
7537.5 0.04 85.365 0.998 -2.288 0.998 -2.288 0.04 85.365
7562.458 0.041 85.365 0.998 -2.351 0.998 -2.351 0.041 85.365
7587.417 0.042 85.361 0.997 -2.413 0.997 -2.413 0.042 85.361
7612.375 0.043 85.355 0.997 -2.476 0.997 -2.476 0.043 85.355
7637.333 0.044 85.346 0.997 -2.538 0.997 -2.538 0.044 85.346
7662.292 0.045 85.335 0.997 -2.599 0.997 -2.599 0.045 85.335
7687.25 0.046 85.321 0.997 -2.661 0.997 -2.661 0.046 85.321
7712.208 0.048 85.305 0.997 -2.722 0.997 -2.722 0.048 85.305
7737.167 0.049 85.287 0.997 -2.784 0.997 -2.784 0.049 85.287
7762.125 0.05 85.268 0.997 -2.845 0.997 -2.845 0.05 85.268
7787.083 0.051 85.246 0.997 -2.906 0.997 -2.906 0.051 85.246
7812.042 0.052 85.223 0.997 -2.967 0.997 -2.967 0.052 85.223
7837 0.053 85.199 0.997 -3.027 0.997 -3.027 0.053 85.199
7861.958 0.054 85.173 0.997 -3.088 0.997 -3.088 0.054 85.173
7886.917 0.055 85.147 0.997 -3.148 0.997 -3.148 0.055 85.147
7911.875 0.056 85.118 0.997 -3.208 0.997 -3.208 0.056 85.118
7936.833 0.057 85.089 0.997 -3.268 0.997 -3.268 0.057 85.089
7961.792 0.058 85.059 0.997 -3.328 0.997 -3.328 0.058 85.059
7986.75 0.059 85.028 0.997 -3.387 0.997 -3.387 0.059 85.028
8011.708 0.06 84.996 0.997 -3.447 0.997 -3.447 0.06 84.996
8036.667 0.061 84.963 0.996 -3.506 0.996 -3.506 0.061 84.963
8061.625 0.062 84.929 0.996 -3.565 0.996 -3.565 0.062 84.929
8086.583 0.063 84.895 0.996 -3.624 0.996 -3.624 0.063 84.895
8111.542 0.064 84.86 0.996 -3.683 0.996 -3.683 0.064 84.86
8136.5 0.065 84.824 0.996 -3.742 0.996 -3.742 0.065 84.824
8161.458 0.066 84.788 0.996 -3.8 0.996 -3.8 0.066 84.788
8186.417 0.067 84.751 0.996 -3.858 0.996 -3.858 0.067 84.751
8211.375 0.068 84.713 0.996 -3.917 0.996 -3.917 0.068 84.713
8236.333 0.069 84.675 0.996 -3.975 0.996 -3.975 0.069 84.675
8261.292 0.07 84.637 0.996 -4.033 0.996 -4.033 0.07 84.637
8286.25 0.071 84.598 0.996 -4.09 0.996 -4.09 0.071 84.598
8311.208 0.072 84.558 0.996 -4.148 0.996 -4.148 0.072 84.558
8336.167 0.073 84.519 0.996 -4.205 0.996 -4.205 0.073 84.519
8361.125 0.074 84.479 0.996 -4.263 0.996 -4.263 0.074 84.479
8386.083 0.075 84.438 0.996 -4.32 0.996 -4.32 0.075 84.438
8411.042 0.076 84.397 0.995 -4.377 0.995 -4.377 0.076 84.397
8436 0.077 84.356 0.995 -4.434 0.995 -4.434 0.077 84.356
8460.958 0.078 84.315 0.995 -4.491 0.995 -4.491 0.078 84.315
8485.917 0.079 84.273 0.995 -4.547 0.995 -4.547 0.079 84.273
8510.875 0.08 84.231 0.995 -4.604 0.995 -4.604 0.08 84.231
8535.833 0.081 84.189 0.995 -4.66 0.995 -4.66 0.081 84.189
8560.792 0.082 84.146 0.995 -4.716 0.995 -4.716 0.082 84.146
8585.75 0.083 84.104 0.995 -4.772 0.995 -4.772 0.083 84.104
8610.708 0.084 84.061 0.995 -4.828 0.995 -4.828 0.084 84.061
8635.667 0.085 84.018 0.995 -4.884 0.995 -4.884 0.085 84.018
8660.625 0.086 83.975 0.995 -4.94 0.995 -4.94 0.086 83.975
8685.583 0.087 83.931 0.995 -4.996 0.995 -4.996 0.087 83.931
8710.542 0.088 83.888 0.994 -5.051 0.994 -5.051 0.088 83.888
8735.5 0.089 83.844 0.994 -5.106 0.994 -5.106 0.089 83.844
8760.458 0.09 83.8 0.994 -5.162 0.994 -5.162 0.09 83.8
8785.417 0.091 83.756 0.994 -5.217 0.994 -5.217 0.091 83.756
8810.375 0.092 83.712 0.994 -5.272 0.994 -5.272 0.092 83.712
8835.333 0.093 83.667 0.994 -5.326 0.994 -5.326 0.093 83.667
8860.292 0.094 83.623 0.994 -5.381 0.994 -5.381 0.094 83.623
8885.25 0.095 83.578 0.994 -5.436 0.994 -5.436 0.095 83.578
8910.208 0.096 83.534 0.994 -5.49 0.994 -5.49 0.096 83.534
8935.167 0.097 83.489 0.994 -5.544 0.994 -5.544 0.097 83.489
8960.125 0.098 83.444 0.994 -5.599 0.994 -5.599 0.098 83.444
8985.083 0.099 83.399 0.994 -5.653 0.994 -5.653 0.099 83.399
9010.042 0.099 83.354 0.993 -5.707 0.993 -5.707 0.099 83.354
9035 0.1 83.309 0.993 -5.761 0.993 -5.761 0.1 83.309
9059.958 0.101 83.264 0.993 -5.814 0.993 -5.814 0.101 83.264
9084.917 0.102 83.219 0.993 -5.868 0.993 -5.868 0.102 83.219
9109.875 0.103 83.174 0.993 -5.922 0.993 -5.922 0.103 83.174
9134.833 0.104 83.129 0.993 -5.975 0.993 -5.975 0.104 83.129
9159.792 0.105 83.083 0.993 -6.028 0.993 -6.028 0.105 83.083
9184.75 0.106 83.038 0.993 -6.081 0.993 -6.081 0.106 83.038
9209.708 0.107 82.993 0.993 -6.135 0.993 -6.135 0.107 82.993
9234.667 0.108 82.947 0.993 -6.188 0.993 -6.188 0.108 82.947
9259.625 0.109 82.902 0.992 -6.24 0.992 -6.24 0.109 82.902
9284.583 0.11 82.856 0.992 -6.293 0.992 -6.293 0.11 82.856
9309.542 0.111 82.811 0.992 -6.346 0.992 -6.346 0.111 82.811
9334.5 0.111 82.765 0.992 -6.398 0.992 -6.398 0.111 82.765
9359.458 0.112 82.719 0.992 -6.451 0.992 -6.451 0.112 82.719
9384.417 0.113 82.674 0.992 -6.503 0.992 -6.503 0.113 82.674
9409.375 0.114 82.628 0.992 -6.555 0.992 -6.555 0.114 82.628
9434.333 0.115 82.583 0.992 -6.607 0.992 -6.607 0.115 82.583
9459.292 0.116 82.537 0.992 -6.659 0.992 -6.659 0.116 82.537
9484.25 0.117 82.491 0.992 -6.711 0.992 -6.711 0.117 82.491
9509.208 0.118 82.446 0.991 -6.763 0.991 -6.763 0.118 82.446
9534.167 0.119 82.4 0.991 -6.815 0.991 -6.815 0.119 82.4
9559.125 0.12 82.354 0.991 -6.867 0.991 -6.867 0.12 82.354
9584.083 0.12 82.309 0.991 -6.918 0.991 -6.918 0.12 82.309
9609.042 0.121 82.263 0.991 -6.969 0.991 -6.969 0.121 82.263
9634 0.122 82.217 0.991 -7.021 0.991 -7.021 0.122 82.217
9658.958 0.123 82.172 0.991 -7.072 0.991 -7.072 0.123 82.172
9683.917 0.124 82.126 0.991 -7.123 0.991 -7.123 0.124 82.126
9708.875 0.125 82.08 0.991 -7.174 0.991 -7.174 0.125 82.08
9733.833 0.126 82.035 0.99 -7.225 0.99 -7.225 0.126 82.035
9758.792 0.127 81.989 0.99 -7.276 0.99 -7.276 0.127 81.989
9783.75 0.128 81.944 0.99 -7.327 0.99 -7.327 0.128 81.944
9808.708 0.128 81.898 0.99 -7.377 0.99 -7.377 0.128 81.898
9833.667 0.129 81.852 0.99 -7.428 0.99 -7.428 0.129 81.852
9858.625 0.13 81.807 0.99 -7.478 0.99 -7.478 0.13 81.807
9883.583 0.131 81.761 0.99 -7.529 0.99 -7.529 0.131 81.761
9908.542 0.132 81.716 0.99 -7.579 0.99 -7.579 0.132 81.716
9933.5 0.133 81.67 0.99 -7.629 0.99 -7.629 0.133 81.67
9958.458 0.134 81.625 0.989 -7.679 0.989 -7.679 0.134 81.625
9983.417 0.135 81.579 0.989 -7.729 0.989 -7.729 0.135 81.579
10008.375 0.135 81.534 0.989 -7.779 0.989 -7.779 0.135 81.534
10033.333 0.136 81.489 0.989 -7.829 0.989 -7.829 0.136 81.489
10058.292 0.137 81.443 0.989 -7.879 0.989 -7.879 0.137 81.443
10083.25 0.138 81.398 0.989 -7.928 0.989 -7.928 0.138 81.398
10108.208 0.139 81.353 0.989 -7.978 0.989 -7.978 0.139 81.353
10133.167 0.14 81.307 0.989 -8.027 0.989 -8.027 0.14 81.307
10158.125 0.141 81.262 0.988 -8.077 0.988 -8.077 0.141 81.262
10183.083 0.141 81.217 0.988 -8.126 0.988 -8.126 0.141 81.217
10208.042 0.142 81.171 0.988 -8.175 0.988 -8.175 0.142 81.171
10233 0.143 81.126 0.988 -8.225 0.988 -8.225 0.143 81.126
10257.958 0.144 81.081 0.988 -8.274 0.988 -8.274 0.144 81.081
10282.917 0.145 81.036 0.988 -8.323 0.988 -8.323 0.145 81.036
10307.875 0.146 80.991 0.988 -8.371 0.988 -8.371 0.146 80.991
10332.833 0.146 80.946 0.988 -8.42 0.988 -8.42 0.146 80.946
10357.792 0.147 80.901 0.987 -8.469 0.987 -8.469 0.147 80.901
10382.75 0.148 80.856 0.987 -8.518 0.987 -8.518 0.148 80.856
10407.708 0.149 80.811 0.987 -8.566 0.987 -8.566 0.149 80.811
10432.667 0.15 80.766 0.987 -8.615 0.987 -8.615 0.15 80.766
10457.625 0.151 80.721 0.987 -8.663 0.987 -8.663 0.151 80.721
10482.583 0.151 80.676 0.987 -8.711 0.987 -8.711 0.151 80.676
10507.542 0.152 80.631 0.987 -8.76 0.987 -8.76 0.152 80.631
10532.5 0.153 80.587 0.987 -8.808 0.987 -8.808 0.153 80.587
10557.458 0.154 80.542 0.986 -8.856 0.986 -8.856 0.154 80.542
10582.417 0.155 80.497 0.986 -8.904 0.986 -8.904 0.155 80.497
10607.375 0.156 80.452 0.986 -8.952 0.986 -8.952 0.156 80.452
10632.333 0.156 80.408 0.986 -9 0.986 -9 0.156 80.408
10657.292 0.157 80.363 0.986 -9.048 0.986 -9.048 0.157 80.363
10682.25 0.158 80.319 0.986 -9.095 0.986 -9.095 0.158 80.319
10707.208 0.159 80.274 0.986 -9.143 0.986 -9.143 0.159 80.274
10732.167 0.16 80.23 0.986 -9.191 0.986 -9.191 0.16 80.23
10757.125 0.161 80.185 0.985 -9.238 0.985 -9.238 0.161 80.185
10782.083 0.161 80.141 0.985 -9.285 0.985 -9.285 0.161 80.141
10807.042 0.162 80.096 0.985 -9.333 0.985 -9.333 0.162 80.096
10832 0.163 80.052 0.985 -9.38 0.985 -9.38 0.163 80.052
10856.958 0.164 80.008 0.985 -9.427 0.985 -9.427 0.164 80.008
10881.917 0.165 79.963 0.985 -9.474 0.985 -9.474 0.165 79.963
10906.875 0.165 79.919 0.985 -9.521 0.985 -9.521 0.165 79.919
10931.833 0.166 79.875 0.984 -9.568 0.984 -9.568 0.166 79.875
10956.792 0.167 79.831 0.984 -9.615 0.984 -9.615 0.167 79.831
10981.75 0.168 79.787 0.984 -9.662 0.984 -9.662 0.168 79.787
11006.708 0.169 79.743 0.984 -9.709 0.984 -9.709 0.169 79.743
11031.667 0.169 79.699 0.984 -9.756 0.984 -9.756 0.169 79.699
11056.625 0.17 79.655 0.984 -9.802 0.984 -9.802 0.17 79.655
11081.583 0.171 79.611 0.984 -9.849 0.984 -9.849 0.171 79.611
11106.542 0.172 79.567 0.984 -9.895 0.984 -9.895 0.172 79.567
11131.5 0.173 79.523 0.983 -9.942 0.983 -9.942 0.173 79.523
11156.458 0.173 79.479 0.983 -9.988 0.983 -9.988 0.173 79.479
11181.417 0.174 79.435 0.983 -10.034 0.983 -10.034 0.174 79.435
11206.375 0.175 79.392 0.983 -10.081 0.983 -10.081 0.175 79.392
11231.333 0.176 79.348 0.983 -10.127 0.983 -10.127 0.176 79.348
11256.292 0.177 79.304 0.983 -10.173 0.983 -10.173 0.177 79.304
11281.25 0.177 79.261 0.983 -10.219 0.983 -10.219 0.177 79.261
11306.208 0.178 79.217 0.982 -10.265 0.982 -10.265 0.178 79.217
11331.167 0.179 79.174 0.982 -10.311 0.982 -10.311 0.179 79.174
11356.125 0.18 79.13 0.982 -10.356 0.982 -10.356 0.18 79.13
11381.083 0.181 79.087 0.982 -10.402 0.982 -10.402 0.181 79.087
11406.042 0.181 79.043 0.982 -10.448 0.982 -10.448 0.181 79.043
11431 0.182 79 0.982 -10.493 0.982 -10.493 0.182 79
11455.958 0.183 78.957 0.982 -10.539 0.982 -10.539 0.183 78.957
11480.917 0.184 78.913 0.981 -10.585 0.981 -10.585 0.184 78.913
11505.875 0.184 78.87 0.981 -10.63 0.981 -10.63 0.184 78.87
11530.833 0.185 78.827 0.981 -10.675 0.981 -10.675 0.185 78.827
11555.792 0.186 78.784 0.981 -10.721 0.981 -10.721 0.186 78.784
11580.75 0.187 78.741 0.981 -10.766 0.981 -10.766 0.187 78.741
11605.708 0.188 78.698 0.981 -10.811 0.981 -10.811 0.188 78.698
11630.667 0.188 78.655 0.98 -10.856 0.98 -10.856 0.188 78.655
11655.625 0.189 78.612 0.98 -10.901 0.98 -10.901 0.189 78.612
11680.583 0.19 78.569 0.98 -10.946 0.98 -10.946 0.19 78.569
11705.542 0.191 78.526 0.98 -10.991 0.98 -10.991 0.191 78.526
11730.5 0.191 78.483 0.98 -11.036 0.98 -11.036 0.191 78.483
11755.458 0.192 78.44 0.98 -11.081 0.98 -11.081 0.192 78.44
11780.417 0.193 78.397 0.98 -11.126 0.98 -11.126 0.193 78.397
11805.375 0.194 78.355 0.979 -11.17 0.979 -11.17 0.194 78.355
11830.333 0.194 78.312 0.979 -11.215 0.979 -11.215 0.194 78.312
11855.292 0.195 78.269 0.979 -11.26 0.979 -11.26 0.195 78.269
11880.25 0.196 78.227 0.979 -11.304 0.979 -11.304 0.196 78.227
11905.208 0.197 78.184 0.979 -11.349 0.979 -11.349 0.197 78.184
11930.167 0.198 78.141 0.979 -11.393 0.979 -11.393 0.198 78.141
11955.125 0.198 78.099 0.979 -11.437 0.979 -11.437 0.198 78.099
11980.083 0.199 78.056 0.978 -11.482 0.978 -11.482 0.199 78.056
12005.042 0.2 78.014 0.978 -11.526 0.978 -11.526 0.2 78.014
12030 0.201 77.972 0.978 -11.57 0.978 -11.57 0.201 77.972
12054.958 0.201 77.929 0.978 -11.614 0.978 -11.614 0.201 77.929
12079.917 0.202 77.887 0.978 -11.658 0.978 -11.658 0.202 77.887
12104.875 0.203 77.845 0.978 -11.702 0.978 -11.702 0.203 77.845
12129.833 0.204 77.803 0.977 -11.746 0.977 -11.746 0.204 77.803
12154.792 0.204 77.761 0.977 -11.79 0.977 -11.79 0.204 77.761
12179.75 0.205 77.718 0.977 -11.834 0.977 -11.834 0.205 77.718
12204.708 0.206 77.676 0.977 -11.878 0.977 -11.878 0.206 77.676
12229.667 0.207 77.634 0.977 -11.921 0.977 -11.921 0.207 77.634
12254.625 0.207 77.592 0.977 -11.965 0.977 -11.965 0.207 77.592
12279.583 0.208 77.55 0.977 -12.009 0.977 -12.009 0.208 77.55
12304.542 0.209 77.508 0.976 -12.052 0.976 -12.052 0.209 77.508
12329.5 0.21 77.467 0.976 -12.096 0.976 -12.096 0.21 77.467
12354.458 0.21 77.425 0.976 -12.139 0.976 -12.139 0.21 77.425
12379.417 0.211 77.383 0.976 -12.182 0.976 -12.182 0.211 77.383
12404.375 0.212 77.341 0.976 -12.226 0.976 -12.226 0.212 77.341
12429.333 0.213 77.299 0.976 -12.269 0.976 -12.269 0.213 77.299
12454.292 0.213 77.258 0.975 -12.312 0.975 -12.312 0.213 77.258
12479.25 0.214 77.216 0.975 -12.355 0.975 -12.355 0.214 77.216
12504.208 0.215 77.175 0.975 -12.399 0.975 -12.399 0.215 77.175
12529.167 0.215 77.133 0.975 -12.442 0.975 -12.442 0.215 77.133
12554.125 0.216 77.091 0.975 -12.485 0.975 -12.485 0.216 77.091
12579.083 0.217 77.05 0.975 -12.528 0.975 -12.528 0.217 77.05
12604.042 0.218 77.009 0.974 -12.571 0.974 -12.571 0.218 77.009
12629 0.218 76.967 0.974 -12.613 0.974 -12.613 0.218 76.967
12653.958 0.219 76.926 0.974 -12.656 0.974 -12.656 0.219 76.926
12678.917 0.22 76.885 0.974 -12.699 0.974 -12.699 0.22 76.885
12703.875 0.221 76.843 0.974 -12.742 0.974 -12.742 0.221 76.843
12728.833 0.221 76.802 0.974 -12.784 0.974 -12.784 0.221 76.802
12753.792 0.222 76.761 0.973 -12.827 0.973 -12.827 0.222 76.761
12778.75 0.223 76.72 0.973 -12.87 0.973 -12.87 0.223 76.72
12803.708 0.223 76.679 0.973 -12.912 0.973 -12.912 0.223 76.679
12828.667 0.224 76.637 0.973 -12.955 0.973 -12.955 0.224 76.637
12853.625 0.225 76.596 0.973 -12.997 0.973 -12.997 0.225 76.596
12878.583 0.226 76.555 0.973 -13.039 0.973 -13.039 0.226 76.555
12903.542 0.226 76.514 0.972 -13.082 0.972 -13.082 0.226 76.514
12928.5 0.227 76.474 0.972 -13.124 0.972 -13.124 0.227 76.474
12953.458 0.228 76.433 0.972 -13.166 0.972 -13.166 0.228 76.433
12978.417 0.228 76.392 0.972 -13.208 0.972 -13.208 0.228 76.392
13003.375 0.229 76.351 0.972 -13.25 0.972 -13.25 0.229 76.351
13028.333 0.23 76.31 0.972 -13.293 0.972 -13.293 0.23 76.31
13053.292 0.231 76.27 0.971 -13.335 0.971 -13.335 0.231 76.27
13078.25 0.231 76.229 0.971 -13.377 0.971 -13.377 0.231 76.229
13103.208 0.232 76.188 0.971 -13.418 0.971 -13.418 0.232 76.188
13128.167 0.233 76.148 0.971 -13.46 0.971 -13.46 0.233 76.148
13153.125 0.233 76.107 0.971 -13.502 0.971 -13.502 0.233 76.107
13178.083 0.234 76.066 0.971 -13.544 0.971 -13.544 0.234 76.066
13203.042 0.235 76.026 0.97 -13.586 0.97 -13.586 0.235 76.026
13228 0.236 75.986 0.97 -13.627 0.97 -13.627 0.236 75.986
13252.958 0.236 75.945 0.97 -13.669 0.97 -13.669 0.236 75.945
13277.917 0.237 75.905 0.97 -13.711 0.97 -13.711 0.237 75.905
13302.875 0.238 75.864 0.97 -13.752 0.97 -13.752 0.238 75.864
13327.833 0.238 75.824 0.97 -13.794 0.97 -13.794 0.238 75.824
13352.792 0.239 75.784 0.969 -13.835 0.969 -13.835 0.239 75.784
13377.75 0.24 75.744 0.969 -13.877 0.969 -13.877 0.24 75.744
13402.708 0.241 75.703 0.969 -13.918 0.969 -13.918 0.241 75.703
13427.667 0.241 75.663 0.969 -13.959 0.969 -13.959 0.241 75.663
13452.625 0.242 75.623 0.969 -14.001 0.969 -14.001 0.242 75.623
13477.583 0.243 75.583 0.969 -14.042 0.969 -14.042 0.243 75.583
13502.542 0.243 75.543 0.968 -14.083 0.968 -14.083 0.243 75.543
13527.5 0.244 75.503 0.968 -14.124 0.968 -14.124 0.244 75.503
13552.458 0.245 75.463 0.968 -14.165 0.968 -14.165 0.245 75.463
13577.417 0.245 75.423 0.968 -14.206 0.968 -14.206 0.245 75.423
13602.375 0.246 75.383 0.968 -14.247 0.968 -14.247 0.246 75.383
13627.333 0.247 75.343 0.967 -14.288 0.967 -14.288 0.247 75.343
13652.292 0.247 75.303 0.967 -14.329 0.967 -14.329 0.247 75.303
13677.25 0.248 75.264 0.967 -14.37 0.967 -14.37 0.248 75.264
13702.208 0.249 75.224 0.967 -14.411 0.967 -14.411 0.249 75.224
13727.167 0.25 75.184 0.967 -14.452 0.967 -14.452 0.25 75.184
13752.125 0.25 75.145 0.967 -14.492 0.967 -14.492 0.25 75.145
13777.083 0.251 75.105 0.966 -14.533 0.966 -14.533 0.251 75.105
13802.042 0.252 75.065 0.966 -14.574 0.966 -14.574 0.252 75.065
13827 0.252 75.026 0.966 -14.614 0.966 -14.614 0.252 75.026
13851.958 0.253 74.986 0.966 -14.655 0.966 -14.655 0.253 74.986
13876.917 0.254 74.947 0.966 -14.696 0.966 -14.696 0.254 74.947
13901.875 0.254 74.907 0.966 -14.736 0.966 -14.736 0.254 74.907
13926.833 0.255 74.868 0.965 -14.777 0.965 -14.777 0.255 74.868
13951.792 0.256 74.828 0.965 -14.817 0.965 -14.817 0.256 74.828
13976.75 0.256 74.789 0.965 -14.857 0.965 -14.857 0.256 74.789
14001.708 0.257 74.75 0.965 -14.898 0.965 -14.898 0.257 74.75
14026.667 0.258 74.71 0.965 -14.938 0.965 -14.938 0.258 74.71
14051.625 0.258 74.671 0.964 -14.978 0.964 -14.978 0.258 74.671
14076.583 0.259 74.632 0.964 -15.018 0.964 -15.018 0.259 74.632
14101.542 0.26 74.593 0.964 -15.059 0.964 -15.059 0.26 74.593
14126.5 0.26 74.554 0.964 -15.099 0.964 -15.099 0.26 74.554
14151.458 0.261 74.514 0.964 -15.139 0.964 -15.139 0.261 74.514
14176.417 0.262 74.475 0.964 -15.179 0.964 -15.179 0.262 74.475
14201.375 0.263 74.436 0.963 -15.219 0.963 -15.219 0.263 74.436
14226.333 0.263 74.397 0.963 -15.259 0.963 -15.259 0.263 74.397
14251.292 0.264 74.358 0.963 -15.299 0.963 -15.299 0.264 74.358
14276.25 0.265 74.319 0.963 -15.338 0.963 -15.338 0.265 74.319
14301.208 0.265 74.281 0.963 -15.378 0.963 -15.378 0.265 74.281
14326.167 0.266 74.242 0.962 -15.418 0.962 -15.418 0.266 74.242
14351.125 0.267 74.203 0.962 -15.458 0.962 -15.458 0.267 74.203
14376.083 0.267 74.164 0.962 -15.498 0.962 -15.498 0.267 74.164
14401.042 0.268 74.125 0.962 -15.537 0.962 -15.537 0.268 74.125
14426 0.269 74.087 0.962 -15.577 0.962 -15.577 0.269 74.087
14450.958 0.269 74.048 0.962 -15.616 0.962 -15.616 0.269 74.048
14475.917 0.27 74.009 0.961 -15.656 0.961 -15.656 0.27 74.009
14500.875 0.271 73.971 0.961 -15.696 0.961 -15.696 0.271 73.971
14525.833 0.271 73.932 0.961 -15.735 0.961 -15.735 0.271 73.932
14550.792 0.272 73.893 0.961 -15.774 0.961 -15.774 0.272 73.893
14575.75 0.273 73.855 0.961 -15.814 0.961 -15.814 0.273 73.855
14600.708 0.273 73.816 0.96 -15.853 0.96 -15.853 0.273 73.816
14625.667 0.274 73.778 0.96 -15.893 0.96 -15.893 0.274 73.778
14650.625 0.274 73.739 0.96 -15.932 0.96 -15.932 0.274 73.739
14675.583 0.275 73.701 0.96 -15.971 0.96 -15.971 0.275 73.701
14700.542 0.276 73.663 0.96 -16.01 0.96 -16.01 0.276 73.663
14725.5 0.276 73.624 0.959 -16.049 0.959 -16.049 0.276 73.624
14750.458 0.277 73.586 0.959 -16.089 0.959 -16.089 0.277 73.586
14775.417 0.278 73.548 0.959 -16.128 0.959 -16.128 0.278 73.548
14800.375 0.278 73.51 0.959 -16.167 0.959 -16.167 0.278 73.51
14825.333 0.279 73.471 0.959 -16.206 0.959 -16.206 0.279 73.471
14850.292 0.28 73.433 0.959 -16.245 0.959 -16.245 0.28 73.433
14875.25 0.28 73.395 0.958 -16.284 0.958 -16.284 0.28 73.395
14900.208 0.281 73.357 0.958 -16.323 0.958 -16.323 0.281 73.357
14925.167 0.282 73.319 0.958 -16.361 0.958 -16.361 0.282 73.319
14950.125 0.282 73.281 0.958 -16.4 0.958 -16.4 0.282 73.281
14975.083 0.283 73.243 0.958 -16.439 0.958 -16.439 0.283 73.243
15000.042 0.284 73.205 0.957 -16.478 0.957 -16.478 0.284 73.205
15025 0.284 73.167 0.957 -16.517 0.957 -16.517 0.284 73.167
15049.958 0.285 73.129 0.957 -16.555 0.957 -16.555 0.285 73.129
15074.917 0.286 73.091 0.957 -16.594 0.957 -16.594 0.286 73.091
15099.875 0.286 73.053 0.957 -16.632 0.957 -16.632 0.286 73.053
15124.833 0.287 73.016 0.956 -16.671 0.956 -16.671 0.287 73.016
15149.792 0.288 72.978 0.956 -16.71 0.956 -16.71 0.288 72.978
15174.75 0.288 72.94 0.956 -16.748 0.956 -16.748 0.288 72.94
15199.708 0.289 72.902 0.956 -16.787 0.956 -16.787 0.289 72.902
15224.667 0.289 72.865 0.956 -16.825 0.956 -16.825 0.289 72.865
15249.625 0.29 72.827 0.955 -16.863 0.955 -16.863 0.29 72.827
15274.583 0.291 72.789 0.955 -16.902 0.955 -16.902 0.291 72.789
15299.542 0.291 72.752 0.955 -16.94 0.955 -16.94 0.291 72.752
15324.5 0.292 72.714 0.955 -16.978 0.955 -16.978 0.292 72.714
15349.458 0.293 72.677 0.955 -17.017 0.955 -17.017 0.293 72.677
15374.417 0.293 72.639 0.954 -17.055 0.954 -17.055 0.293 72.639
15399.375 0.294 72.602 0.954 -17.093 0.954 -17.093 0.294 72.602
15424.333 0.295 72.564 0.954 -17.131 0.954 -17.131 0.295 72.564
15449.292 0.295 72.527 0.954 -17.169 0.954 -17.169 0.295 72.527
15474.25 0.296 72.49 0.954 -17.207 0.954 -17.207 0.296 72.49
15499.208 0.296 72.452 0.953 -17.245 0.953 -17.245 0.296 72.452
15524.167 0.297 72.415 0.953 -17.283 0.953 -17.283 0.297 72.415
15549.125 0.298 72.378 0.953 -17.321 0.953 -17.321 0.298 72.378
15574.083 0.298 72.341 0.953 -17.359 0.953 -17.359 0.298 72.341
15599.042 0.299 72.303 0.953 -17.397 0.953 -17.397 0.299 72.303
15624 0.3 72.266 0.952 -17.435 0.952 -17.435 0.3 72.266
15648.958 0.3 72.229 0.952 -17.473 0.952 -17.473 0.3 72.229
15673.917 0.301 72.192 0.952 -17.511 0.952 -17.511 0.301 72.192
15698.875 0.302 72.155 0.952 -17.548 0.952 -17.548 0.302 72.155
15723.833 0.302 72.118 0.952 -17.586 0.952 -17.586 0.302 72.118
15748.792 0.303 72.081 0.952 -17.624 0.952 -17.624 0.303 72.081
15773.75 0.303 72.044 0.951 -17.662 0.951 -17.662 0.303 72.044
15798.708 0.304 72.007 0.951 -17.699 0.951 -17.699 0.304 72.007
15823.667 0.305 71.97 0.951 -17.737 0.951 -17.737 0.305 71.97
15848.625 0.305 71.933 0.951 -17.774 0.951 -17.774 0.305 71.933
15873.583 0.306 71.896 0.951 -17.812 0.951 -17.812 0.306 71.896
15898.542 0.307 71.859 0.95 -17.849 0.95 -17.849 0.307 71.859
15923.5 0.307 71.822 0.95 -17.887 0.95 -17.887 0.307 71.822
15948.458 0.308 71.786 0.95 -17.924 0.95 -17.924 0.308 71.786
15973.417 0.308 71.749 0.95 -17.962 0.95 -17.962 0.308 71.749
15998.375 0.309 71.712 0.95 -17.999 0.95 -17.999 0.309 71.712
16023.333 0.31 71.676 0.949 -18.036 0.949 -18.036 0.31 71.676
16048.292 0.31 71.639 0.949 -18.074 0.949 -18.074 0.31 71.639
16073.25 0.311 71.602 0.949 -18.111 0.949 -18.111 0.311 71.602
16098.208 0.311 71.566 0.949 -18.148 0.949 -18.148 0.311 71.566
16123.167 0.312 71.529 0.948 -18.185 0.948 -18.185 0.312 71.529
16148.125 0.313 71.493 0.948 -18.222 0.948 -18.222 0.313 71.493
16173.083 0.313 71.456 0.948 -18.26 0.948 -18.26 0.313 71.456
16198.042 0.314 71.42 0.948 -18.297 0.948 -18.297 0.314 71.42
16223 0.315 71.383 0.948 -18.334 0.948 -18.334 0.315 71.383
16247.958 0.315 71.347 0.947 -18.371 0.947 -18.371 0.315 71.347
16272.917 0.316 71.31 0.947 -18.408 0.947 -18.408 0.316 71.31
16297.875 0.316 71.274 0.947 -18.445 0.947 -18.445 0.316 71.274
16322.833 0.317 71.238 0.947 -18.482 0.947 -18.482 0.317 71.238
16347.792 0.318 71.201 0.947 -18.519 0.947 -18.519 0.318 71.201
16372.75 0.318 71.165 0.946 -18.555 0.946 -18.555 0.318 71.165
16397.708 0.319 71.129 0.946 -18.592 0.946 -18.592 0.319 71.129
16422.667 0.319 71.093 0.946 -18.629 0.946 -18.629 0.319 71.093
16447.625 0.32 71.056 0.946 -18.666 0.946 -18.666 0.32 71.056
16472.583 0.321 71.02 0.946 -18.703 0.946 -18.703 0.321 71.02
16497.542 0.321 70.984 0.945 -18.739 0.945 -18.739 0.321 70.984
16522.5 0.322 70.948 0.945 -18.776 0.945 -18.776 0.322 70.948
16547.458 0.322 70.912 0.945 -18.813 0.945 -18.813 0.322 70.912
16572.417 0.323 70.876 0.945 -18.849 0.945 -18.849 0.323 70.876
16597.375 0.324 70.84 0.945 -18.886 0.945 -18.886 0.324 70.84
16622.333 0.324 70.804 0.944 -18.922 0.944 -18.922 0.324 70.804
16647.292 0.325 70.768 0.944 -18.959 0.944 -18.959 0.325 70.768
16672.25 0.325 70.732 0.944 -18.995 0.944 -18.995 0.325 70.732
16697.208 0.326 70.696 0.944 -19.032 0.944 -19.032 0.326 70.696
16722.167 0.327 70.66 0.944 -19.068 0.944 -19.068 0.327 70.66
16747.125 0.327 70.624 0.943 -19.105 0.943 -19.105 0.327 70.624
16772.083 0.328 70.589 0.943 -19.141 0.943 -19.141 0.328 70.589
16797.042 0.328 70.553 0.943 -19.177 0.943 -19.177 0.328 70.553
16822 0.329 70.517 0.943 -19.214 0.943 -19.214 0.329 70.517
16846.958 0.33 70.481 0.943 -19.25 0.943 -19.25 0.33 70.481
16871.917 0.33 70.446 0.942 -19.286 0.942 -19.286 0.33 70.446
16896.875 0.331 70.41 0.942 -19.323 0.942 -19.323 0.331 70.41
16921.833 0.331 70.374 0.942 -19.359 0.942 -19.359 0.331 70.374
16946.792 0.332 70.339 0.942 -19.395 0.942 -19.395 0.332 70.339
16971.75 0.333 70.303 0.941 -19.431 0.941 -19.431 0.333 70.303
16996.708 0.333 70.267 0.941 -19.467 0.941 -19.467 0.333 70.267
17021.667 0.334 70.232 0.941 -19.503 0.941 -19.503 0.334 70.232
17046.625 0.334 70.196 0.941 -19.539 0.941 -19.539 0.334 70.196
17071.583 0.335 70.161 0.941 -19.575 0.941 -19.575 0.335 70.161
17096.542 0.336 70.125 0.94 -19.611 0.94 -19.611 0.336 70.125
17121.5 0.336 70.09 0.94 -19.647 0.94 -19.647 0.336 70.09
17146.458 0.337 70.055 0.94 -19.683 0.94 -19.683 0.337 70.055
17171.417 0.337 70.019 0.94 -19.719 0.94 -19.719 0.337 70.019
17196.375 0.338 69.984 0.94 -19.755 0.94 -19.755 0.338 69.984
17221.333 0.339 69.949 0.939 -19.791 0.939 -19.791 0.339 69.949
17246.292 0.339 69.913 0.939 -19.826 0.939 -19.826 0.339 69.913
17271.25 0.34 69.878 0.939 -19.862 0.939 -19.862 0.34 69.878
17296.208 0.34 69.843 0.939 -19.898 0.939 -19.898 0.34 69.843
17321.167 0.341 69.808 0.939 -19.934 0.939 -19.934 0.341 69.808
17346.125 0.342 69.772 0.938 -19.969 0.938 -19.969 0.342 69.772
17371.083 0.342 69.737 0.938 -20.005 0.938 -20.005 0.342 69.737
17396.042 0.343 69.702 0.938 -20.041 0.938 -20.041 0.343 69.702
17421 0.343 69.667 0.938 -20.076 0.938 -20.076 0.343 69.667
17445.958 0.344 69.632 0.937 -20.112 0.937 -20.112 0.344 69.632
17470.917 0.344 69.597 0.937 -20.147 0.937 -20.147 0.344 69.597
17495.875 0.345 69.562 0.937 -20.183 0.937 -20.183 0.345 69.562
17520.833 0.346 69.527 0.937 -20.218 0.937 -20.218 0.346 69.527
17545.792 0.346 69.492 0.937 -20.254 0.937 -20.254 0.346 69.492
17570.75 0.347 69.457 0.936 -20.289 0.936 -20.289 0.347 69.457
17595.708 0.347 69.422 0.936 -20.324 0.936 -20.324 0.347 69.422
17620.667 0.348 69.387 0.936 -20.36 0.936 -20.36 0.348 69.387
17645.625 0.348 69.352 0.936 -20.395 0.936 -20.395 0.348 69.352
17670.583 0.349 69.318 0.936 -20.43 0.936 -20.43 0.349 69.318
17695.542 0.35 69.283 0.935 -20.466 0.935 -20.466 0.35 69.283
17720.5 0.35 69.248 0.935 -20.501 0.935 -20.501 0.35 69.248
17745.458 0.351 69.213 0.935 -20.536 0.935 -20.536 0.351 69.213
17770.417 0.351 69.179 0.935 -20.571 0.935 -20.571 0.351 69.179
17795.375 0.352 69.144 0.934 -20.606 0.934 -20.606 0.352 69.144
17820.333 0.353 69.109 0.934 -20.642 0.934 -20.642 0.353 69.109
17845.292 0.353 69.075 0.934 -20.677 0.934 -20.677 0.353 69.075
17870.25 0.354 69.04 0.934 -20.712 0.934 -20.712 0.354 69.04
17895.208 0.354 69.005 0.934 -20.747 0.934 -20.747 0.354 69.005
17920.167 0.355 68.971 0.933 -20.782 0.933 -20.782 0.355 68.971
17945.125 0.355 68.936 0.933 -20.817 0.933 -20.817 0.355 68.936
17970.083 0.356 68.902 0.933 -20.852 0.933 -20.852 0.356 68.902
17995.042 0.357 68.867 0.933 -20.887 0.933 -20.887 0.357 68.867
18020 0.357 68.833 0.933 -20.922 0.933 -20.922 0.357 68.833
18044.958 0.358 68.798 0.932 -20.957 0.932 -20.957 0.358 68.798
18069.917 0.358 68.764 0.932 -20.991 0.932 -20.991 0.358 68.764
18094.875 0.359 68.73 0.932 -21.026 0.932 -21.026 0.359 68.73
18119.833 0.359 68.695 0.932 -21.061 0.932 -21.061 0.359 68.695
18144.792 0.36 68.661 0.931 -21.096 0.931 -21.096 0.36 68.661
18169.75 0.36 68.627 0.931 -21.13 0.931 -21.13 0.36 68.627
18194.708 0.361 68.592 0.931 -21.165 0.931 -21.165 0.361 68.592
18219.667 0.362 68.558 0.931 -21.2 0.931 -21.2 0.362 68.558
18244.625 0.362 68.524 0.931 -21.235 0.931 -21.235 0.362 68.524
18269.583 0.363 68.49 0.93 -21.269 0.93 -21.269 0.363 68.49
18294.542 0.363 68.456 0.93 -21.304 0.93 -21.304 0.363 68.456
18319.5 0.364 68.421 0.93 -21.338 0.93 -21.338 0.364 68.421
18344.458 0.364 68.387 0.93 -21.373 0.93 -21.373 0.364 68.387
18369.417 0.365 68.353 0.929 -21.407 0.929 -21.407 0.365 68.353
18394.375 0.366 68.319 0.929 -21.442 0.929 -21.442 0.366 68.319
18419.333 0.366 68.285 0.929 -21.476 0.929 -21.476 0.366 68.285
18444.292 0.367 68.251 0.929 -21.511 0.929 -21.511 0.367 68.251
18469.25 0.367 68.217 0.929 -21.545 0.929 -21.545 0.367 68.217
18494.208 0.368 68.183 0.928 -21.58 0.928 -21.58 0.368 68.183
18519.167 0.368 68.149 0.928 -21.614 0.928 -21.614 0.368 68.149
18544.125 0.369 68.115 0.928 -21.648 0.928 -21.648 0.369 68.115
18569.083 0.369 68.081 0.928 -21.683 0.928 -21.683 0.369 68.081
18594.042 0.37 68.048 0.928 -21.717 0.928 -21.717 0.37 68.048
18619 0.371 68.014 0.927 -21.751 0.927 -21.751 0.371 68.014
18643.958 0.371 67.98 0.927 -21.785 0.927 -21.785 0.371 67.98
18668.917 0.372 67.946 0.927 -21.819 0.927 -21.819 0.372 67.946
18693.875 0.372 67.912 0.927 -21.854 0.927 -21.854 0.372 67.912
18718.833 0.373 67.879 0.926 -21.888 0.926 -21.888 0.373 67.879
18743.792 0.373 67.845 0.926 -21.922 0.926 -21.922 0.373 67.845
18768.75 0.374 67.811 0.926 -21.956 0.926 -21.956 0.374 67.811
18793.708 0.374 67.778 0.926 -21.99 0.926 -21.99 0.374 67.778
18818.667 0.375 67.744 0.926 -22.024 0.926 -22.024 0.375 67.744
18843.625 0.376 67.71 0.925 -22.058 0.925 -22.058 0.376 67.71
18868.583 0.376 67.677 0.925 -22.092 0.925 -22.092 0.376 67.677
18893.542 0.377 67.643 0.925 -22.126 0.925 -22.126 0.377 67.643
18918.5 0.377 67.61 0.925 -22.16 0.925 -22.16 0.377 67.61
18943.458 0.378 67.576 0.924 -22.194 0.924 -22.194 0.378 67.576
18968.417 0.378 67.543 0.924 -22.228 0.924 -22.228 0.378 67.543
18993.375 0.379 67.509 0.924 -22.262 0.924 -22.262 0.379 67.509
19018.333 0.379 67.476 0.924 -22.295 0.924 -22.295 0.379 67.476
19043.292 0.38 67.442 0.924 -22.329 0.924 -22.329 0.38 67.442
19068.25 0.38 67.409 0.923 -22.363 0.923 -22.363 0.38 67.409
19093.208 0.381 67.376 0.923 -22.397 0.923 -22.397 0.381 67.376
19118.167 0.382 67.342 0.923 -22.43 0.923 -22.43 0.382 67.342
19143.125 0.382 67.309 0.923 -22.464 0.923 -22.464 0.382 67.309
19168.083 0.383 67.276 0.922 -22.498 0.922 -22.498 0.383 67.276
19193.042 0.383 67.242 0.922 -22.531 0.922 -22.531 0.383 67.242
19218 0.384 67.209 0.922 -22.565 0.922 -22.565 0.384 67.209
19242.958 0.384 67.176 0.922 -22.599 0.922 -22.599 0.384 67.176
19267.917 0.385 67.143 0.921 -22.632 0.921 -22.632 0.385 67.143
19292.875 0.385 67.11 0.921 -22.666 0.921 -22.666 0.385 67.11
19317.833 0.386 67.076 0.921 -22.699 0.921 -22.699 0.386 67.076
19342.792 0.386 67.043 0.921 -22.733 0.921 -22.733 0.386 67.043
19367.75 0.387 67.01 0.921 -22.766 0.921 -22.766 0.387 67.01
19392.708 0.388 66.977 0.92 -22.8 0.92 -22.8 0.388 66.977
19417.667 0.388 66.944 0.92 -22.833 0.92 -22.833 0.388 66.944
19442.625 0.389 66.911 0.92 -22.866 0.92 -22.866 0.389 66.911
19467.583 0.389 66.878 0.92 -22.9 0.92 -22.9 0.389 66.878
19492.542 0.39 66.845 0.919 -22.933 0.919 -22.933 0.39 66.845
19517.5 0.39 66.812 0.919 -22.966 0.919 -22.966 0.39 66.812
19542.458 0.391 66.779 0.919 -23 0.919 -23 0.391 66.779
19567.417 0.391 66.746 0.919 -23.033 0.919 -23.033 0.391 66.746
19592.375 0.392 66.713 0.919 -23.066 0.919 -23.066 0.392 66.713
19617.333 0.392 66.681 0.918 -23.099 0.918 -23.099 0.392 66.681
19642.292 0.393 66.648 0.918 -23.133 0.918 -23.133 0.393 66.648
19667.25 0.393 66.615 0.918 -23.166 0.918 -23.166 0.393 66.615
19692.208 0.394 66.582 0.918 -23.199 0.918 -23.199 0.394 66.582
19717.167 0.394 66.549 0.917 -23.232 0.917 -23.232 0.394 66.549
19742.125 0.395 66.517 0.917 -23.265 0.917 -23.265 0.395 66.517
19767.083 0.396 66.484 0.917 -23.298 0.917 -23.298 0.396 66.484
19792.042 0.396 66.451 0.917 -23.331 0.917 -23.331 0.396 66.451
19817 0.397 66.419 0.916 -23.364 0.916 -23.364 0.397 66.419
19841.958 0.397 66.386 0.916 -23.397 0.916 -23.397 0.397 66.386
19866.917 0.398 66.353 0.916 -23.43 0.916 -23.43 0.398 66.353
19891.875 0.398 66.321 0.916 -23.463 0.916 -23.463 0.398 66.321
19916.833 0.399 66.288 0.916 -23.496 0.916 -23.496 0.399 66.288
19941.792 0.399 66.256 0.915 -23.529 0.915 -23.529 0.399 66.256
19966.75 0.4 66.223 0.915 -23.562 0.915 -23.562 0.4 66.223
19991.708 0.4 66.191 0.915 -23.595 0.915 -23.595 0.4 66.191
20016.667 0.401 66.158 0.915 -23.627 0.915 -23.627 0.401 66.158
20041.625 0.401 66.126 0.914 -23.66 0.914 -23.66 0.401 66.126
20066.583 0.402 66.093 0.914 -23.693 0.914 -23.693 0.402 66.093
20091.542 0.402 66.061 0.914 -23.726 0.914 -23.726 0.402 66.061
20116.5 0.403 66.028 0.914 -23.758 0.914 -23.758 0.403 66.028
20141.458 0.403 65.996 0.914 -23.791 0.914 -23.791 0.403 65.996
20166.417 0.404 65.964 0.913 -23.824 0.913 -23.824 0.404 65.964
20191.375 0.404 65.931 0.913 -23.856 0.913 -23.856 0.404 65.931
20216.333 0.405 65.899 0.913 -23.889 0.913 -23.889 0.405 65.899
20241.292 0.405 65.867 0.913 -23.922 0.913 -23.922 0.405 65.867
20266.25 0.406 65.835 0.912 -23.954 0.912 -23.954 0.406 65.835
20291.208 0.407 65.802 0.912 -23.987 0.912 -23.987 0.407 65.802
20316.167 0.407 65.77 0.912 -24.019 0.912 -24.019 0.407 65.77
20341.125 0.408 65.738 0.912 -24.052 0.912 -24.052 0.408 65.738
20366.083 0.408 65.706 0.911 -24.084 0.911 -24.084 0.408 65.706
20391.042 0.409 65.674 0.911 -24.117 0.911 -24.117 0.409 65.674
20416 0.409 65.642 0.911 -24.149 0.911 -24.149 0.409 65.642
20440.958 0.41 65.61 0.911 -24.181 0.911 -24.181 0.41 65.61
20465.917 0.41 65.577 0.911 -24.214 0.911 -24.214 0.41 65.577
20490.875 0.411 65.545 0.91 -24.246 0.91 -24.246 0.411 65.545
20515.833 0.411 65.513 0.91 -24.278 0.91 -24.278 0.411 65.513
20540.792 0.412 65.481 0.91 -24.311 0.91 -24.311 0.412 65.481
20565.75 0.412 65.45 0.91 -24.343 0.91 -24.343 0.412 65.45
20590.708 0.413 65.418 0.909 -24.375 0.909 -24.375 0.413 65.418
20615.667 0.413 65.386 0.909 -24.408 0.909 -24.408 0.413 65.386
20640.625 0.414 65.354 0.909 -24.44 0.909 -24.44 0.414 65.354
20665.583 0.414 65.322 0.909 -24.472 0.909 -24.472 0.414 65.322
20690.542 0.415 65.29 0.908 -24.504 0.908 -24.504 0.415 65.29
20715.5 0.415 65.258 0.908 -24.536 0.908 -24.536 0.415 65.258
20740.458 0.416 65.226 0.908 -24.568 0.908 -24.568 0.416 65.226
20765.417 0.416 65.195 0.908 -24.6 0.908 -24.6 0.416 65.195
20790.375 0.417 65.163 0.908 -24.632 0.908 -24.632 0.417 65.163
20815.333 0.417 65.131 0.907 -24.665 0.907 -24.665 0.417 65.131
20840.292 0.418 65.099 0.907 -24.697 0.907 -24.697 0.418 65.099
20865.25 0.418 65.068 0.907 -24.729 0.907 -24.729 0.418 65.068
20890.208 0.419 65.036 0.907 -24.761 0.907 -24.761 0.419 65.036
20915.167 0.419 65.004 0.906 -24.792 0.906 -24.792 0.419 65.004
20940.125 0.42 64.973 0.906 -24.824 0.906 -24.824 0.42 64.973
20965.083 0.42 64.941 0.906 -24.856 0.906 -24.856 0.42 64.941
20990.042 0.421 64.91 0.906 -24.888 0.906 -24.888 0.421 64.91
21015 0.421 64.878 0.905 -24.92 0.905 -24.92 0.421 64.878
21039.958 0.422 64.846 0.905 -24.952 0.905 -24.952 0.422 64.846
21064.917 0.422 64.815 0.905 -24.984 0.905 -24.984 0.422 64.815
21089.875 0.423 64.783 0.905 -25.015 0.905 -25.015 0.423 64.783
21114.833 0.423 64.752 0.904 -25.047 0.904 -25.047 0.423 64.752
21139.792 0.424 64.721 0.904 -25.079 0.904 -25.079 0.424 64.721
21164.75 0.424 64.689 0.904 -25.111 0.904 -25.111 0.424 64.689
21189.708 0.425 64.658 0.904 -25.142 0.904 -25.142 0.425 64.658
21214.667 0.425 64.626 0.904 -25.174 0.904 -25.174 0.425 64.626
21239.625 0.426 64.595 0.903 -25.206 0.903 -25.206 0.426 64.595
21264.583 0.426 64.564 0.903 -25.237 0.903 -25.237 0.426 64.564
21289.542 0.427 64.532 0.903 -25.269 0.903 -25.269 0.427 64.532
21314.5 0.427 64.501 0.903 -25.3 0.903 -25.3 0.427 64.501
21339.458 0.428 64.47 0.902 -25.332 0.902 -25.332 0.428 64.47
21364.417 0.428 64.439 0.902 -25.363 0.902 -25.363 0.428 64.439
21389.375 0.429 64.407 0.902 -25.395 0.902 -25.395 0.429 64.407
21414.333 0.429 64.376 0.902 -25.426 0.902 -25.426 0.429 64.376
21439.292 0.43 64.345 0.901 -25.458 0.901 -25.458 0.43 64.345
21464.25 0.43 64.314 0.901 -25.489 0.901 -25.489 0.43 64.314
21489.208 0.431 64.283 0.901 -25.521 0.901 -25.521 0.431 64.283
21514.167 0.431 64.252 0.901 -25.552 0.901 -25.552 0.431 64.252
21539.125 0.432 64.22 0.9 -25.583 0.9 -25.583 0.432 64.22
21564.083 0.432 64.189 0.9 -25.615 0.9 -25.615 0.432 64.189
21589.042 0.433 64.158 0.9 -25.646 0.9 -25.646 0.433 64.158
21614 0.433 64.127 0.9 -25.677 0.9 -25.677 0.433 64.127
21638.958 0.434 64.096 0.9 -25.709 0.9 -25.709 0.434 64.096
21663.917 0.434 64.065 0.899 -25.74 0.899 -25.74 0.434 64.065
21688.875 0.435 64.034 0.899 -25.771 0.899 -25.771 0.435 64.034
21713.833 0.435 64.003 0.899 -25.802 0.899 -25.802 0.435 64.003
21738.792 0.436 63.973 0.899 -25.834 0.899 -25.834 0.436 63.973
21763.75 0.436 63.942 0.898 -25.865 0.898 -25.865 0.436 63.942
21788.708 0.437 63.911 0.898 -25.896 0.898 -25.896 0.437 63.911
21813.667 0.437 63.88 0.898 -25.927 0.898 -25.927 0.437 63.88
21838.625 0.438 63.849 0.898 -25.958 0.898 -25.958 0.438 63.849
21863.583 0.438 63.818 0.897 -25.989 0.897 -25.989 0.438 63.818
21888.542 0.439 63.788 0.897 -26.02 0.897 -26.02 0.439 63.788
21913.5 0.439 63.757 0.897 -26.051 0.897 -26.051 0.439 63.757
21938.458 0.44 63.726 0.897 -26.082 0.897 -26.082 0.44 63.726
21963.417 0.44 63.695 0.896 -26.113 0.896 -26.113 0.44 63.695
21988.375 0.441 63.665 0.896 -26.144 0.896 -26.144 0.441 63.665
22013.333 0.441 63.634 0.896 -26.175 0.896 -26.175 0.441 63.634
22038.292 0.442 63.603 0.896 -26.206 0.896 -26.206 0.442 63.603
22063.25 0.442 63.573 0.896 -26.237 0.896 -26.237 0.442 63.573
22088.208 0.443 63.542 0.895 -26.268 0.895 -26.268 0.443 63.542
22113.167 0.443 63.511 0.895 -26.299 0.895 -26.299 0.443 63.511
22138.125 0.444 63.481 0.895 -26.329 0.895 -26.329 0.444 63.481
22163.083 0.444 63.45 0.895 -26.36 0.895 -26.36 0.444 63.45
22188.042 0.444 63.42 0.894 -26.391 0.894 -26.391 0.444 63.42
22213 0.445 63.389 0.894 -26.422 0.894 -26.422 0.445 63.389
22237.958 0.445 63.359 0.894 -26.453 0.894 -26.453 0.445 63.359
22262.917 0.446 63.328 0.894 -26.483 0.894 -26.483 0.446 63.328
22287.875 0.446 63.298 0.893 -26.514 0.893 -26.514 0.446 63.298
22312.833 0.447 63.267 0.893 -26.545 0.893 -26.545 0.447 63.267
22337.792 0.447 63.237 0.893 -26.575 0.893 -26.575 0.447 63.237
22362.75 0.448 63.207 0.893 -26.606 0.893 -26.606 0.448 63.207
22387.708 0.448 63.176 0.892 -26.637 0.892 -26.637 0.448 63.176
22412.667 0.449 63.146 0.892 -26.667 0.892 -26.667 0.449 63.146
22437.625 0.449 63.116 0.892 -26.698 0.892 -26.698 0.449 63.116
22462.583 0.45 63.085 0.892 -26.728 0.892 -26.728 0.45 63.085
22487.542 0.45 63.055 0.891 -26.759 0.891 -26.759 0.45 63.055
22512.5 0.451 63.025 0.891 -26.789 0.891 -26.789 0.451 63.025
22537.458 0.451 62.995 0.891 -26.82 0.891 -26.82 0.451 62.995
22562.417 0.452 62.964 0.891 -26.85 0.891 -26.85 0.452 62.964
22587.375 0.452 62.934 0.89 -26.881 0.89 -26.881 0.452 62.934
22612.333 0.453 62.904 0.89 -26.911 0.89 -26.911 0.453 62.904
22637.292 0.453 62.874 0.89 -26.941 0.89 -26.941 0.453 62.874
22662.25 0.454 62.844 0.89 -26.972 0.89 -26.972 0.454 62.844
22687.208 0.454 62.814 0.89 -27.002 0.89 -27.002 0.454 62.814
22712.167 0.454 62.784 0.889 -27.032 0.889 -27.032 0.454 62.784
22737.125 0.455 62.754 0.889 -27.063 0.889 -27.063 0.455 62.754
22762.083 0.455 62.724 0.889 -27.093 0.889 -27.093 0.455 62.724
22787.042 0.456 62.694 0.889 -27.123 0.889 -27.123 0.456 62.694
22812 0.456 62.664 0.888 -27.153 0.888 -27.153 0.456 62.664
22836.958 0.457 62.634 0.888 -27.184 0.888 -27.184 0.457 62.634
22861.917 0.457 62.604 0.888 -27.214 0.888 -27.214 0.457 62.604
22886.875 0.458 62.574 0.888 -27.244 0.888 -27.244 0.458 62.574
22911.833 0.458 62.544 0.887 -27.274 0.887 -27.274 0.458 62.544
22936.792 0.459 62.514 0.887 -27.304 0.887 -27.304 0.459 62.514
22961.75 0.459 62.484 0.887 -27.334 0.887 -27.334 0.459 62.484
22986.708 0.46 62.454 0.887 -27.365 0.887 -27.365 0.46 62.454
23011.667 0.46 62.424 0.886 -27.395 0.886 -27.395 0.46 62.424
23036.625 0.461 62.395 0.886 -27.425 0.886 -27.425 0.461 62.395
23061.583 0.461 62.365 0.886 -27.455 0.886 -27.455 0.461 62.365
23086.542 0.462 62.335 0.886 -27.485 0.886 -27.485 0.462 62.335
23111.5 0.462 62.305 0.885 -27.515 0.885 -27.515 0.462 62.305
23136.458 0.462 62.275 0.885 -27.545 0.885 -27.545 0.462 62.275
23161.417 0.463 62.246 0.885 -27.575 0.885 -27.575 0.463 62.246
23186.375 0.463 62.216 0.885 -27.604 0.885 -27.604 0.463 62.216
23211.333 0.464 62.186 0.884 -27.634 0.884 -27.634 0.464 62.186
23236.292 0.464 62.157 0.884 -27.664 0.884 -27.664 0.464 62.157
23261.25 0.465 62.127 0.884 -27.694 0.884 -27.694 0.465 62.127
23286.208 0.465 62.098 0.884 -27.724 0.884 -27.724 0.465 62.098
23311.167 0.466 62.068 0.884 -27.754 0.884 -27.754 0.466 62.068
23336.125 0.466 62.038 0.883 -27.783 0.883 -27.783 0.466 62.038
23361.083 0.467 62.009 0.883 -27.813 0.883 -27.813 0.467 62.009
23386.042 0.467 61.979 0.883 -27.843 0.883 -27.843 0.467 61.979
23411 0.468 61.95 0.883 -27.873 0.883 -27.873 0.468 61.95
23435.958 0.468 61.92 0.882 -27.902 0.882 -27.902 0.468 61.92
23460.917 0.468 61.891 0.882 -27.932 0.882 -27.932 0.468 61.891
23485.875 0.469 61.861 0.882 -27.962 0.882 -27.962 0.469 61.861
23510.833 0.469 61.832 0.882 -27.991 0.882 -27.991 0.469 61.832
23535.792 0.47 61.803 0.881 -28.021 0.881 -28.021 0.47 61.803
23560.75 0.47 61.773 0.881 -28.051 0.881 -28.051 0.47 61.773
23585.708 0.471 61.744 0.881 -28.08 0.881 -28.08 0.471 61.744
23610.667 0.471 61.715 0.881 -28.11 0.881 -28.11 0.471 61.715
23635.625 0.472 61.685 0.88 -28.139 0.88 -28.139 0.472 61.685
23660.583 0.472 61.656 0.88 -28.169 0.88 -28.169 0.472 61.656
23685.542 0.473 61.627 0.88 -28.198 0.88 -28.198 0.473 61.627
23710.5 0.473 61.597 0.88 -28.228 0.88 -28.228 0.473 61.597
23735.458 0.473 61.568 0.879 -28.257 0.879 -28.257 0.473 61.568
23760.417 0.474 61.539 0.879 -28.287 0.879 -28.287 0.474 61.539
23785.375 0.474 61.51 0.879 -28.316 0.879 -28.316 0.474 61.51
23810.333 0.475 61.481 0.879 -28.345 0.879 -28.345 0.475 61.481
23835.292 0.475 61.451 0.878 -28.375 0.878 -28.375 0.475 61.451
23860.25 0.476 61.422 0.878 -28.404 0.878 -28.404 0.476 61.422
23885.208 0.476 61.393 0.878 -28.433 0.878 -28.433 0.476 61.393
23910.167 0.477 61.364 0.878 -28.463 0.878 -28.463 0.477 61.364
23935.125 0.477 61.335 0.877 -28.492 0.877 -28.492 0.477 61.335
23960.083 0.477 61.306 0.877 -28.521 0.877 -28.521 0.477 61.306
23985.042 0.478 61.277 0.877 -28.551 0.877 -28.551 0.478 61.277
24010 0.478 61.248 0.877 -28.58 0.877 -28.58 0.478 61.248
24034.958 0.479 61.219 0.876 -28.609 0.876 -28.609 0.479 61.219
24059.917 0.479 61.19 0.876 -28.638 0.876 -28.638 0.479 61.19
24084.875 0.48 61.161 0.876 -28.667 0.876 -28.667 0.48 61.161
24109.833 0.48 61.132 0.876 -28.696 0.876 -28.696 0.48 61.132
24134.792 0.481 61.103 0.875 -28.726 0.875 -28.726 0.481 61.103
24159.75 0.481 61.074 0.875 -28.755 0.875 -28.755 0.481 61.074
24184.708 0.482 61.045 0.875 -28.784 0.875 -28.784 0.482 61.045
24209.667 0.482 61.017 0.875 -28.813 0.875 -28.813 0.482 61.017
24234.625 0.482 60.988 0.875 -28.842 0.875 -28.842 0.482 60.988
24259.583 0.483 60.959 0.874 -28.871 0.874 -28.871 0.483 60.959
24284.542 0.483 60.93 0.874 -28.9 0.874 -28.9 0.483 60.93
24309.5 0.484 60.901 0.874 -28.929 0.874 -28.929 0.484 60.901
24334.458 0.484 60.873 0.874 -28.958 0.874 -28.958 0.484 60.873
24359.417 0.485 60.844 0.873 -28.987 0.873 -28.987 0.485 60.844
24384.375 0.485 60.815 0.873 -29.016 0.873 -29.016 0.485 60.815
24409.333 0.485 60.786 0.873 -29.045 0.873 -29.045 0.485 60.786
24434.292 0.486 60.758 0.873 -29.073 0.873 -29.073 0.486 60.758
24459.25 0.486 60.729 0.872 -29.102 0.872 -29.102 0.486 60.729
24484.208 0.487 60.701 0.872 -29.131 0.872 -29.131 0.487 60.701
24509.167 0.487 60.672 0.872 -29.16 0.872 -29.16 0.487 60.672
24534.125 0.488 60.643 0.872 -29.189 0.872 -29.189 0.488 60.643
24559.083 0.488 60.615 0.871 -29.217 0.871 -29.217 0.488 60.615
24584.042 0.489 60.586 0.871 -29.246 0.871 -29.246 0.489 60.586
24609 0.489 60.558 0.871 -29.275 0.871 -29.275 0.489 60.558
24633.958 0.489 60.529 0.871 -29.304 0.871 -29.304 0.489 60.529
24658.917 0.49 60.501 0.87 -29.332 0.87 -29.332 0.49 60.501
24683.875 0.49 60.472 0.87 -29.361 0.87 -29.361 0.49 60.472
24708.833 0.491 60.444 0.87 -29.39 0.87 -29.39 0.491 60.444
24733.792 0.491 60.415 0.87 -29.418 0.87 -29.418 0.491 60.415
24758.75 0.492 60.387 0.869 -29.447 0.869 -29.447 0.492 60.387
24783.708 0.492 60.358 0.869 -29.476 0.869 -29.476 0.492 60.358
24808.667 0.492 60.33 0.869 -29.504 0.869 -29.504 0.492 60.33
24833.625 0.493 60.302 0.869 -29.533 0.869 -29.533 0.493 60.302
24858.583 0.493 60.273 0.868 -29.561 0.868 -29.561 0.493 60.273
24883.542 0.494 60.245 0.868 -29.59 0.868 -29.59 0.494 60.245
24908.5 0.494 60.217 0.868 -29.618 0.868 -29.618 0.494 60.217
24933.458 0.495 60.188 0.868 -29.647 0.868 -29.647 0.495 60.188
24958.417 0.495 60.16 0.867 -29.675 0.867 -29.675 0.495 60.16
24983.375 0.496 60.132 0.867 -29.704 0.867 -29.704 0.496 60.132
25008.333 0.496 60.104 0.867 -29.732 0.867 -29.732 0.496 60.104
25033.292 0.496 60.075 0.867 -29.76 0.867 -29.76 0.496 60.075
25058.25 0.497 60.047 0.866 -29.789 0.866 -29.789 0.497 60.047
25083.208 0.497 60.019 0.866 -29.817 0.866 -29.817 0.497 60.019
25108.167 0.498 59.991 0.866 -29.845 0.866 -29.845 0.498 59.991
25133.125 0.498 59.963 0.866 -29.874 0.866 -29.874 0.498 59.963
25158.083 0.499 59.935 0.865 -29.902 0.865 -29.902 0.499 59.935
25183.042 0.499 59.907 0.865 -29.93 0.865 -29.93 0.499 59.907
25208 0.499 59.879 0.865 -29.959 0.865 -29.959 0.499 59.879
25232.958 0.5 59.851 0.865 -29.987 0.865 -29.987 0.5 59.851
25257.917 0.5 59.823 0.864 -30.015 0.864 -30.015 0.5 59.823
25282.875 0.501 59.794 0.864 -30.043 0.864 -30.043 0.501 59.794
25307.833 0.501 59.767 0.864 -30.071 0.864 -30.071 0.501 59.767
25332.792 0.502 59.739 0.864 -30.1 0.864 -30.1 0.502 59.739
25357.75 0.502 59.711 0.863 -30.128 0.863 -30.128 0.502 59.711
25382.708 0.502 59.683 0.863 -30.156 0.863 -30.156 0.502 59.683
25407.667 0.503 59.655 0.863 -30.184 0.863 -30.184 0.503 59.655
25432.625 0.503 59.627 0.863 -30.212 0.863 -30.212 0.503 59.627
25457.583 0.504 59.599 0.863 -30.24 0.863 -30.24 0.504 59.599
25482.542 0.504 59.571 0.862 -30.268 0.862 -30.268 0.504 59.571
25507.5 0.504 59.543 0.862 -30.296 0.862 -30.296 0.504 59.543
25532.458 0.505 59.515 0.862 -30.324 0.862 -30.324 0.505 59.515
25557.417 0.505 59.488 0.862 -30.352 0.862 -30.352 0.505 59.488
25582.375 0.506 59.46 0.861 -30.38 0.861 -30.38 0.506 59.46
25607.333 0.506 59.432 0.861 -30.408 0.861 -30.408 0.506 59.432
25632.292 0.507 59.404 0.861 -30.436 0.861 -30.436 0.507 59.404
25657.25 0.507 59.377 0.861 -30.464 0.861 -30.464 0.507 59.377
25682.208 0.507 59.349 0.86 -30.492 0.86 -30.492 0.507 59.349
25707.167 0.508 59.321 0.86 -30.52 0.86 -30.52 0.508 59.321
25732.125 0.508 59.294 0.86 -30.547 0.86 -30.547 0.508 59.294
25757.083 0.509 59.266 0.86 -30.575 0.86 -30.575 0.509 59.266
25782.042 0.509 59.238 0.859 -30.603 0.859 -30.603 0.509 59.238
25807 0.51 59.211 0.859 -30.631 0.859 -30.631 0.51 59.211
25831.958 0.51 59.183 0.859 -30.659 0.859 -30.659 0.51 59.183
25856.917 0.51 59.155 0.859 -30.686 0.859 -30.686 0.51 59.155
25881.875 0.511 59.128 0.858 -30.714 0.858 -30.714 0.511 59.128
25906.833 0.511 59.1 0.858 -30.742 0.858 -30.742 0.511 59.1
25931.792 0.512 59.073 0.858 -30.769 0.858 -30.769 0.512 59.073
25956.75 0.512 59.045 0.858 -30.797 0.858 -30.797 0.512 59.045
25981.708 0.512 59.018 0.857 -30.825 0.857 -30.825 0.512 59.018
26006.667 0.513 58.99 0.857 -30.852 0.857 -30.852 0.513 58.99
26031.625 0.513 58.963 0.857 -30.88 0.857 -30.88 0.513 58.963
26056.583 0.514 58.936 0.857 -30.908 0.857 -30.908 0.514 58.936
26081.542 0.514 58.908 0.856 -30.935 0.856 -30.935 0.514 58.908
26106.5 0.514 58.881 0.856 -30.963 0.856 -30.963 0.514 58.881
26131.458 0.515 58.853 0.856 -30.99 0.856 -30.99 0.515 58.853
26156.417 0.515 58.826 0.856 -31.018 0.856 -31.018 0.515 58.826
26181.375 0.516 58.799 0.855 -31.045 0.855 -31.045 0.516 58.799
26206.333 0.516 58.771 0.855 -31.073 0.855 -31.073 0.516 58.771
26231.292 0.517 58.744 0.855 -31.1 0.855 -31.1 0.517 58.744
26256.25 0.517 58.717 0.855 -31.128 0.855 -31.128 0.517 58.717
26281.208 0.517 58.69 0.854 -31.155 0.854 -31.155 0.517 58.69
26306.167 0.518 58.662 0.854 -31.183 0.854 -31.183 0.518 58.662
26331.125 0.518 58.635 0.854 -31.21 0.854 -31.21 0.518 58.635
26356.083 0.519 58.608 0.854 -31.237 0.854 -31.237 0.519 58.608
26381.042 0.519 58.581 0.853 -31.265 0.853 -31.265 0.519 58.581
26406 0.519 58.554 0.853 -31.292 0.853 -31.292 0.519 58.554
26430.958 0.52 58.526 0.853 -31.319 0.853 -31.319 0.52 58.526
26455.917 0.52 58.499 0.853 -31.347 0.853 -31.347 0.52 58.499
26480.875 0.521 58.472 0.852 -31.374 0.852 -31.374 0.521 58.472
26505.833 0.521 58.445 0.852 -31.401 0.852 -31.401 0.521 58.445
26530.792 0.521 58.418 0.852 -31.428 0.852 -31.428 0.521 58.418
26555.75 0.522 58.391 0.852 -31.456 0.852 -31.456 0.522 58.391
26580.708 0.522 58.364 0.851 -31.483 0.851 -31.483 0.522 58.364
26605.667 0.523 58.337 0.851 -31.51 0.851 -31.51 0.523 58.337
26630.625 0.523 58.31 0.851 -31.537 0.851 -31.537 0.523 58.31
26655.583 0.523 58.283 0.851 -31.564 0.851 -31.564 0.523 58.283
26680.542 0.524 58.256 0.85 -31.591 0.85 -31.591 0.524 58.256
26705.5 0.524 58.229 0.85 -31.618 0.85 -31.618 0.524 58.229
26730.458 0.525 58.202 0.85 -31.646 0.85 -31.646 0.525 58.202
26755.417 0.525 58.175 0.85 -31.673 0.85 -31.673 0.525 58.175
26780.375 0.525 58.148 0.849 -31.7 0.849 -31.7 0.525 58.148
26805.333 0.526 58.122 0.849 -31.727 0.849 -31.727 0.526 58.122
26830.292 0.526 58.095 0.849 -31.754 0.849 -31.754 0.526 58.095
26855.25 0.527 58.068 0.849 -31.781 0.849 -31.781 0.527 58.068
26880.208 0.527 58.041 0.848 -31.808 0.848 -31.808 0.527 58.041
26905.167 0.527 58.014 0.848 -31.835 0.848 -31.835 0.527 58.014
26930.125 0.528 57.987 0.848 -31.862 0.848 -31.862 0.528 57.987
26955.083 0.528 57.961 0.848 -31.888 0.848 -31.888 0.528 57.961
26980.042 0.529 57.934 0.847 -31.915 0.847 -31.915 0.529 57.934
27005 0.529 57.907 0.847 -31.942 0.847 -31.942 0.529 57.907
27029.958 0.529 57.881 0.847 -31.969 0.847 -31.969 0.529 57.881
27054.917 0.53 57.854 0.847 -31.996 0.847 -31.996 0.53 57.854
27079.875 0.53 57.827 0.846 -32.023 0.846 -32.023 0.53 57.827
27104.833 0.531 57.801 0.846 -32.05 0.846 -32.05 0.531 57.801
27129.792 0.531 57.774 0.846 -32.076 0.846 -32.076 0.531 57.774
27154.75 0.531 57.747 0.846 -32.103 0.846 -32.103 0.531 57.747
27179.708 0.532 57.721 0.845 -32.13 0.845 -32.13 0.532 57.721
27204.667 0.532 57.694 0.845 -32.157 0.845 -32.157 0.532 57.694
27229.625 0.533 57.668 0.845 -32.183 0.845 -32.183 0.533 57.668
27254.583 0.533 57.641 0.845 -32.21 0.845 -32.21 0.533 57.641
27279.542 0.533 57.615 0.844 -32.237 0.844 -32.237 0.533 57.615
27304.5 0.534 57.588 0.844 -32.263 0.844 -32.263 0.534 57.588
27329.458 0.534 57.562 0.844 -32.29 0.844 -32.29 0.534 57.562
27354.417 0.535 57.535 0.844 -32.317 0.844 -32.317 0.535 57.535
27379.375 0.535 57.509 0.843 -32.343 0.843 -32.343 0.535 57.509
27404.333 0.535 57.482 0.843 -32.37 0.843 -32.37 0.535 57.482
27429.292 0.536 57.456 0.843 -32.396 0.843 -32.396 0.536 57.456
27454.25 0.536 57.429 0.843 -32.423 0.843 -32.423 0.536 57.429
27479.208 0.537 57.403 0.842 -32.449 0.842 -32.449 0.537 57.403
27504.167 0.537 57.377 0.842 -32.476 0.842 -32.476 0.537 57.377
27529.125 0.537 57.35 0.842 -32.502 0.842 -32.502 0.537 57.35
27554.083 0.538 57.324 0.842 -32.529 0.842 -32.529 0.538 57.324
27579.042 0.538 57.298 0.841 -32.555 0.841 -32.555 0.538 57.298
27604 0.539 57.271 0.841 -32.582 0.841 -32.582 0.539 57.271
27628.958 0.539 57.245 0.841 -32.608 0.841 -32.608 0.539 57.245
27653.917 0.539 57.219 0.841 -32.635 0.841 -32.635 0.539 57.219
27678.875 0.54 57.193 0.841 -32.661 0.841 -32.661 0.54 57.193
27703.833 0.54 57.166 0.84 -32.687 0.84 -32.687 0.54 57.166
27728.792 0.54 57.14 0.84 -32.714 0.84 -32.714 0.54 57.14
27753.75 0.541 57.114 0.84 -32.74 0.84 -32.74 0.541 57.114
27778.708 0.541 57.088 0.84 -32.766 0.84 -32.766 0.541 57.088
27803.667 0.542 57.062 0.839 -32.793 0.839 -32.793 0.542 57.062
27828.625 0.542 57.036 0.839 -32.819 0.839 -32.819 0.542 57.036
27853.583 0.542 57.01 0.839 -32.845 0.839 -32.845 0.542 57.01
27878.542 0.543 56.983 0.839 -32.871 0.839 -32.871 0.543 56.983
27903.5 0.543 56.957 0.838 -32.898 0.838 -32.898 0.543 56.957
27928.458 0.544 56.931 0.838 -32.924 0.838 -32.924 0.544 56.931
27953.417 0.544 56.905 0.838 -32.95 0.838 -32.95 0.544 56.905
27978.375 0.544 56.879 0.838 -32.976 0.838 -32.976 0.544 56.879
28003.333 0.545 56.853 0.837 -33.002 0.837 -33.002 0.545 56.853
28028.292 0.545 56.827 0.837 -33.028 0.837 -33.028 0.545 56.827
28053.25 0.545 56.801 0.837 -33.054 0.837 -33.054 0.545 56.801
28078.208 0.546 56.775 0.837 -33.081 0.837 -33.081 0.546 56.775
28103.167 0.546 56.749 0.836 -33.107 0.836 -33.107 0.546 56.749
28128.125 0.547 56.724 0.836 -33.133 0.836 -33.133 0.547 56.724
28153.083 0.547 56.698 0.836 -33.159 0.836 -33.159 0.547 56.698
28178.042 0.547 56.672 0.836 -33.185 0.836 -33.185 0.547 56.672
28203 0.548 56.646 0.835 -33.211 0.835 -33.211 0.548 56.646
28227.958 0.548 56.62 0.835 -33.237 0.835 -33.237 0.548 56.62
28252.917 0.548 56.594 0.835 -33.263 0.835 -33.263 0.548 56.594
28277.875 0.549 56.568 0.835 -33.289 0.835 -33.289 0.549 56.568
28302.833 0.549 56.543 0.834 -33.315 0.834 -33.315 0.549 56.543
28327.792 0.55 56.517 0.834 -33.34 0.834 -33.34 0.55 56.517
28352.75 0.55 56.491 0.834 -33.366 0.834 -33.366 0.55 56.491
28377.708 0.55 56.465 0.834 -33.392 0.834 -33.392 0.55 56.465
28402.667 0.551 56.44 0.833 -33.418 0.833 -33.418 0.551 56.44
28427.625 0.551 56.414 0.833 -33.444 0.833 -33.444 0.551 56.414
28452.583 0.551 56.388 0.833 -33.47 0.833 -33.47 0.551 56.388
28477.542 0.552 56.363 0.833 -33.496 0.833 -33.496 0.552 56.363
28502.5 0.552 56.337 0.832 -33.521 0.832 -33.521 0.552 56.337
28527.458 0.553 56.311 0.832 -33.547 0.832 -33.547 0.553 56.311
28552.417 0.553 56.286 0.832 -33.573 0.832 -33.573 0.553 56.286
28577.375 0.553 56.26 0.832 -33.599 0.832 -33.599 0.553 56.26
28602.333 0.554 56.235 0.831 -33.624 0.831 -33.624 0.554 56.235
28627.292 0.554 56.209 0.831 -33.65 0.831 -33.65 0.554 56.209
28652.25 0.554 56.183 0.831 -33.676 0.831 -33.676 0.554 56.183
28677.208 0.555 56.158 0.831 -33.701 0.831 -33.701 0.555 56.158
28702.167 0.555 56.132 0.83 -33.727 0.83 -33.727 0.555 56.132
28727.125 0.556 56.107 0.83 -33.753 0.83 -33.753 0.556 56.107
28752.083 0.556 56.081 0.83 -33.778 0.83 -33.778 0.556 56.081
28777.042 0.556 56.056 0.83 -33.804 0.83 -33.804 0.556 56.056
28802 0.557 56.03 0.829 -33.829 0.829 -33.829 0.557 56.03
28826.958 0.557 56.005 0.829 -33.855 0.829 -33.855 0.557 56.005
28851.917 0.557 55.98 0.829 -33.881 0.829 -33.881 0.557 55.98
28876.875 0.558 55.954 0.829 -33.906 0.829 -33.906 0.558 55.954
28901.833 0.558 55.929 0.828 -33.932 0.828 -33.932 0.558 55.929
28926.792 0.559 55.904 0.828 -33.957 0.828 -33.957 0.559 55.904
28951.75 0.559 55.878 0.828 -33.983 0.828 -33.983 0.559 55.878
28976.708 0.559 55.853 0.828 -34.008 0.828 -34.008 0.559 55.853
29001.667 0.56 55.828 0.827 -34.033 0.827 -34.033 0.56 55.828
29026.625 0.56 55.802 0.827 -34.059 0.827 -34.059 0.56 55.802
29051.583 0.56 55.777 0.827 -34.084 0.827 -34.084 0.56 55.777
29076.542 0.561 55.752 0.827 -34.11 0.827 -34.11 0.561 55.752
29101.5 0.561 55.727 0.826 -34.135 0.826 -34.135 0.561 55.727
29126.458 0.562 55.701 0.826 -34.16 0.826 -34.16 0.562 55.701
29151.417 0.562 55.676 0.826 -34.186 0.826 -34.186 0.562 55.676
29176.375 0.562 55.651 0.826 -34.211 0.826 -34.211 0.562 55.651
29201.333 0.563 55.626 0.825 -34.236 0.825 -34.236 0.563 55.626
29226.292 0.563 55.601 0.825 -34.262 0.825 -34.262 0.563 55.601
29251.25 0.563 55.575 0.825 -34.287 0.825 -34.287 0.563 55.575
29276.208 0.564 55.55 0.825 -34.312 0.825 -34.312 0.564 55.55
29301.167 0.564 55.525 0.824 -34.337 0.824 -34.337 0.564 55.525
29326.125 0.564 55.5 0.824 -34.363 0.824 -34.363 0.564 55.5
29351.083 0.565 55.475 0.824 -34.388 0.824 -34.388 0.565 55.475
29376.042 0.565 55.45 0.824 -34.413 0.824 -34.413 0.565 55.45
29401 0.566 55.425 0.823 -34.438 0.823 -34.438 0.566 55.425
29425.958 0.566 55.4 0.823 -34.463 0.823 -34.463 0.566 55.4
29450.917 0.566 55.375 0.823 -34.488 0.823 -34.488 0.566 55.375
29475.875 0.567 55.35 0.823 -34.513 0.823 -34.513 0.567 55.35
29500.833 0.567 55.325 0.822 -34.539 0.822 -34.539 0.567 55.325
29525.792 0.567 55.3 0.822 -34.564 0.822 -34.564 0.567 55.3
29550.75 0.568 55.275 0.822 -34.589 0.822 -34.589 0.568 55.275
29575.708 0.568 55.25 0.822 -34.614 0.822 -34.614 0.568 55.25
29600.667 0.568 55.225 0.821 -34.639 0.821 -34.639 0.568 55.225
29625.625 0.569 55.201 0.821 -34.664 0.821 -34.664 0.569 55.201
29650.583 0.569 55.176 0.821 -34.689 0.821 -34.689 0.569 55.176
29675.542 0.569 55.151 0.821 -34.714 0.821 -34.714 0.569 55.151
29700.5 0.57 55.126 0.82 -34.739 0.82 -34.739 0.57 55.126
29725.458 0.57 55.101 0.82 -34.764 0.82 -34.764 0.57 55.101
29750.417 0.571 55.076 0.82 -34.789 0.82 -34.789 0.571 55.076
29775.375 0.571 55.052 0.82 -34.813 0.82 -34.813 0.571 55.052
29800.333 0.571 55.027 0.819 -34.838 0.819 -34.838 0.571 55.027
29825.292 0.572 55.002 0.819 -34.863 0.819 -34.863 0.572 55.002
29850.25 0.572 54.977 0.819 -34.888 0.819 -34.888 0.572 54.977
29875.208 0.572 54.953 0.819 -34.913 0.819 -34.913 0.572 54.953
29900.167 0.573 54.928 0.818 -34.938 0.818 -34.938 0.573 54.928
29925.125 0.573 54.903 0.818 -34.962 0.818 -34.962 0.573 54.903
29950.083 0.573 54.879 0.818 -34.987 0.818 -34.987 0.573 54.879
29975.042 0.574 54.854 0.818 -35.012 0.818 -35.012 0.574 54.854
30000 0.574 54.829 0.817 -35.037 0.817 -35.037 0.574 54.829
