!	AVX Thin Film Operation 	Date: April 2014		
!	Description: Accu-P® Series, Thin Film  SMD RF Capacitor
!	Part Number: 04025J3R1ABSTR					
!
# MHZ S MA R 50

50 0.995 -5.563 0.097 84.433 0.097 84.433 0.995 -5.563
74.958 0.989 -8.309 0.145 81.685 0.145 81.685 0.989 -8.309
99.917 0.982 -11.018 0.191 78.973 0.191 78.973 0.982 -11.018
124.875 0.972 -13.681 0.237 76.309 0.237 76.309 0.972 -13.681
149.833 0.96 -16.287 0.28 73.701 0.28 73.701 0.96 -16.287
174.792 0.946 -18.828 0.323 71.158 0.323 71.158 0.946 -18.828
199.75 0.932 -21.298 0.363 68.686 0.363 68.686 0.932 -21.298
224.708 0.916 -23.691 0.402 66.291 0.402 66.291 0.916 -23.691
249.667 0.899 -26.003 0.438 63.976 0.438 63.976 0.899 -26.003
274.625 0.881 -28.232 0.473 61.745 0.473 61.745 0.881 -28.232
299.583 0.863 -30.376 0.506 59.6 0.506 59.6 0.863 -30.376
324.542 0.844 -32.434 0.536 57.539 0.536 57.539 0.844 -32.434
349.5 0.825 -34.407 0.565 55.564 0.565 55.564 0.825 -34.407
374.458 0.806 -36.296 0.592 53.673 0.592 53.673 0.806 -36.296
399.417 0.787 -38.102 0.617 51.865 0.617 51.865 0.787 -38.102
424.375 0.768 -39.829 0.64 50.136 0.64 50.136 0.768 -39.829
449.333 0.749 -41.478 0.662 48.485 0.662 48.485 0.749 -41.478
474.292 0.73 -43.052 0.683 46.909 0.683 46.909 0.73 -43.052
499.25 0.712 -44.554 0.702 45.404 0.702 45.404 0.712 -44.554
524.208 0.694 -45.988 0.719 43.968 0.719 43.968 0.694 -45.988
549.167 0.677 -47.357 0.736 42.598 0.736 42.598 0.677 -47.357
574.125 0.66 -48.663 0.751 41.289 0.751 41.289 0.66 -48.663
599.083 0.643 -49.91 0.765 40.04 0.765 40.04 0.643 -49.91
624.042 0.627 -51.101 0.778 38.847 0.778 38.847 0.627 -51.101
649 0.612 -52.239 0.791 37.707 0.791 37.707 0.612 -52.239
673.958 0.596 -53.326 0.802 36.618 0.802 36.618 0.596 -53.326
698.917 0.582 -54.366 0.813 35.576 0.813 35.576 0.582 -54.366
723.875 0.568 -55.36 0.823 34.579 0.823 34.579 0.568 -55.36
748.833 0.554 -56.312 0.832 33.625 0.832 33.625 0.554 -56.312
773.792 0.54 -57.224 0.841 32.711 0.841 32.711 0.54 -57.224
798.75 0.527 -58.098 0.849 31.835 0.849 31.835 0.527 -58.098
823.708 0.515 -58.935 0.857 30.995 0.857 30.995 0.515 -58.935
848.667 0.503 -59.739 0.864 30.189 0.864 30.189 0.503 -59.739
873.625 0.491 -60.511 0.87 29.415 0.87 29.415 0.491 -60.511
898.583 0.48 -61.252 0.877 28.672 0.877 28.672 0.48 -61.252
923.542 0.469 -61.964 0.883 27.957 0.883 27.957 0.469 -61.964
948.5 0.458 -62.65 0.888 27.269 0.888 27.269 0.458 -62.65
973.458 0.448 -63.309 0.893 26.607 0.893 26.607 0.448 -63.309
998.417 0.438 -63.945 0.898 25.97 0.898 25.97 0.438 -63.945
1023.375 0.428 -64.557 0.903 25.355 0.903 25.355 0.428 -64.557
1048.333 0.419 -65.147 0.907 24.762 0.907 24.762 0.419 -65.147
1073.292 0.41 -65.716 0.912 24.191 0.912 24.191 0.41 -65.716
1098.25 0.401 -66.266 0.915 23.638 0.915 23.638 0.401 -66.266
1123.208 0.392 -66.797 0.919 23.105 0.919 23.105 0.392 -66.797
1148.167 0.384 -67.31 0.923 22.589 0.923 22.589 0.384 -67.31
1173.125 0.376 -67.806 0.926 22.091 0.926 22.091 0.376 -67.806
1198.083 0.368 -68.287 0.929 21.608 0.929 21.608 0.368 -68.287
1223.042 0.361 -68.751 0.932 21.14 0.932 21.14 0.361 -68.751
1248 0.353 -69.202 0.935 20.688 0.935 20.688 0.353 -69.202
1272.958 0.346 -69.638 0.938 20.249 0.938 20.249 0.346 -69.638
1297.917 0.339 -70.061 0.94 19.823 0.94 19.823 0.339 -70.061
1322.875 0.332 -70.472 0.942 19.41 0.942 19.41 0.332 -70.472
1347.833 0.326 -70.87 0.945 19.009 0.945 19.009 0.326 -70.87
1372.792 0.319 -71.257 0.947 18.619 0.947 18.619 0.319 -71.257
1397.75 0.313 -71.633 0.949 18.24 0.949 18.24 0.313 -71.633
1422.708 0.307 -71.998 0.951 17.872 0.951 17.872 0.307 -71.998
1447.667 0.301 -72.353 0.953 17.514 0.953 17.514 0.301 -72.353
1472.625 0.295 -72.699 0.955 17.166 0.955 17.166 0.295 -72.699
1497.583 0.289 -73.035 0.956 16.826 0.956 16.826 0.289 -73.035
1522.542 0.284 -73.363 0.958 16.496 0.958 16.496 0.284 -73.363
1547.5 0.279 -73.682 0.96 16.174 0.96 16.174 0.279 -73.682
1572.458 0.273 -73.993 0.961 15.86 0.961 15.86 0.273 -73.993
1597.417 0.268 -74.296 0.963 15.554 0.963 15.554 0.268 -74.296
1622.375 0.263 -74.592 0.964 15.255 0.964 15.255 0.263 -74.592
1647.333 0.258 -74.88 0.965 14.963 0.965 14.963 0.258 -74.88
1672.292 0.253 -75.162 0.967 14.679 0.967 14.679 0.253 -75.162
1697.25 0.249 -75.437 0.968 14.401 0.968 14.401 0.249 -75.437
1722.208 0.244 -75.705 0.969 14.129 0.969 14.129 0.244 -75.705
1747.167 0.24 -75.967 0.97 13.863 0.97 13.863 0.24 -75.967
1772.125 0.235 -76.224 0.971 13.603 0.971 13.603 0.235 -76.224
1797.083 0.231 -76.474 0.972 13.349 0.972 13.349 0.231 -76.474
1822.042 0.227 -76.72 0.973 13.101 0.973 13.101 0.227 -76.72
1847 0.223 -76.96 0.974 12.857 0.974 12.857 0.223 -76.96
1871.958 0.218 -77.194 0.975 12.619 0.975 12.619 0.218 -77.194
1896.917 0.214 -77.424 0.976 12.385 0.976 12.385 0.214 -77.424
1921.875 0.211 -77.649 0.977 12.157 0.977 12.157 0.211 -77.649
1946.833 0.207 -77.87 0.978 11.932 0.978 11.932 0.207 -77.87
1971.792 0.203 -78.086 0.978 11.713 0.978 11.713 0.203 -78.086
1996.75 0.199 -78.297 0.979 11.497 0.979 11.497 0.199 -78.297
2021.708 0.196 -78.505 0.98 11.286 0.98 11.286 0.196 -78.505
2046.667 0.192 -78.708 0.981 11.078 0.981 11.078 0.192 -78.708
2071.625 0.189 -78.908 0.981 10.874 0.981 10.874 0.189 -78.908
2096.583 0.185 -79.104 0.982 10.674 0.982 10.674 0.185 -79.104
2121.542 0.182 -79.296 0.983 10.478 0.983 10.478 0.182 -79.296
2146.5 0.179 -79.485 0.983 10.285 0.983 10.285 0.179 -79.485
2171.458 0.175 -79.67 0.984 10.095 0.984 10.095 0.175 -79.67
2196.417 0.172 -79.852 0.984 9.909 0.984 9.909 0.172 -79.852
2221.375 0.169 -80.03 0.985 9.726 0.985 9.726 0.169 -80.03
2246.333 0.166 -80.206 0.985 9.546 0.985 9.546 0.166 -80.206
2271.292 0.163 -80.378 0.986 9.368 0.986 9.368 0.163 -80.378
2296.25 0.16 -80.548 0.986 9.194 0.986 9.194 0.16 -80.548
2321.208 0.157 -80.714 0.987 9.023 0.987 9.023 0.157 -80.714
2346.167 0.154 -80.878 0.987 8.854 0.987 8.854 0.154 -80.878
2371.125 0.151 -81.039 0.988 8.687 0.988 8.687 0.151 -81.039
2396.083 0.148 -81.197 0.988 8.524 0.988 8.524 0.148 -81.197
2421.042 0.145 -81.353 0.989 8.362 0.989 8.362 0.145 -81.353
2446 0.143 -81.506 0.989 8.204 0.989 8.204 0.143 -81.506
2470.958 0.14 -81.657 0.989 8.047 0.989 8.047 0.14 -81.657
2495.917 0.137 -81.806 0.99 7.893 0.99 7.893 0.137 -81.806
2520.875 0.135 -81.952 0.99 7.741 0.99 7.741 0.135 -81.952
2545.833 0.132 -82.096 0.991 7.591 0.991 7.591 0.132 -82.096
2570.792 0.13 -82.237 0.991 7.443 0.991 7.443 0.13 -82.237
2595.75 0.127 -82.376 0.991 7.297 0.991 7.297 0.127 -82.376
2620.708 0.125 -82.514 0.991 7.153 0.991 7.153 0.125 -82.514
2645.667 0.122 -82.649 0.992 7.011 0.992 7.011 0.122 -82.649
2670.625 0.12 -82.782 0.992 6.871 0.992 6.871 0.12 -82.782
2695.583 0.117 -82.913 0.992 6.733 0.992 6.733 0.117 -82.913
2720.542 0.115 -83.042 0.993 6.596 0.993 6.596 0.115 -83.042
2745.5 0.113 -83.169 0.993 6.462 0.993 6.462 0.113 -83.169
2770.458 0.11 -83.295 0.993 6.328 0.993 6.328 0.11 -83.295
2795.417 0.108 -83.418 0.993 6.197 0.993 6.197 0.108 -83.418
2820.375 0.106 -83.54 0.994 6.067 0.994 6.067 0.106 -83.54
2845.333 0.103 -83.659 0.994 5.939 0.994 5.939 0.103 -83.659
2870.292 0.101 -83.777 0.994 5.812 0.994 5.812 0.101 -83.777
2895.25 0.099 -83.894 0.994 5.687 0.994 5.687 0.099 -83.894
2920.208 0.097 -84.008 0.995 5.563 0.995 5.563 0.097 -84.008
2945.167 0.095 -84.121 0.995 5.44 0.995 5.44 0.095 -84.121
2970.125 0.093 -84.232 0.995 5.319 0.995 5.319 0.093 -84.232
2995.083 0.091 -84.341 0.995 5.199 0.995 5.199 0.091 -84.341
3020.042 0.089 -84.449 0.995 5.081 0.995 5.081 0.089 -84.449
3045 0.087 -84.555 0.996 4.964 0.996 4.964 0.087 -84.555
3069.958 0.085 -84.659 0.996 4.848 0.996 4.848 0.085 -84.659
3094.917 0.083 -84.762 0.996 4.733 0.996 4.733 0.083 -84.762
3119.875 0.081 -84.863 0.996 4.619 0.996 4.619 0.081 -84.863
3144.833 0.079 -84.963 0.996 4.507 0.996 4.507 0.079 -84.963
3169.792 0.077 -85.061 0.996 4.396 0.996 4.396 0.077 -85.061
3194.75 0.075 -85.157 0.996 4.285 0.996 4.285 0.075 -85.157
3219.708 0.073 -85.251 0.997 4.176 0.997 4.176 0.073 -85.251
3244.667 0.071 -85.344 0.997 4.068 0.997 4.068 0.071 -85.344
3269.625 0.069 -85.435 0.997 3.961 0.997 3.961 0.069 -85.435
3294.583 0.067 -85.524 0.997 3.855 0.997 3.855 0.067 -85.524
3319.542 0.065 -85.612 0.997 3.751 0.997 3.751 0.065 -85.612
3344.5 0.064 -85.697 0.997 3.647 0.997 3.647 0.064 -85.697
3369.458 0.062 -85.781 0.997 3.543 0.997 3.543 0.062 -85.781
3394.417 0.06 -85.863 0.997 3.441 0.997 3.441 0.06 -85.863
3419.375 0.058 -85.943 0.998 3.34 0.998 3.34 0.058 -85.943
3444.333 0.057 -86.022 0.998 3.24 0.998 3.24 0.057 -86.022
3469.292 0.055 -86.098 0.998 3.14 0.998 3.14 0.055 -86.098
3494.25 0.053 -86.171 0.998 3.042 0.998 3.042 0.053 -86.171
3519.208 0.051 -86.243 0.998 2.944 0.998 2.944 0.051 -86.243
3544.167 0.05 -86.312 0.998 2.847 0.998 2.847 0.05 -86.312
3569.125 0.048 -86.379 0.998 2.751 0.998 2.751 0.048 -86.379
3594.083 0.046 -86.443 0.998 2.656 0.998 2.656 0.046 -86.443
3619.042 0.045 -86.504 0.998 2.561 0.998 2.561 0.045 -86.504
3644 0.043 -86.562 0.998 2.468 0.998 2.468 0.043 -86.562
3668.958 0.041 -86.617 0.998 2.374 0.998 2.374 0.041 -86.617
3693.917 0.04 -86.669 0.998 2.282 0.998 2.282 0.04 -86.669
3718.875 0.038 -86.717 0.999 2.191 0.999 2.191 0.038 -86.717
3743.833 0.037 -86.76 0.999 2.1 0.999 2.1 0.037 -86.76
3768.792 0.035 -86.799 0.999 2.009 0.999 2.009 0.035 -86.799
3793.75 0.034 -86.833 0.999 1.92 0.999 1.92 0.034 -86.833
3818.708 0.032 -86.861 0.999 1.831 0.999 1.831 0.032 -86.861
3843.667 0.03 -86.883 0.999 1.743 0.999 1.743 0.03 -86.883
3868.625 0.029 -86.898 0.999 1.655 0.999 1.655 0.029 -86.898
3893.583 0.027 -86.905 0.999 1.568 0.999 1.568 0.027 -86.905
3918.542 0.026 -86.902 0.999 1.482 0.999 1.482 0.026 -86.902
3943.5 0.024 -86.889 0.999 1.396 0.999 1.396 0.024 -86.889
3968.458 0.023 -86.863 0.999 1.311 0.999 1.311 0.023 -86.863
3993.417 0.021 -86.821 0.999 1.226 0.999 1.226 0.021 -86.821
4018.375 0.02 -86.762 0.999 1.142 0.999 1.142 0.02 -86.762
4043.333 0.018 -86.68 0.999 1.059 0.999 1.059 0.018 -86.68
4068.292 0.017 -86.571 0.999 0.976 0.999 0.976 0.017 -86.571
4093.25 0.016 -86.428 0.999 0.894 0.999 0.894 0.016 -86.428
4118.208 0.014 -86.24 0.999 0.812 0.999 0.812 0.014 -86.24
4143.167 0.013 -85.994 0.999 0.73 0.999 0.73 0.013 -85.994
4168.125 0.011 -85.668 0.999 0.65 0.999 0.65 0.011 -85.668
4193.083 9.962e-3 -85.23 0.999 0.569 0.999 0.569 9.962e-3 -85.23
4218.042 8.574e-3 -84.628 0.999 0.489 0.999 0.489 8.574e-3 -84.628
4243 7.195e-3 -83.769 0.999 0.41 0.999 0.41 7.195e-3 -83.769
4267.958 5.828e-3 -82.476 0.999 0.331 0.999 0.331 5.828e-3 -82.476
4292.917 4.474e-3 -80.361 0.999 0.253 0.999 0.253 4.474e-3 -80.361
4317.875 3.14e-3 -76.389 0.999 0.175 0.999 0.175 3.14e-3 -76.389
4342.833 1.852e-3 -66.702 0.999 0.098 0.999 0.098 1.852e-3 -66.702
4367.792 812.9e-6 -26.132 0.999 0.021 0.999 0.021 812.9e-6 -26.132
4392.75 1.22e-3 53.222 0.999 -0.056 0.999 -0.056 1.22e-3 53.222
4417.708 2.42e-3 72.317 0.999 -0.132 0.999 -0.132 2.42e-3 72.317
4442.667 3.701e-3 78.422 0.999 -0.208 0.999 -0.208 3.701e-3 78.422
4467.625 4.996e-3 81.319 0.999 -0.283 0.999 -0.283 4.996e-3 81.319
4492.583 6.292e-3 82.983 0.999 -0.358 0.999 -0.358 6.292e-3 82.983
4517.542 7.585e-3 84.047 0.999 -0.433 0.999 -0.433 7.585e-3 84.047
4542.5 8.873e-3 84.776 0.999 -0.507 0.999 -0.507 8.873e-3 84.776
4567.458 0.01 85.299 0.999 -0.58 0.999 -0.58 0.01 85.299
4592.417 0.011 85.687 0.999 -0.654 0.999 -0.654 0.011 85.687
4617.375 0.013 85.98 0.999 -0.727 0.999 -0.727 0.013 85.98
4642.333 0.014 86.206 0.999 -0.799 0.999 -0.799 0.014 86.206
4667.292 0.015 86.382 0.999 -0.871 0.999 -0.871 0.015 86.382
4692.25 0.016 86.519 0.999 -0.943 0.999 -0.943 0.016 86.519
4717.208 0.018 86.626 0.999 -1.015 0.999 -1.015 0.018 86.626
4742.167 0.019 86.709 0.999 -1.086 0.999 -1.086 0.019 86.709
4767.125 0.02 86.773 0.999 -1.156 0.999 -1.156 0.02 86.773
4792.083 0.021 86.822 0.999 -1.227 0.999 -1.227 0.021 86.822
4817.042 0.023 86.857 0.999 -1.297 0.999 -1.297 0.023 86.857
4842 0.024 86.881 0.999 -1.367 0.999 -1.367 0.024 86.881
4866.958 0.025 86.897 0.999 -1.436 0.999 -1.436 0.025 86.897
4891.917 0.026 86.904 0.999 -1.505 0.999 -1.505 0.026 86.904
4916.875 0.027 86.905 0.999 -1.574 0.999 -1.574 0.027 86.905
4941.833 0.029 86.9 0.999 -1.643 0.999 -1.643 0.029 86.9
4966.792 0.03 86.89 0.999 -1.711 0.999 -1.711 0.03 86.89
4991.75 0.031 86.875 0.999 -1.779 0.999 -1.779 0.031 86.875
5016.708 0.032 86.857 0.999 -1.846 0.999 -1.846 0.032 86.857
5041.667 0.033 86.835 0.999 -1.913 0.999 -1.913 0.033 86.835
5066.625 0.035 86.811 0.999 -1.98 0.999 -1.98 0.035 86.811
5091.583 0.036 86.783 0.999 -2.047 0.999 -2.047 0.036 86.783
5116.542 0.037 86.754 0.999 -2.113 0.999 -2.113 0.037 86.754
5141.5 0.038 86.722 0.999 -2.18 0.999 -2.18 0.038 86.722
5166.458 0.039 86.688 0.999 -2.245 0.999 -2.245 0.039 86.688
5191.417 0.04 86.653 0.998 -2.311 0.998 -2.311 0.04 86.653
5216.375 0.041 86.616 0.998 -2.376 0.998 -2.376 0.041 86.616
5241.333 0.043 86.578 0.998 -2.441 0.998 -2.441 0.043 86.578
5266.292 0.044 86.539 0.998 -2.506 0.998 -2.506 0.044 86.539
5291.25 0.045 86.498 0.998 -2.571 0.998 -2.571 0.045 86.498
5316.208 0.046 86.457 0.998 -2.635 0.998 -2.635 0.046 86.457
5341.167 0.047 86.414 0.998 -2.699 0.998 -2.699 0.047 86.414
5366.125 0.048 86.371 0.998 -2.763 0.998 -2.763 0.048 86.371
5391.083 0.049 86.327 0.998 -2.826 0.998 -2.826 0.049 86.327
5416.042 0.05 86.282 0.998 -2.89 0.998 -2.89 0.05 86.282
5441 0.052 86.237 0.998 -2.953 0.998 -2.953 0.052 86.237
5465.958 0.053 86.191 0.998 -3.016 0.998 -3.016 0.053 86.191
5490.917 0.054 86.144 0.998 -3.078 0.998 -3.078 0.054 86.144
5515.875 0.055 86.097 0.998 -3.141 0.998 -3.141 0.055 86.097
5540.833 0.056 86.05 0.998 -3.203 0.998 -3.203 0.056 86.05
5565.792 0.057 86.002 0.998 -3.265 0.998 -3.265 0.057 86.002
5590.75 0.058 85.954 0.998 -3.326 0.998 -3.326 0.058 85.954
5615.708 0.059 85.906 0.998 -3.388 0.998 -3.388 0.059 85.906
5640.667 0.06 85.857 0.997 -3.449 0.997 -3.449 0.06 85.857
5665.625 0.061 85.808 0.997 -3.51 0.997 -3.51 0.061 85.808
5690.583 0.062 85.759 0.997 -3.571 0.997 -3.571 0.062 85.759
5715.542 0.063 85.71 0.997 -3.632 0.997 -3.632 0.063 85.71
5740.5 0.064 85.66 0.997 -3.692 0.997 -3.692 0.064 85.66
5765.458 0.065 85.61 0.997 -3.752 0.997 -3.752 0.065 85.61
5790.417 0.066 85.56 0.997 -3.813 0.997 -3.813 0.066 85.56
5815.375 0.068 85.51 0.997 -3.872 0.997 -3.872 0.068 85.51
5840.333 0.069 85.46 0.997 -3.932 0.997 -3.932 0.069 85.46
5865.292 0.07 85.409 0.997 -3.992 0.997 -3.992 0.07 85.409
5890.25 0.071 85.359 0.997 -4.051 0.997 -4.051 0.071 85.359
5915.208 0.072 85.308 0.997 -4.11 0.997 -4.11 0.072 85.308
5940.167 0.073 85.258 0.997 -4.169 0.997 -4.169 0.073 85.258
5965.125 0.074 85.207 0.997 -4.228 0.997 -4.228 0.074 85.207
5990.083 0.075 85.156 0.996 -4.286 0.996 -4.286 0.075 85.156
6015.042 0.076 85.105 0.996 -4.344 0.996 -4.344 0.076 85.105
6040 0.077 85.054 0.996 -4.403 0.996 -4.403 0.077 85.054
6064.958 0.078 85.003 0.996 -4.461 0.996 -4.461 0.078 85.003
6089.917 0.079 84.952 0.996 -4.518 0.996 -4.518 0.079 84.952
6114.875 0.08 84.902 0.996 -4.576 0.996 -4.576 0.08 84.902
6139.833 0.081 84.851 0.996 -4.634 0.996 -4.634 0.081 84.851
6164.792 0.082 84.8 0.996 -4.691 0.996 -4.691 0.082 84.8
6189.75 0.083 84.748 0.996 -4.748 0.996 -4.748 0.083 84.748
6214.708 0.084 84.697 0.996 -4.805 0.996 -4.805 0.084 84.697
6239.667 0.085 84.646 0.996 -4.862 0.996 -4.862 0.085 84.646
6264.625 0.086 84.595 0.996 -4.919 0.996 -4.919 0.086 84.595
6289.583 0.087 84.544 0.996 -4.975 0.996 -4.975 0.087 84.544
6314.542 0.088 84.494 0.995 -5.032 0.995 -5.032 0.088 84.494
6339.5 0.089 84.443 0.995 -5.088 0.995 -5.088 0.089 84.443
6364.458 0.09 84.392 0.995 -5.144 0.995 -5.144 0.09 84.392
6389.417 0.091 84.341 0.995 -5.2 0.995 -5.2 0.091 84.341
6414.375 0.092 84.29 0.995 -5.256 0.995 -5.256 0.092 84.29
6439.333 0.093 84.239 0.995 -5.311 0.995 -5.311 0.093 84.239
6464.292 0.094 84.188 0.995 -5.367 0.995 -5.367 0.094 84.188
6489.25 0.094 84.137 0.995 -5.422 0.995 -5.422 0.094 84.137
6514.208 0.095 84.087 0.995 -5.477 0.995 -5.477 0.095 84.087
6539.167 0.096 84.036 0.995 -5.532 0.995 -5.532 0.096 84.036
6564.125 0.097 83.985 0.995 -5.587 0.995 -5.587 0.097 83.985
6589.083 0.098 83.935 0.994 -5.642 0.994 -5.642 0.098 83.935
6614.042 0.099 83.884 0.994 -5.697 0.994 -5.697 0.099 83.884
6639 0.1 83.834 0.994 -5.751 0.994 -5.751 0.1 83.834
6663.958 0.101 83.783 0.994 -5.805 0.994 -5.805 0.101 83.783
6688.917 0.102 83.733 0.994 -5.86 0.994 -5.86 0.102 83.733
6713.875 0.103 83.683 0.994 -5.914 0.994 -5.914 0.103 83.683
6738.833 0.104 83.632 0.994 -5.968 0.994 -5.968 0.104 83.632
6763.792 0.105 83.582 0.994 -6.022 0.994 -6.022 0.105 83.582
6788.75 0.106 83.532 0.994 -6.075 0.994 -6.075 0.106 83.532
6813.708 0.107 83.482 0.994 -6.129 0.994 -6.129 0.107 83.482
6838.667 0.108 83.432 0.993 -6.182 0.993 -6.182 0.108 83.432
6863.625 0.109 83.382 0.993 -6.236 0.993 -6.236 0.109 83.382
6888.583 0.11 83.332 0.993 -6.289 0.993 -6.289 0.11 83.332
6913.542 0.11 83.282 0.993 -6.342 0.993 -6.342 0.11 83.282
6938.5 0.111 83.232 0.993 -6.395 0.993 -6.395 0.111 83.232
6963.458 0.112 83.182 0.993 -6.448 0.993 -6.448 0.112 83.182
6988.417 0.113 83.133 0.993 -6.501 0.993 -6.501 0.113 83.133
7013.375 0.114 83.083 0.993 -6.553 0.993 -6.553 0.114 83.083
7038.333 0.115 83.033 0.993 -6.606 0.993 -6.606 0.115 83.033
7063.292 0.116 82.984 0.993 -6.658 0.993 -6.658 0.116 82.984
7088.25 0.117 82.934 0.992 -6.71 0.992 -6.71 0.117 82.934
7113.208 0.118 82.885 0.992 -6.763 0.992 -6.763 0.118 82.885
7138.167 0.119 82.836 0.992 -6.815 0.992 -6.815 0.119 82.836
7163.125 0.12 82.786 0.992 -6.866 0.992 -6.866 0.12 82.786
7188.083 0.12 82.737 0.992 -6.918 0.992 -6.918 0.12 82.737
7213.042 0.121 82.688 0.992 -6.97 0.992 -6.97 0.121 82.688
7238 0.122 82.639 0.992 -7.022 0.992 -7.022 0.122 82.639
7262.958 0.123 82.59 0.992 -7.073 0.992 -7.073 0.123 82.59
7287.917 0.124 82.541 0.992 -7.125 0.992 -7.125 0.124 82.541
7312.875 0.125 82.492 0.991 -7.176 0.991 -7.176 0.125 82.492
7337.833 0.126 82.443 0.991 -7.227 0.991 -7.227 0.126 82.443
7362.792 0.127 82.394 0.991 -7.278 0.991 -7.278 0.127 82.394
7387.75 0.128 82.346 0.991 -7.329 0.991 -7.329 0.128 82.346
7412.708 0.128 82.297 0.991 -7.38 0.991 -7.38 0.128 82.297
7437.667 0.129 82.249 0.991 -7.431 0.991 -7.431 0.129 82.249
7462.625 0.13 82.2 0.991 -7.481 0.991 -7.481 0.13 82.2
7487.583 0.131 82.152 0.991 -7.532 0.991 -7.532 0.131 82.152
7512.542 0.132 82.103 0.991 -7.583 0.991 -7.583 0.132 82.103
7537.5 0.133 82.055 0.99 -7.633 0.99 -7.633 0.133 82.055
7562.458 0.134 82.007 0.99 -7.683 0.99 -7.683 0.134 82.007
7587.417 0.135 81.959 0.99 -7.733 0.99 -7.733 0.135 81.959
7612.375 0.135 81.911 0.99 -7.784 0.99 -7.784 0.135 81.911
7637.333 0.136 81.863 0.99 -7.834 0.99 -7.834 0.136 81.863
7662.292 0.137 81.815 0.99 -7.884 0.99 -7.884 0.137 81.815
7687.25 0.138 81.767 0.99 -7.933 0.99 -7.933 0.138 81.767
7712.208 0.139 81.719 0.99 -7.983 0.99 -7.983 0.139 81.719
7737.167 0.14 81.671 0.989 -8.033 0.989 -8.033 0.14 81.671
7762.125 0.141 81.623 0.989 -8.082 0.989 -8.082 0.141 81.623
7787.083 0.141 81.576 0.989 -8.132 0.989 -8.132 0.141 81.576
7812.042 0.142 81.528 0.989 -8.181 0.989 -8.181 0.142 81.528
7837 0.143 81.48 0.989 -8.23 0.989 -8.23 0.143 81.48
7861.958 0.144 81.433 0.989 -8.28 0.989 -8.28 0.144 81.433
7886.917 0.145 81.386 0.989 -8.329 0.989 -8.329 0.145 81.386
7911.875 0.146 81.338 0.989 -8.378 0.989 -8.378 0.146 81.338
7936.833 0.147 81.291 0.988 -8.427 0.988 -8.427 0.147 81.291
7961.792 0.147 81.244 0.988 -8.476 0.988 -8.476 0.147 81.244
7986.75 0.148 81.197 0.988 -8.524 0.988 -8.524 0.148 81.197
8011.708 0.149 81.15 0.988 -8.573 0.988 -8.573 0.149 81.15
8036.667 0.15 81.102 0.988 -8.622 0.988 -8.622 0.15 81.102
8061.625 0.151 81.056 0.988 -8.67 0.988 -8.67 0.151 81.056
8086.583 0.152 81.009 0.988 -8.719 0.988 -8.719 0.152 81.009
8111.542 0.152 80.962 0.988 -8.767 0.988 -8.767 0.152 80.962
8136.5 0.153 80.915 0.987 -8.815 0.987 -8.815 0.153 80.915
8161.458 0.154 80.868 0.987 -8.864 0.987 -8.864 0.154 80.868
8186.417 0.155 80.822 0.987 -8.912 0.987 -8.912 0.155 80.822
8211.375 0.156 80.775 0.987 -8.96 0.987 -8.96 0.156 80.775
8236.333 0.157 80.728 0.987 -9.008 0.987 -9.008 0.157 80.728
8261.292 0.157 80.682 0.987 -9.056 0.987 -9.056 0.157 80.682
8286.25 0.158 80.635 0.987 -9.104 0.987 -9.104 0.158 80.635
8311.208 0.159 80.589 0.987 -9.151 0.987 -9.151 0.159 80.589
8336.167 0.16 80.543 0.986 -9.199 0.986 -9.199 0.16 80.543
8361.125 0.161 80.497 0.986 -9.247 0.986 -9.247 0.161 80.497
8386.083 0.162 80.45 0.986 -9.294 0.986 -9.294 0.162 80.45
8411.042 0.162 80.404 0.986 -9.342 0.986 -9.342 0.162 80.404
8436 0.163 80.358 0.986 -9.389 0.986 -9.389 0.163 80.358
8460.958 0.164 80.312 0.986 -9.436 0.986 -9.436 0.164 80.312
8485.917 0.165 80.266 0.986 -9.484 0.986 -9.484 0.165 80.266
8510.875 0.166 80.22 0.985 -9.531 0.985 -9.531 0.166 80.22
8535.833 0.166 80.174 0.985 -9.578 0.985 -9.578 0.166 80.174
8560.792 0.167 80.129 0.985 -9.625 0.985 -9.625 0.167 80.129
8585.75 0.168 80.083 0.985 -9.672 0.985 -9.672 0.168 80.083
8610.708 0.169 80.037 0.985 -9.719 0.985 -9.719 0.169 80.037
8635.667 0.17 79.992 0.985 -9.766 0.985 -9.766 0.17 79.992
8660.625 0.17 79.946 0.985 -9.812 0.985 -9.812 0.17 79.946
8685.583 0.171 79.9 0.985 -9.859 0.985 -9.859 0.171 79.9
8710.542 0.172 79.855 0.984 -9.906 0.984 -9.906 0.172 79.855
8735.5 0.173 79.81 0.984 -9.952 0.984 -9.952 0.173 79.81
8760.458 0.174 79.764 0.984 -9.999 0.984 -9.999 0.174 79.764
8785.417 0.174 79.719 0.984 -10.045 0.984 -10.045 0.174 79.719
8810.375 0.175 79.674 0.984 -10.091 0.984 -10.091 0.175 79.674
8835.333 0.176 79.628 0.984 -10.138 0.984 -10.138 0.176 79.628
8860.292 0.177 79.583 0.984 -10.184 0.984 -10.184 0.177 79.583
8885.25 0.178 79.538 0.983 -10.23 0.983 -10.23 0.178 79.538
8910.208 0.178 79.493 0.983 -10.276 0.983 -10.276 0.178 79.493
8935.167 0.179 79.448 0.983 -10.322 0.983 -10.322 0.179 79.448
8960.125 0.18 79.403 0.983 -10.368 0.983 -10.368 0.18 79.403
8985.083 0.181 79.358 0.983 -10.414 0.983 -10.414 0.181 79.358
9010.042 0.182 79.314 0.983 -10.46 0.983 -10.46 0.182 79.314
9035 0.182 79.269 0.983 -10.506 0.983 -10.506 0.182 79.269
9059.958 0.183 79.224 0.982 -10.551 0.982 -10.551 0.183 79.224
9084.917 0.184 79.179 0.982 -10.597 0.982 -10.597 0.184 79.179
9109.875 0.185 79.135 0.982 -10.643 0.982 -10.643 0.185 79.135
9134.833 0.185 79.09 0.982 -10.688 0.982 -10.688 0.185 79.09
9159.792 0.186 79.046 0.982 -10.734 0.982 -10.734 0.186 79.046
9184.75 0.187 79.001 0.982 -10.779 0.982 -10.779 0.187 79.001
9209.708 0.188 78.957 0.981 -10.825 0.981 -10.825 0.188 78.957
9234.667 0.189 78.912 0.981 -10.87 0.981 -10.87 0.189 78.912
9259.625 0.189 78.868 0.981 -10.915 0.981 -10.915 0.189 78.868
9284.583 0.19 78.824 0.981 -10.96 0.981 -10.96 0.19 78.824
9309.542 0.191 78.78 0.981 -11.005 0.981 -11.005 0.191 78.78
9334.5 0.192 78.735 0.981 -11.05 0.981 -11.05 0.192 78.735
9359.458 0.192 78.691 0.981 -11.095 0.981 -11.095 0.192 78.691
9384.417 0.193 78.647 0.98 -11.14 0.98 -11.14 0.193 78.647
9409.375 0.194 78.603 0.98 -11.185 0.98 -11.185 0.194 78.603
9434.333 0.195 78.559 0.98 -11.23 0.98 -11.23 0.195 78.559
9459.292 0.196 78.515 0.98 -11.275 0.98 -11.275 0.196 78.515
9484.25 0.196 78.471 0.98 -11.32 0.98 -11.32 0.196 78.471
9509.208 0.197 78.428 0.98 -11.364 0.98 -11.364 0.197 78.428
9534.167 0.198 78.384 0.98 -11.409 0.98 -11.409 0.198 78.384
9559.125 0.199 78.34 0.979 -11.454 0.979 -11.454 0.199 78.34
9584.083 0.199 78.296 0.979 -11.498 0.979 -11.498 0.199 78.296
9609.042 0.2 78.253 0.979 -11.542 0.979 -11.542 0.2 78.253
9634 0.201 78.209 0.979 -11.587 0.979 -11.587 0.201 78.209
9658.958 0.202 78.166 0.979 -11.631 0.979 -11.631 0.202 78.166
9683.917 0.202 78.122 0.979 -11.676 0.979 -11.676 0.202 78.122
9708.875 0.203 78.079 0.978 -11.72 0.978 -11.72 0.203 78.079
9733.833 0.204 78.035 0.978 -11.764 0.978 -11.764 0.204 78.035
9758.792 0.205 77.992 0.978 -11.808 0.978 -11.808 0.205 77.992
9783.75 0.205 77.949 0.978 -11.852 0.978 -11.852 0.205 77.949
9808.708 0.206 77.905 0.978 -11.896 0.978 -11.896 0.206 77.905
9833.667 0.207 77.862 0.978 -11.94 0.978 -11.94 0.207 77.862
9858.625 0.208 77.819 0.977 -11.984 0.977 -11.984 0.208 77.819
9883.583 0.208 77.776 0.977 -12.028 0.977 -12.028 0.208 77.776
9908.542 0.209 77.733 0.977 -12.072 0.977 -12.072 0.209 77.733
9933.5 0.21 77.69 0.977 -12.116 0.977 -12.116 0.21 77.69
9958.458 0.211 77.647 0.977 -12.159 0.977 -12.159 0.211 77.647
9983.417 0.211 77.604 0.977 -12.203 0.977 -12.203 0.211 77.604
10008.375 0.212 77.561 0.977 -12.247 0.977 -12.247 0.212 77.561
10033.333 0.213 77.518 0.976 -12.29 0.976 -12.29 0.213 77.518
10058.292 0.214 77.475 0.976 -12.334 0.976 -12.334 0.214 77.475
10083.25 0.214 77.432 0.976 -12.377 0.976 -12.377 0.214 77.432
10108.208 0.215 77.389 0.976 -12.421 0.976 -12.421 0.215 77.389
10133.167 0.216 77.347 0.976 -12.464 0.976 -12.464 0.216 77.347
10158.125 0.217 77.304 0.976 -12.507 0.976 -12.507 0.217 77.304
10183.083 0.217 77.261 0.975 -12.551 0.975 -12.551 0.217 77.261
10208.042 0.218 77.219 0.975 -12.594 0.975 -12.594 0.218 77.219
10233 0.219 77.176 0.975 -12.637 0.975 -12.637 0.219 77.176
10257.958 0.22 77.134 0.975 -12.68 0.975 -12.68 0.22 77.134
10282.917 0.22 77.091 0.975 -12.723 0.975 -12.723 0.22 77.091
10307.875 0.221 77.049 0.975 -12.767 0.975 -12.767 0.221 77.049
10332.833 0.222 77.007 0.974 -12.81 0.974 -12.81 0.222 77.007
10357.792 0.222 76.964 0.974 -12.852 0.974 -12.852 0.222 76.964
10382.75 0.223 76.922 0.974 -12.895 0.974 -12.895 0.223 76.922
10407.708 0.224 76.88 0.974 -12.938 0.974 -12.938 0.224 76.88
10432.667 0.225 76.838 0.974 -12.981 0.974 -12.981 0.225 76.838
10457.625 0.225 76.795 0.974 -13.024 0.974 -13.024 0.225 76.795
10482.583 0.226 76.753 0.973 -13.067 0.973 -13.067 0.226 76.753
10507.542 0.227 76.711 0.973 -13.109 0.973 -13.109 0.227 76.711
10532.5 0.228 76.669 0.973 -13.152 0.973 -13.152 0.228 76.669
10557.458 0.228 76.627 0.973 -13.195 0.973 -13.195 0.228 76.627
10582.417 0.229 76.585 0.973 -13.237 0.973 -13.237 0.229 76.585
10607.375 0.23 76.543 0.973 -13.28 0.973 -13.28 0.23 76.543
10632.333 0.23 76.501 0.972 -13.322 0.972 -13.322 0.23 76.501
10657.292 0.231 76.459 0.972 -13.365 0.972 -13.365 0.231 76.459
10682.25 0.232 76.418 0.972 -13.407 0.972 -13.407 0.232 76.418
10707.208 0.233 76.376 0.972 -13.449 0.972 -13.449 0.233 76.376
10732.167 0.233 76.334 0.972 -13.492 0.972 -13.492 0.233 76.334
10757.125 0.234 76.292 0.972 -13.534 0.972 -13.534 0.234 76.292
10782.083 0.235 76.251 0.971 -13.576 0.971 -13.576 0.235 76.251
10807.042 0.235 76.209 0.971 -13.618 0.971 -13.618 0.235 76.209
10832 0.236 76.168 0.971 -13.66 0.971 -13.66 0.236 76.168
10856.958 0.237 76.126 0.971 -13.702 0.971 -13.702 0.237 76.126
10881.917 0.238 76.085 0.971 -13.744 0.971 -13.744 0.238 76.085
10906.875 0.238 76.043 0.97 -13.786 0.97 -13.786 0.238 76.043
10931.833 0.239 76.002 0.97 -13.828 0.97 -13.828 0.239 76.002
10956.792 0.24 75.96 0.97 -13.87 0.97 -13.87 0.24 75.96
10981.75 0.24 75.919 0.97 -13.912 0.97 -13.912 0.24 75.919
11006.708 0.241 75.878 0.97 -13.954 0.97 -13.954 0.241 75.878
11031.667 0.242 75.836 0.97 -13.996 0.97 -13.996 0.242 75.836
11056.625 0.243 75.795 0.969 -14.038 0.969 -14.038 0.243 75.795
11081.583 0.243 75.754 0.969 -14.079 0.969 -14.079 0.243 75.754
11106.542 0.244 75.713 0.969 -14.121 0.969 -14.121 0.244 75.713
11131.5 0.245 75.672 0.969 -14.163 0.969 -14.163 0.245 75.672
11156.458 0.245 75.631 0.969 -14.204 0.969 -14.204 0.245 75.631
11181.417 0.246 75.59 0.969 -14.246 0.969 -14.246 0.246 75.59
11206.375 0.247 75.549 0.968 -14.287 0.968 -14.287 0.247 75.549
11231.333 0.247 75.508 0.968 -14.329 0.968 -14.329 0.247 75.508
11256.292 0.248 75.467 0.968 -14.37 0.968 -14.37 0.248 75.467
11281.25 0.249 75.426 0.968 -14.411 0.968 -14.411 0.249 75.426
11306.208 0.25 75.385 0.968 -14.453 0.968 -14.453 0.25 75.385
11331.167 0.25 75.344 0.967 -14.494 0.967 -14.494 0.25 75.344
11356.125 0.251 75.303 0.967 -14.535 0.967 -14.535 0.251 75.303
11381.083 0.252 75.263 0.967 -14.577 0.967 -14.577 0.252 75.263
11406.042 0.252 75.222 0.967 -14.618 0.967 -14.618 0.252 75.222
11431 0.253 75.181 0.967 -14.659 0.967 -14.659 0.253 75.181
11455.958 0.254 75.14 0.967 -14.7 0.967 -14.7 0.254 75.14
11480.917 0.254 75.1 0.966 -14.741 0.966 -14.741 0.254 75.1
11505.875 0.255 75.059 0.966 -14.782 0.966 -14.782 0.255 75.059
11530.833 0.256 75.019 0.966 -14.823 0.966 -14.823 0.256 75.019
11555.792 0.257 74.978 0.966 -14.864 0.966 -14.864 0.257 74.978
11580.75 0.257 74.938 0.966 -14.905 0.966 -14.905 0.257 74.938
11605.708 0.258 74.897 0.965 -14.946 0.965 -14.946 0.258 74.897
11630.667 0.259 74.857 0.965 -14.987 0.965 -14.987 0.259 74.857
11655.625 0.259 74.817 0.965 -15.028 0.965 -15.028 0.259 74.817
11680.583 0.26 74.776 0.965 -15.068 0.965 -15.068 0.26 74.776
11705.542 0.261 74.736 0.965 -15.109 0.965 -15.109 0.261 74.736
11730.5 0.261 74.696 0.965 -15.15 0.965 -15.15 0.261 74.696
11755.458 0.262 74.655 0.964 -15.191 0.964 -15.191 0.262 74.655
11780.417 0.263 74.615 0.964 -15.231 0.964 -15.231 0.263 74.615
11805.375 0.263 74.575 0.964 -15.272 0.964 -15.272 0.263 74.575
11830.333 0.264 74.535 0.964 -15.312 0.964 -15.312 0.264 74.535
11855.292 0.265 74.495 0.964 -15.353 0.964 -15.353 0.265 74.495
11880.25 0.265 74.455 0.963 -15.393 0.963 -15.393 0.265 74.455
11905.208 0.266 74.415 0.963 -15.434 0.963 -15.434 0.266 74.415
11930.167 0.267 74.375 0.963 -15.474 0.963 -15.474 0.267 74.375
11955.125 0.267 74.335 0.963 -15.515 0.963 -15.515 0.267 74.335
11980.083 0.268 74.295 0.963 -15.555 0.963 -15.555 0.268 74.295
12005.042 0.269 74.255 0.962 -15.595 0.962 -15.595 0.269 74.255
12030 0.27 74.215 0.962 -15.636 0.962 -15.636 0.27 74.215
12054.958 0.27 74.175 0.962 -15.676 0.962 -15.676 0.27 74.175
12079.917 0.271 74.135 0.962 -15.716 0.962 -15.716 0.271 74.135
12104.875 0.272 74.096 0.962 -15.756 0.962 -15.756 0.272 74.096
12129.833 0.272 74.056 0.962 -15.796 0.962 -15.796 0.272 74.056
12154.792 0.273 74.016 0.961 -15.836 0.961 -15.836 0.273 74.016
12179.75 0.274 73.977 0.961 -15.876 0.961 -15.876 0.274 73.977
12204.708 0.274 73.937 0.961 -15.916 0.961 -15.916 0.274 73.937
12229.667 0.275 73.897 0.961 -15.956 0.961 -15.956 0.275 73.897
12254.625 0.276 73.858 0.961 -15.996 0.961 -15.996 0.276 73.858
12279.583 0.276 73.818 0.96 -16.036 0.96 -16.036 0.276 73.818
12304.542 0.277 73.779 0.96 -16.076 0.96 -16.076 0.277 73.779
12329.5 0.278 73.739 0.96 -16.116 0.96 -16.116 0.278 73.739
12354.458 0.278 73.7 0.96 -16.156 0.96 -16.156 0.278 73.7
12379.417 0.279 73.66 0.96 -16.196 0.96 -16.196 0.279 73.66
12404.375 0.28 73.621 0.959 -16.235 0.959 -16.235 0.28 73.621
12429.333 0.28 73.582 0.959 -16.275 0.959 -16.275 0.28 73.582
12454.292 0.281 73.542 0.959 -16.315 0.959 -16.315 0.281 73.542
12479.25 0.282 73.503 0.959 -16.355 0.959 -16.355 0.282 73.503
12504.208 0.282 73.464 0.959 -16.394 0.959 -16.394 0.282 73.464
12529.167 0.283 73.425 0.958 -16.434 0.958 -16.434 0.283 73.425
12554.125 0.284 73.385 0.958 -16.473 0.958 -16.473 0.284 73.385
12579.083 0.284 73.346 0.958 -16.513 0.958 -16.513 0.284 73.346
12604.042 0.285 73.307 0.958 -16.552 0.958 -16.552 0.285 73.307
12629 0.286 73.268 0.958 -16.592 0.958 -16.592 0.286 73.268
12653.958 0.286 73.229 0.957 -16.631 0.957 -16.631 0.286 73.229
12678.917 0.287 73.19 0.957 -16.671 0.957 -16.671 0.287 73.19
12703.875 0.288 73.151 0.957 -16.71 0.957 -16.71 0.288 73.151
12728.833 0.288 73.112 0.957 -16.749 0.957 -16.749 0.288 73.112
12753.792 0.289 73.073 0.957 -16.788 0.957 -16.788 0.289 73.073
12778.75 0.289 73.034 0.956 -16.828 0.956 -16.828 0.289 73.034
12803.708 0.29 72.995 0.956 -16.867 0.956 -16.867 0.29 72.995
12828.667 0.291 72.956 0.956 -16.906 0.956 -16.906 0.291 72.956
12853.625 0.291 72.917 0.956 -16.945 0.956 -16.945 0.291 72.917
12878.583 0.292 72.879 0.956 -16.984 0.956 -16.984 0.292 72.879
12903.542 0.293 72.84 0.955 -17.024 0.955 -17.024 0.293 72.84
12928.5 0.293 72.801 0.955 -17.063 0.955 -17.063 0.293 72.801
12953.458 0.294 72.762 0.955 -17.102 0.955 -17.102 0.294 72.762
12978.417 0.295 72.724 0.955 -17.141 0.955 -17.141 0.295 72.724
13003.375 0.295 72.685 0.955 -17.18 0.955 -17.18 0.295 72.685
13028.333 0.296 72.647 0.954 -17.219 0.954 -17.219 0.296 72.647
13053.292 0.297 72.608 0.954 -17.257 0.954 -17.257 0.297 72.608
13078.25 0.297 72.569 0.954 -17.296 0.954 -17.296 0.297 72.569
13103.208 0.298 72.531 0.954 -17.335 0.954 -17.335 0.298 72.531
13128.167 0.299 72.492 0.954 -17.374 0.954 -17.374 0.299 72.492
13153.125 0.299 72.454 0.953 -17.413 0.953 -17.413 0.299 72.454
13178.083 0.3 72.415 0.953 -17.452 0.953 -17.452 0.3 72.415
13203.042 0.301 72.377 0.953 -17.49 0.953 -17.49 0.301 72.377
13228 0.301 72.339 0.953 -17.529 0.953 -17.529 0.301 72.339
13252.958 0.302 72.3 0.953 -17.568 0.953 -17.568 0.302 72.3
13277.917 0.302 72.262 0.952 -17.606 0.952 -17.606 0.302 72.262
13302.875 0.303 72.224 0.952 -17.645 0.952 -17.645 0.303 72.224
13327.833 0.304 72.185 0.952 -17.683 0.952 -17.683 0.304 72.185
13352.792 0.304 72.147 0.952 -17.722 0.952 -17.722 0.304 72.147
13377.75 0.305 72.109 0.952 -17.76 0.952 -17.76 0.305 72.109
13402.708 0.306 72.071 0.951 -17.799 0.951 -17.799 0.306 72.071
13427.667 0.306 72.033 0.951 -17.837 0.951 -17.837 0.306 72.033
13452.625 0.307 71.995 0.951 -17.876 0.951 -17.876 0.307 71.995
13477.583 0.308 71.957 0.951 -17.914 0.951 -17.914 0.308 71.957
13502.542 0.308 71.918 0.951 -17.952 0.951 -17.952 0.308 71.918
13527.5 0.309 71.88 0.95 -17.991 0.95 -17.991 0.309 71.88
13552.458 0.31 71.842 0.95 -18.029 0.95 -18.029 0.31 71.842
13577.417 0.31 71.804 0.95 -18.067 0.95 -18.067 0.31 71.804
13602.375 0.311 71.767 0.95 -18.106 0.95 -18.106 0.311 71.767
13627.333 0.311 71.729 0.95 -18.144 0.95 -18.144 0.311 71.729
13652.292 0.312 71.691 0.949 -18.182 0.949 -18.182 0.312 71.691
13677.25 0.313 71.653 0.949 -18.22 0.949 -18.22 0.313 71.653
13702.208 0.313 71.615 0.949 -18.258 0.949 -18.258 0.313 71.615
13727.167 0.314 71.577 0.949 -18.296 0.949 -18.296 0.314 71.577
13752.125 0.315 71.539 0.949 -18.334 0.949 -18.334 0.315 71.539
13777.083 0.315 71.502 0.948 -18.372 0.948 -18.372 0.315 71.502
13802.042 0.316 71.464 0.948 -18.41 0.948 -18.41 0.316 71.464
13827 0.316 71.426 0.948 -18.448 0.948 -18.448 0.316 71.426
13851.958 0.317 71.389 0.948 -18.486 0.948 -18.486 0.317 71.389
13876.917 0.318 71.351 0.947 -18.524 0.947 -18.524 0.318 71.351
13901.875 0.318 71.313 0.947 -18.562 0.947 -18.562 0.318 71.313
13926.833 0.319 71.276 0.947 -18.6 0.947 -18.6 0.319 71.276
13951.792 0.32 71.238 0.947 -18.638 0.947 -18.638 0.32 71.238
13976.75 0.32 71.201 0.947 -18.676 0.947 -18.676 0.32 71.201
14001.708 0.321 71.163 0.946 -18.713 0.946 -18.713 0.321 71.163
14026.667 0.321 71.126 0.946 -18.751 0.946 -18.751 0.321 71.126
14051.625 0.322 71.088 0.946 -18.789 0.946 -18.789 0.322 71.088
14076.583 0.323 71.051 0.946 -18.826 0.946 -18.826 0.323 71.051
14101.542 0.323 71.014 0.946 -18.864 0.946 -18.864 0.323 71.014
14126.5 0.324 70.976 0.945 -18.902 0.945 -18.902 0.324 70.976
14151.458 0.325 70.939 0.945 -18.939 0.945 -18.939 0.325 70.939
14176.417 0.325 70.902 0.945 -18.977 0.945 -18.977 0.325 70.902
14201.375 0.326 70.864 0.945 -19.014 0.945 -19.014 0.326 70.864
14226.333 0.326 70.827 0.945 -19.052 0.945 -19.052 0.326 70.827
14251.292 0.327 70.79 0.944 -19.089 0.944 -19.089 0.327 70.79
14276.25 0.328 70.753 0.944 -19.127 0.944 -19.127 0.328 70.753
14301.208 0.328 70.715 0.944 -19.164 0.944 -19.164 0.328 70.715
14326.167 0.329 70.678 0.944 -19.202 0.944 -19.202 0.329 70.678
14351.125 0.33 70.641 0.943 -19.239 0.943 -19.239 0.33 70.641
14376.083 0.33 70.604 0.943 -19.276 0.943 -19.276 0.33 70.604
14401.042 0.331 70.567 0.943 -19.314 0.943 -19.314 0.331 70.567
14426 0.331 70.53 0.943 -19.351 0.943 -19.351 0.331 70.53
14450.958 0.332 70.493 0.943 -19.388 0.943 -19.388 0.332 70.493
14475.917 0.333 70.456 0.942 -19.425 0.942 -19.425 0.333 70.456
14500.875 0.333 70.419 0.942 -19.463 0.942 -19.463 0.333 70.419
14525.833 0.334 70.382 0.942 -19.5 0.942 -19.5 0.334 70.382
14550.792 0.334 70.345 0.942 -19.537 0.942 -19.537 0.334 70.345
14575.75 0.335 70.308 0.942 -19.574 0.942 -19.574 0.335 70.308
14600.708 0.336 70.272 0.941 -19.611 0.941 -19.611 0.336 70.272
14625.667 0.336 70.235 0.941 -19.648 0.941 -19.648 0.336 70.235
14650.625 0.337 70.198 0.941 -19.685 0.941 -19.685 0.337 70.198
14675.583 0.337 70.161 0.941 -19.722 0.941 -19.722 0.337 70.161
14700.542 0.338 70.124 0.94 -19.759 0.94 -19.759 0.338 70.124
14725.5 0.339 70.088 0.94 -19.796 0.94 -19.796 0.339 70.088
14750.458 0.339 70.051 0.94 -19.833 0.94 -19.833 0.339 70.051
14775.417 0.34 70.014 0.94 -19.87 0.94 -19.87 0.34 70.014
14800.375 0.34 69.978 0.94 -19.907 0.94 -19.907 0.34 69.978
14825.333 0.341 69.941 0.939 -19.944 0.939 -19.944 0.341 69.941
14850.292 0.342 69.905 0.939 -19.98 0.939 -19.98 0.342 69.905
14875.25 0.342 69.868 0.939 -20.017 0.939 -20.017 0.342 69.868
14900.208 0.343 69.831 0.939 -20.054 0.939 -20.054 0.343 69.831
14925.167 0.344 69.795 0.938 -20.091 0.938 -20.091 0.344 69.795
14950.125 0.344 69.758 0.938 -20.127 0.938 -20.127 0.344 69.758
14975.083 0.345 69.722 0.938 -20.164 0.938 -20.164 0.345 69.722
15000.042 0.345 69.686 0.938 -20.201 0.938 -20.201 0.345 69.686
15025 0.346 69.649 0.938 -20.237 0.938 -20.237 0.346 69.649
15049.958 0.347 69.613 0.937 -20.274 0.937 -20.274 0.347 69.613
15074.917 0.347 69.576 0.937 -20.311 0.937 -20.311 0.347 69.576
15099.875 0.348 69.54 0.937 -20.347 0.937 -20.347 0.348 69.54
15124.833 0.348 69.504 0.937 -20.384 0.937 -20.384 0.348 69.504
15149.792 0.349 69.468 0.936 -20.42 0.936 -20.42 0.349 69.468
15174.75 0.349 69.431 0.936 -20.457 0.936 -20.457 0.349 69.431
15199.708 0.35 69.395 0.936 -20.493 0.936 -20.493 0.35 69.395
15224.667 0.351 69.359 0.936 -20.529 0.936 -20.529 0.351 69.359
15249.625 0.351 69.323 0.936 -20.566 0.936 -20.566 0.351 69.323
15274.583 0.352 69.287 0.935 -20.602 0.935 -20.602 0.352 69.287
15299.542 0.352 69.25 0.935 -20.639 0.935 -20.639 0.352 69.25
15324.5 0.353 69.214 0.935 -20.675 0.935 -20.675 0.353 69.214
15349.458 0.354 69.178 0.935 -20.711 0.935 -20.711 0.354 69.178
15374.417 0.354 69.142 0.934 -20.747 0.934 -20.747 0.354 69.142
15399.375 0.355 69.106 0.934 -20.784 0.934 -20.784 0.355 69.106
15424.333 0.355 69.07 0.934 -20.82 0.934 -20.82 0.355 69.07
15449.292 0.356 69.034 0.934 -20.856 0.934 -20.856 0.356 69.034
15474.25 0.357 68.998 0.934 -20.892 0.934 -20.892 0.357 68.998
15499.208 0.357 68.962 0.933 -20.928 0.933 -20.928 0.357 68.962
15524.167 0.358 68.927 0.933 -20.964 0.933 -20.964 0.358 68.927
15549.125 0.358 68.891 0.933 -21 0.933 -21 0.358 68.891
15574.083 0.359 68.855 0.933 -21.036 0.933 -21.036 0.359 68.855
15599.042 0.36 68.819 0.932 -21.072 0.932 -21.072 0.36 68.819
15624 0.36 68.783 0.932 -21.108 0.932 -21.108 0.36 68.783
15648.958 0.361 68.747 0.932 -21.144 0.932 -21.144 0.361 68.747
15673.917 0.361 68.712 0.932 -21.18 0.932 -21.18 0.361 68.712
15698.875 0.362 68.676 0.932 -21.216 0.932 -21.216 0.362 68.676
15723.833 0.362 68.64 0.931 -21.252 0.931 -21.252 0.362 68.64
15748.792 0.363 68.605 0.931 -21.288 0.931 -21.288 0.363 68.605
15773.75 0.364 68.569 0.931 -21.324 0.931 -21.324 0.364 68.569
15798.708 0.364 68.533 0.931 -21.36 0.931 -21.36 0.364 68.533
15823.667 0.365 68.498 0.93 -21.395 0.93 -21.395 0.365 68.498
15848.625 0.365 68.462 0.93 -21.431 0.93 -21.431 0.365 68.462
15873.583 0.366 68.427 0.93 -21.467 0.93 -21.467 0.366 68.427
15898.542 0.367 68.391 0.93 -21.503 0.93 -21.503 0.367 68.391
15923.5 0.367 68.356 0.929 -21.538 0.929 -21.538 0.367 68.356
15948.458 0.368 68.32 0.929 -21.574 0.929 -21.574 0.368 68.32
15973.417 0.368 68.285 0.929 -21.61 0.929 -21.61 0.368 68.285
15998.375 0.369 68.249 0.929 -21.645 0.929 -21.645 0.369 68.249
16023.333 0.369 68.214 0.929 -21.681 0.929 -21.681 0.369 68.214
16048.292 0.37 68.179 0.928 -21.716 0.928 -21.716 0.37 68.179
16073.25 0.371 68.143 0.928 -21.752 0.928 -21.752 0.371 68.143
16098.208 0.371 68.108 0.928 -21.787 0.928 -21.787 0.371 68.108
16123.167 0.372 68.073 0.928 -21.823 0.928 -21.823 0.372 68.073
16148.125 0.372 68.037 0.927 -21.858 0.927 -21.858 0.372 68.037
16173.083 0.373 68.002 0.927 -21.894 0.927 -21.894 0.373 68.002
16198.042 0.373 67.967 0.927 -21.929 0.927 -21.929 0.373 67.967
16223 0.374 67.932 0.927 -21.965 0.927 -21.965 0.374 67.932
16247.958 0.375 67.896 0.927 -22 0.927 -22 0.375 67.896
16272.917 0.375 67.861 0.926 -22.035 0.926 -22.035 0.375 67.861
16297.875 0.376 67.826 0.926 -22.071 0.926 -22.071 0.376 67.826
16322.833 0.376 67.791 0.926 -22.106 0.926 -22.106 0.376 67.791
16347.792 0.377 67.756 0.926 -22.141 0.926 -22.141 0.377 67.756
16372.75 0.377 67.721 0.925 -22.176 0.925 -22.176 0.377 67.721
16397.708 0.378 67.686 0.925 -22.212 0.925 -22.212 0.378 67.686
16422.667 0.379 67.651 0.925 -22.247 0.925 -22.247 0.379 67.651
16447.625 0.379 67.616 0.925 -22.282 0.925 -22.282 0.379 67.616
16472.583 0.38 67.581 0.924 -22.317 0.924 -22.317 0.38 67.581
16497.542 0.38 67.546 0.924 -22.352 0.924 -22.352 0.38 67.546
16522.5 0.381 67.511 0.924 -22.387 0.924 -22.387 0.381 67.511
16547.458 0.381 67.476 0.924 -22.422 0.924 -22.422 0.381 67.476
16572.417 0.382 67.441 0.923 -22.457 0.923 -22.457 0.382 67.441
16597.375 0.383 67.407 0.923 -22.492 0.923 -22.492 0.383 67.407
16622.333 0.383 67.372 0.923 -22.527 0.923 -22.527 0.383 67.372
16647.292 0.384 67.337 0.923 -22.562 0.923 -22.562 0.384 67.337
16672.25 0.384 67.302 0.923 -22.597 0.923 -22.597 0.384 67.302
16697.208 0.385 67.267 0.922 -22.632 0.922 -22.632 0.385 67.267
16722.167 0.385 67.233 0.922 -22.667 0.922 -22.667 0.385 67.233
16747.125 0.386 67.198 0.922 -22.702 0.922 -22.702 0.386 67.198
16772.083 0.386 67.163 0.922 -22.737 0.922 -22.737 0.386 67.163
16797.042 0.387 67.129 0.921 -22.772 0.921 -22.772 0.387 67.129
16822 0.388 67.094 0.921 -22.806 0.921 -22.806 0.388 67.094
16846.958 0.388 67.059 0.921 -22.841 0.921 -22.841 0.388 67.059
16871.917 0.389 67.025 0.921 -22.876 0.921 -22.876 0.389 67.025
16896.875 0.389 66.99 0.92 -22.911 0.92 -22.911 0.389 66.99
16921.833 0.39 66.956 0.92 -22.945 0.92 -22.945 0.39 66.956
16946.792 0.39 66.921 0.92 -22.98 0.92 -22.98 0.39 66.921
16971.75 0.391 66.887 0.92 -23.015 0.92 -23.015 0.391 66.887
16996.708 0.392 66.852 0.919 -23.049 0.919 -23.049 0.392 66.852
17021.667 0.392 66.818 0.919 -23.084 0.919 -23.084 0.392 66.818
17046.625 0.393 66.784 0.919 -23.119 0.919 -23.119 0.393 66.784
17071.583 0.393 66.749 0.919 -23.153 0.919 -23.153 0.393 66.749
17096.542 0.394 66.715 0.919 -23.188 0.919 -23.188 0.394 66.715
17121.5 0.394 66.68 0.918 -23.222 0.918 -23.222 0.394 66.68
17146.458 0.395 66.646 0.918 -23.257 0.918 -23.257 0.395 66.646
17171.417 0.395 66.612 0.918 -23.291 0.918 -23.291 0.395 66.612
17196.375 0.396 66.578 0.918 -23.325 0.918 -23.325 0.396 66.578
17221.333 0.397 66.543 0.917 -23.36 0.917 -23.36 0.397 66.543
17246.292 0.397 66.509 0.917 -23.394 0.917 -23.394 0.397 66.509
17271.25 0.398 66.475 0.917 -23.429 0.917 -23.429 0.398 66.475
17296.208 0.398 66.441 0.917 -23.463 0.917 -23.463 0.398 66.441
17321.167 0.399 66.407 0.916 -23.497 0.916 -23.497 0.399 66.407
17346.125 0.399 66.372 0.916 -23.532 0.916 -23.532 0.399 66.372
17371.083 0.4 66.338 0.916 -23.566 0.916 -23.566 0.4 66.338
17396.042 0.4 66.304 0.916 -23.6 0.916 -23.6 0.4 66.304
17421 0.401 66.27 0.915 -23.634 0.915 -23.634 0.401 66.27
17445.958 0.401 66.236 0.915 -23.668 0.915 -23.668 0.401 66.236
17470.917 0.402 66.202 0.915 -23.703 0.915 -23.703 0.402 66.202
17495.875 0.403 66.168 0.915 -23.737 0.915 -23.737 0.403 66.168
17520.833 0.403 66.134 0.914 -23.771 0.914 -23.771 0.403 66.134
17545.792 0.404 66.1 0.914 -23.805 0.914 -23.805 0.404 66.1
17570.75 0.404 66.066 0.914 -23.839 0.914 -23.839 0.404 66.066
17595.708 0.405 66.032 0.914 -23.873 0.914 -23.873 0.405 66.032
17620.667 0.405 65.999 0.914 -23.907 0.914 -23.907 0.405 65.999
17645.625 0.406 65.965 0.913 -23.941 0.913 -23.941 0.406 65.965
17670.583 0.406 65.931 0.913 -23.975 0.913 -23.975 0.406 65.931
17695.542 0.407 65.897 0.913 -24.009 0.913 -24.009 0.407 65.897
17720.5 0.407 65.863 0.913 -24.043 0.913 -24.043 0.407 65.863
17745.458 0.408 65.829 0.912 -24.077 0.912 -24.077 0.408 65.829
17770.417 0.409 65.796 0.912 -24.111 0.912 -24.111 0.409 65.796
17795.375 0.409 65.762 0.912 -24.145 0.912 -24.145 0.409 65.762
17820.333 0.41 65.728 0.912 -24.179 0.912 -24.179 0.41 65.728
17845.292 0.41 65.695 0.911 -24.212 0.911 -24.212 0.41 65.695
17870.25 0.411 65.661 0.911 -24.246 0.911 -24.246 0.411 65.661
17895.208 0.411 65.627 0.911 -24.28 0.911 -24.28 0.411 65.627
17920.167 0.412 65.594 0.911 -24.314 0.911 -24.314 0.412 65.594
17945.125 0.412 65.56 0.91 -24.347 0.91 -24.347 0.412 65.56
17970.083 0.413 65.527 0.91 -24.381 0.91 -24.381 0.413 65.527
17995.042 0.413 65.493 0.91 -24.415 0.91 -24.415 0.413 65.493
18020 0.414 65.46 0.91 -24.448 0.91 -24.448 0.414 65.46
18044.958 0.414 65.426 0.909 -24.482 0.909 -24.482 0.414 65.426
18069.917 0.415 65.393 0.909 -24.516 0.909 -24.516 0.415 65.393
18094.875 0.415 65.359 0.909 -24.549 0.909 -24.549 0.415 65.359
18119.833 0.416 65.326 0.909 -24.583 0.909 -24.583 0.416 65.326
18144.792 0.417 65.292 0.908 -24.616 0.908 -24.616 0.417 65.292
18169.75 0.417 65.259 0.908 -24.65 0.908 -24.65 0.417 65.259
18194.708 0.418 65.226 0.908 -24.683 0.908 -24.683 0.418 65.226
18219.667 0.418 65.192 0.908 -24.717 0.908 -24.717 0.418 65.192
18244.625 0.419 65.159 0.907 -24.75 0.907 -24.75 0.419 65.159
18269.583 0.419 65.126 0.907 -24.784 0.907 -24.784 0.419 65.126
18294.542 0.42 65.092 0.907 -24.817 0.907 -24.817 0.42 65.092
18319.5 0.42 65.059 0.907 -24.85 0.907 -24.85 0.42 65.059
18344.458 0.421 65.026 0.907 -24.884 0.907 -24.884 0.421 65.026
18369.417 0.421 64.993 0.906 -24.917 0.906 -24.917 0.421 64.993
18394.375 0.422 64.96 0.906 -24.95 0.906 -24.95 0.422 64.96
18419.333 0.422 64.926 0.906 -24.984 0.906 -24.984 0.422 64.926
18444.292 0.423 64.893 0.906 -25.017 0.906 -25.017 0.423 64.893
18469.25 0.423 64.86 0.905 -25.05 0.905 -25.05 0.423 64.86
18494.208 0.424 64.827 0.905 -25.083 0.905 -25.083 0.424 64.827
18519.167 0.424 64.794 0.905 -25.117 0.905 -25.117 0.424 64.794
18544.125 0.425 64.761 0.905 -25.15 0.905 -25.15 0.425 64.761
18569.083 0.426 64.728 0.904 -25.183 0.904 -25.183 0.426 64.728
18594.042 0.426 64.695 0.904 -25.216 0.904 -25.216 0.426 64.695
18619 0.427 64.662 0.904 -25.249 0.904 -25.249 0.427 64.662
18643.958 0.427 64.629 0.904 -25.282 0.904 -25.282 0.427 64.629
18668.917 0.428 64.596 0.903 -25.315 0.903 -25.315 0.428 64.596
18693.875 0.428 64.563 0.903 -25.348 0.903 -25.348 0.428 64.563
18718.833 0.429 64.53 0.903 -25.381 0.903 -25.381 0.429 64.53
18743.792 0.429 64.498 0.903 -25.414 0.903 -25.414 0.429 64.498
18768.75 0.43 64.465 0.902 -25.447 0.902 -25.447 0.43 64.465
18793.708 0.43 64.432 0.902 -25.48 0.902 -25.48 0.43 64.432
18818.667 0.431 64.399 0.902 -25.513 0.902 -25.513 0.431 64.399
18843.625 0.431 64.366 0.902 -25.546 0.902 -25.546 0.431 64.366
18868.583 0.432 64.334 0.901 -25.579 0.901 -25.579 0.432 64.334
18893.542 0.432 64.301 0.901 -25.612 0.901 -25.612 0.432 64.301
18918.5 0.433 64.268 0.901 -25.645 0.901 -25.645 0.433 64.268
18943.458 0.433 64.235 0.901 -25.678 0.901 -25.678 0.433 64.235
18968.417 0.434 64.203 0.9 -25.71 0.9 -25.71 0.434 64.203
18993.375 0.434 64.17 0.9 -25.743 0.9 -25.743 0.434 64.17
19018.333 0.435 64.138 0.9 -25.776 0.9 -25.776 0.435 64.138
19043.292 0.435 64.105 0.9 -25.809 0.9 -25.809 0.435 64.105
19068.25 0.436 64.072 0.899 -25.841 0.899 -25.841 0.436 64.072
19093.208 0.436 64.04 0.899 -25.874 0.899 -25.874 0.436 64.04
19118.167 0.437 64.007 0.899 -25.907 0.899 -25.907 0.437 64.007
19143.125 0.437 63.975 0.899 -25.939 0.899 -25.939 0.437 63.975
19168.083 0.438 63.942 0.898 -25.972 0.898 -25.972 0.438 63.942
19193.042 0.438 63.91 0.898 -26.004 0.898 -26.004 0.438 63.91
19218 0.439 63.877 0.898 -26.037 0.898 -26.037 0.439 63.877
19242.958 0.439 63.845 0.898 -26.07 0.898 -26.07 0.439 63.845
19267.917 0.44 63.813 0.897 -26.102 0.897 -26.102 0.44 63.813
19292.875 0.44 63.78 0.897 -26.135 0.897 -26.135 0.44 63.78
19317.833 0.441 63.748 0.897 -26.167 0.897 -26.167 0.441 63.748
19342.792 0.441 63.716 0.897 -26.199 0.897 -26.199 0.441 63.716
19367.75 0.442 63.683 0.896 -26.232 0.896 -26.232 0.442 63.683
19392.708 0.443 63.651 0.896 -26.264 0.896 -26.264 0.443 63.651
19417.667 0.443 63.619 0.896 -26.297 0.896 -26.297 0.443 63.619
19442.625 0.444 63.586 0.896 -26.329 0.896 -26.329 0.444 63.586
19467.583 0.444 63.554 0.895 -26.361 0.895 -26.361 0.444 63.554
19492.542 0.445 63.522 0.895 -26.394 0.895 -26.394 0.445 63.522
19517.5 0.445 63.49 0.895 -26.426 0.895 -26.426 0.445 63.49
19542.458 0.446 63.458 0.895 -26.458 0.895 -26.458 0.446 63.458
19567.417 0.446 63.425 0.894 -26.491 0.894 -26.491 0.446 63.425
19592.375 0.447 63.393 0.894 -26.523 0.894 -26.523 0.447 63.393
19617.333 0.447 63.361 0.894 -26.555 0.894 -26.555 0.447 63.361
19642.292 0.448 63.329 0.894 -26.587 0.894 -26.587 0.448 63.329
19667.25 0.448 63.297 0.893 -26.619 0.893 -26.619 0.448 63.297
19692.208 0.449 63.265 0.893 -26.652 0.893 -26.652 0.449 63.265
19717.167 0.449 63.233 0.893 -26.684 0.893 -26.684 0.449 63.233
19742.125 0.45 63.201 0.893 -26.716 0.893 -26.716 0.45 63.201
19767.083 0.45 63.169 0.892 -26.748 0.892 -26.748 0.45 63.169
19792.042 0.451 63.137 0.892 -26.78 0.892 -26.78 0.451 63.137
19817 0.451 63.105 0.892 -26.812 0.892 -26.812 0.451 63.105
19841.958 0.452 63.073 0.892 -26.844 0.892 -26.844 0.452 63.073
19866.917 0.452 63.042 0.891 -26.876 0.891 -26.876 0.452 63.042
19891.875 0.453 63.01 0.891 -26.908 0.891 -26.908 0.453 63.01
19916.833 0.453 62.978 0.891 -26.94 0.891 -26.94 0.453 62.978
19941.792 0.454 62.946 0.891 -26.972 0.891 -26.972 0.454 62.946
19966.75 0.454 62.914 0.89 -27.004 0.89 -27.004 0.454 62.914
19991.708 0.455 62.882 0.89 -27.036 0.89 -27.036 0.455 62.882
20016.667 0.455 62.851 0.89 -27.067 0.89 -27.067 0.455 62.851
20041.625 0.456 62.819 0.89 -27.099 0.89 -27.099 0.456 62.819
20066.583 0.456 62.787 0.889 -27.131 0.889 -27.131 0.456 62.787
20091.542 0.457 62.756 0.889 -27.163 0.889 -27.163 0.457 62.756
20116.5 0.457 62.724 0.889 -27.195 0.889 -27.195 0.457 62.724
20141.458 0.458 62.692 0.889 -27.226 0.889 -27.226 0.458 62.692
20166.417 0.458 62.661 0.888 -27.258 0.888 -27.258 0.458 62.661
20191.375 0.458 62.629 0.888 -27.29 0.888 -27.29 0.458 62.629
20216.333 0.459 62.597 0.888 -27.322 0.888 -27.322 0.459 62.597
20241.292 0.459 62.566 0.888 -27.353 0.888 -27.353 0.459 62.566
20266.25 0.46 62.534 0.887 -27.385 0.887 -27.385 0.46 62.534
20291.208 0.46 62.503 0.887 -27.417 0.887 -27.417 0.46 62.503
20316.167 0.461 62.471 0.887 -27.448 0.887 -27.448 0.461 62.471
20341.125 0.461 62.44 0.887 -27.48 0.887 -27.48 0.461 62.44
20366.083 0.462 62.408 0.886 -27.511 0.886 -27.511 0.462 62.408
20391.042 0.462 62.377 0.886 -27.543 0.886 -27.543 0.462 62.377
20416 0.463 62.346 0.886 -27.574 0.886 -27.574 0.463 62.346
20440.958 0.463 62.314 0.886 -27.606 0.886 -27.606 0.463 62.314
20465.917 0.464 62.283 0.885 -27.637 0.885 -27.637 0.464 62.283
20490.875 0.464 62.252 0.885 -27.669 0.885 -27.669 0.464 62.252
20515.833 0.465 62.22 0.885 -27.7 0.885 -27.7 0.465 62.22
20540.792 0.465 62.189 0.884 -27.732 0.884 -27.732 0.465 62.189
20565.75 0.466 62.158 0.884 -27.763 0.884 -27.763 0.466 62.158
20590.708 0.466 62.126 0.884 -27.794 0.884 -27.794 0.466 62.126
20615.667 0.467 62.095 0.884 -27.826 0.884 -27.826 0.467 62.095
20640.625 0.467 62.064 0.883 -27.857 0.883 -27.857 0.467 62.064
20665.583 0.468 62.033 0.883 -27.888 0.883 -27.888 0.468 62.033
20690.542 0.468 62.001 0.883 -27.92 0.883 -27.92 0.468 62.001
20715.5 0.469 61.97 0.883 -27.951 0.883 -27.951 0.469 61.97
20740.458 0.469 61.939 0.882 -27.982 0.882 -27.982 0.469 61.939
20765.417 0.47 61.908 0.882 -28.013 0.882 -28.013 0.47 61.908
20790.375 0.47 61.877 0.882 -28.044 0.882 -28.044 0.47 61.877
20815.333 0.471 61.846 0.882 -28.076 0.882 -28.076 0.471 61.846
20840.292 0.471 61.815 0.881 -28.107 0.881 -28.107 0.471 61.815
20865.25 0.472 61.784 0.881 -28.138 0.881 -28.138 0.472 61.784
20890.208 0.472 61.753 0.881 -28.169 0.881 -28.169 0.472 61.753
20915.167 0.473 61.722 0.881 -28.2 0.881 -28.2 0.473 61.722
20940.125 0.473 61.691 0.88 -28.231 0.88 -28.231 0.473 61.691
20965.083 0.474 61.66 0.88 -28.262 0.88 -28.262 0.474 61.66
20990.042 0.474 61.629 0.88 -28.293 0.88 -28.293 0.474 61.629
21015 0.474 61.598 0.88 -28.324 0.88 -28.324 0.474 61.598
21039.958 0.475 61.567 0.879 -28.355 0.879 -28.355 0.475 61.567
21064.917 0.475 61.536 0.879 -28.386 0.879 -28.386 0.475 61.536
21089.875 0.476 61.506 0.879 -28.417 0.879 -28.417 0.476 61.506
21114.833 0.476 61.475 0.879 -28.448 0.879 -28.448 0.476 61.475
21139.792 0.477 61.444 0.878 -28.479 0.878 -28.479 0.477 61.444
21164.75 0.477 61.413 0.878 -28.51 0.878 -28.51 0.477 61.413
21189.708 0.478 61.382 0.878 -28.541 0.878 -28.541 0.478 61.382
21214.667 0.478 61.352 0.878 -28.572 0.878 -28.572 0.478 61.352
21239.625 0.479 61.321 0.877 -28.602 0.877 -28.602 0.479 61.321
21264.583 0.479 61.29 0.877 -28.633 0.877 -28.633 0.479 61.29
21289.542 0.48 61.26 0.877 -28.664 0.877 -28.664 0.48 61.26
21314.5 0.48 61.229 0.877 -28.695 0.877 -28.695 0.48 61.229
21339.458 0.481 61.198 0.876 -28.725 0.876 -28.725 0.481 61.198
21364.417 0.481 61.168 0.876 -28.756 0.876 -28.756 0.481 61.168
21389.375 0.482 61.137 0.876 -28.787 0.876 -28.787 0.482 61.137
21414.333 0.482 61.106 0.876 -28.818 0.876 -28.818 0.482 61.106
21439.292 0.482 61.076 0.875 -28.848 0.875 -28.848 0.482 61.076
21464.25 0.483 61.045 0.875 -28.879 0.875 -28.879 0.483 61.045
21489.208 0.483 61.015 0.875 -28.909 0.875 -28.909 0.483 61.015
21514.167 0.484 60.984 0.874 -28.94 0.874 -28.94 0.484 60.984
21539.125 0.484 60.954 0.874 -28.971 0.874 -28.971 0.484 60.954
21564.083 0.485 60.923 0.874 -29.001 0.874 -29.001 0.485 60.923
21589.042 0.485 60.893 0.874 -29.032 0.874 -29.032 0.485 60.893
21614 0.486 60.863 0.873 -29.062 0.873 -29.062 0.486 60.863
21638.958 0.486 60.832 0.873 -29.093 0.873 -29.093 0.486 60.832
21663.917 0.487 60.802 0.873 -29.123 0.873 -29.123 0.487 60.802
21688.875 0.487 60.772 0.873 -29.153 0.873 -29.153 0.487 60.772
21713.833 0.488 60.741 0.872 -29.184 0.872 -29.184 0.488 60.741
21738.792 0.488 60.711 0.872 -29.214 0.872 -29.214 0.488 60.711
21763.75 0.489 60.681 0.872 -29.245 0.872 -29.245 0.489 60.681
21788.708 0.489 60.65 0.872 -29.275 0.872 -29.275 0.489 60.65
21813.667 0.489 60.62 0.871 -29.305 0.871 -29.305 0.489 60.62
21838.625 0.49 60.59 0.871 -29.336 0.871 -29.336 0.49 60.59
21863.583 0.49 60.56 0.871 -29.366 0.871 -29.366 0.49 60.56
21888.542 0.491 60.529 0.871 -29.396 0.871 -29.396 0.491 60.529
21913.5 0.491 60.499 0.87 -29.427 0.87 -29.427 0.491 60.499
21938.458 0.492 60.469 0.87 -29.457 0.87 -29.457 0.492 60.469
21963.417 0.492 60.439 0.87 -29.487 0.87 -29.487 0.492 60.439
21988.375 0.493 60.409 0.87 -29.517 0.87 -29.517 0.493 60.409
22013.333 0.493 60.379 0.869 -29.547 0.869 -29.547 0.493 60.379
22038.292 0.494 60.349 0.869 -29.577 0.869 -29.577 0.494 60.349
22063.25 0.494 60.319 0.869 -29.608 0.869 -29.608 0.494 60.319
22088.208 0.495 60.289 0.869 -29.638 0.869 -29.638 0.495 60.289
22113.167 0.495 60.259 0.868 -29.668 0.868 -29.668 0.495 60.259
22138.125 0.495 60.229 0.868 -29.698 0.868 -29.698 0.495 60.229
22163.083 0.496 60.199 0.868 -29.728 0.868 -29.728 0.496 60.199
22188.042 0.496 60.169 0.867 -29.758 0.867 -29.758 0.496 60.169
22213 0.497 60.139 0.867 -29.788 0.867 -29.788 0.497 60.139
22237.958 0.497 60.109 0.867 -29.818 0.867 -29.818 0.497 60.109
22262.917 0.498 60.079 0.867 -29.848 0.867 -29.848 0.498 60.079
22287.875 0.498 60.049 0.866 -29.878 0.866 -29.878 0.498 60.049
22312.833 0.499 60.02 0.866 -29.908 0.866 -29.908 0.499 60.02
22337.792 0.499 59.99 0.866 -29.938 0.866 -29.938 0.499 59.99
22362.75 0.5 59.96 0.866 -29.968 0.866 -29.968 0.5 59.96
22387.708 0.5 59.93 0.865 -29.997 0.865 -29.997 0.5 59.93
22412.667 0.5 59.9 0.865 -30.027 0.865 -30.027 0.5 59.9
22437.625 0.501 59.871 0.865 -30.057 0.865 -30.057 0.501 59.871
22462.583 0.501 59.841 0.865 -30.087 0.865 -30.087 0.501 59.841
22487.542 0.502 59.811 0.864 -30.117 0.864 -30.117 0.502 59.811
22512.5 0.502 59.782 0.864 -30.146 0.864 -30.146 0.502 59.782
22537.458 0.503 59.752 0.864 -30.176 0.864 -30.176 0.503 59.752
22562.417 0.503 59.722 0.864 -30.206 0.864 -30.206 0.503 59.722
22587.375 0.504 59.693 0.863 -30.236 0.863 -30.236 0.504 59.693
22612.333 0.504 59.663 0.863 -30.265 0.863 -30.265 0.504 59.663
22637.292 0.504 59.633 0.863 -30.295 0.863 -30.295 0.504 59.633
22662.25 0.505 59.604 0.863 -30.325 0.863 -30.325 0.505 59.604
22687.208 0.505 59.574 0.862 -30.354 0.862 -30.354 0.505 59.574
22712.167 0.506 59.545 0.862 -30.384 0.862 -30.384 0.506 59.545
22737.125 0.506 59.515 0.862 -30.413 0.862 -30.413 0.506 59.515
22762.083 0.507 59.486 0.862 -30.443 0.862 -30.443 0.507 59.486
22787.042 0.507 59.456 0.861 -30.472 0.861 -30.472 0.507 59.456
22812 0.508 59.427 0.861 -30.502 0.861 -30.502 0.508 59.427
22836.958 0.508 59.398 0.861 -30.531 0.861 -30.531 0.508 59.398
22861.917 0.508 59.368 0.86 -30.561 0.86 -30.561 0.508 59.368
22886.875 0.509 59.339 0.86 -30.59 0.86 -30.59 0.509 59.339
22911.833 0.509 59.309 0.86 -30.62 0.86 -30.62 0.509 59.309
22936.792 0.51 59.28 0.86 -30.649 0.86 -30.649 0.51 59.28
22961.75 0.51 59.251 0.859 -30.679 0.859 -30.679 0.51 59.251
22986.708 0.511 59.222 0.859 -30.708 0.859 -30.708 0.511 59.222
23011.667 0.511 59.192 0.859 -30.737 0.859 -30.737 0.511 59.192
23036.625 0.512 59.163 0.859 -30.767 0.859 -30.767 0.512 59.163
23061.583 0.512 59.134 0.858 -30.796 0.858 -30.796 0.512 59.134
23086.542 0.512 59.105 0.858 -30.825 0.858 -30.825 0.512 59.105
23111.5 0.513 59.075 0.858 -30.855 0.858 -30.855 0.513 59.075
23136.458 0.513 59.046 0.858 -30.884 0.858 -30.884 0.513 59.046
23161.417 0.514 59.017 0.857 -30.913 0.857 -30.913 0.514 59.017
23186.375 0.514 58.988 0.857 -30.942 0.857 -30.942 0.514 58.988
23211.333 0.515 58.959 0.857 -30.972 0.857 -30.972 0.515 58.959
23236.292 0.515 58.93 0.857 -31.001 0.857 -31.001 0.515 58.93
23261.25 0.515 58.901 0.856 -31.03 0.856 -31.03 0.515 58.901
23286.208 0.516 58.872 0.856 -31.059 0.856 -31.059 0.516 58.872
23311.167 0.516 58.843 0.856 -31.088 0.856 -31.088 0.516 58.843
23336.125 0.517 58.813 0.855 -31.117 0.855 -31.117 0.517 58.813
23361.083 0.517 58.784 0.855 -31.146 0.855 -31.146 0.517 58.784
23386.042 0.518 58.756 0.855 -31.175 0.855 -31.175 0.518 58.756
23411 0.518 58.727 0.855 -31.204 0.855 -31.204 0.518 58.727
23435.958 0.519 58.698 0.854 -31.233 0.854 -31.233 0.519 58.698
23460.917 0.519 58.669 0.854 -31.262 0.854 -31.262 0.519 58.669
23485.875 0.519 58.64 0.854 -31.291 0.854 -31.291 0.519 58.64
23510.833 0.52 58.611 0.854 -31.32 0.854 -31.32 0.52 58.611
23535.792 0.52 58.582 0.853 -31.349 0.853 -31.349 0.52 58.582
23560.75 0.521 58.553 0.853 -31.378 0.853 -31.378 0.521 58.553
23585.708 0.521 58.524 0.853 -31.407 0.853 -31.407 0.521 58.524
23610.667 0.522 58.496 0.853 -31.436 0.853 -31.436 0.522 58.496
23635.625 0.522 58.467 0.852 -31.465 0.852 -31.465 0.522 58.467
23660.583 0.522 58.438 0.852 -31.494 0.852 -31.494 0.522 58.438
23685.542 0.523 58.409 0.852 -31.522 0.852 -31.522 0.523 58.409
23710.5 0.523 58.381 0.852 -31.551 0.852 -31.551 0.523 58.381
23735.458 0.524 58.352 0.851 -31.58 0.851 -31.58 0.524 58.352
23760.417 0.524 58.323 0.851 -31.609 0.851 -31.609 0.524 58.323
23785.375 0.525 58.295 0.851 -31.638 0.851 -31.638 0.525 58.295
23810.333 0.525 58.266 0.85 -31.666 0.85 -31.666 0.525 58.266
23835.292 0.525 58.237 0.85 -31.695 0.85 -31.695 0.525 58.237
23860.25 0.526 58.209 0.85 -31.724 0.85 -31.724 0.526 58.209
23885.208 0.526 58.18 0.85 -31.752 0.85 -31.752 0.526 58.18
23910.167 0.527 58.152 0.849 -31.781 0.849 -31.781 0.527 58.152
23935.125 0.527 58.123 0.849 -31.81 0.849 -31.81 0.527 58.123
23960.083 0.528 58.094 0.849 -31.838 0.849 -31.838 0.528 58.094
23985.042 0.528 58.066 0.849 -31.867 0.849 -31.867 0.528 58.066
24010 0.528 58.037 0.848 -31.895 0.848 -31.895 0.528 58.037
24034.958 0.529 58.009 0.848 -31.924 0.848 -31.924 0.529 58.009
24059.917 0.529 57.981 0.848 -31.952 0.848 -31.952 0.529 57.981
24084.875 0.53 57.952 0.848 -31.981 0.848 -31.981 0.53 57.952
24109.833 0.53 57.924 0.847 -32.009 0.847 -32.009 0.53 57.924
24134.792 0.53 57.895 0.847 -32.038 0.847 -32.038 0.53 57.895
24159.75 0.531 57.867 0.847 -32.066 0.847 -32.066 0.531 57.867
24184.708 0.531 57.839 0.847 -32.095 0.847 -32.095 0.531 57.839
24209.667 0.532 57.81 0.846 -32.123 0.846 -32.123 0.532 57.81
24234.625 0.532 57.782 0.846 -32.151 0.846 -32.151 0.532 57.782
24259.583 0.533 57.754 0.846 -32.18 0.846 -32.18 0.533 57.754
24284.542 0.533 57.725 0.845 -32.208 0.845 -32.208 0.533 57.725
24309.5 0.533 57.697 0.845 -32.237 0.845 -32.237 0.533 57.697
24334.458 0.534 57.669 0.845 -32.265 0.845 -32.265 0.534 57.669
24359.417 0.534 57.641 0.845 -32.293 0.845 -32.293 0.534 57.641
24384.375 0.535 57.612 0.844 -32.321 0.844 -32.321 0.535 57.612
24409.333 0.535 57.584 0.844 -32.35 0.844 -32.35 0.535 57.584
24434.292 0.536 57.556 0.844 -32.378 0.844 -32.378 0.536 57.556
24459.25 0.536 57.528 0.844 -32.406 0.844 -32.406 0.536 57.528
24484.208 0.536 57.5 0.843 -32.434 0.843 -32.434 0.536 57.5
24509.167 0.537 57.472 0.843 -32.462 0.843 -32.462 0.537 57.472
24534.125 0.537 57.444 0.843 -32.491 0.843 -32.491 0.537 57.444
24559.083 0.538 57.416 0.843 -32.519 0.843 -32.519 0.538 57.416
24584.042 0.538 57.388 0.842 -32.547 0.842 -32.547 0.538 57.388
24609 0.538 57.36 0.842 -32.575 0.842 -32.575 0.538 57.36
24633.958 0.539 57.332 0.842 -32.603 0.842 -32.603 0.539 57.332
24658.917 0.539 57.304 0.842 -32.631 0.842 -32.631 0.539 57.304
24683.875 0.54 57.276 0.841 -32.659 0.841 -32.659 0.54 57.276
24708.833 0.54 57.248 0.841 -32.687 0.841 -32.687 0.54 57.248
24733.792 0.54 57.22 0.841 -32.715 0.841 -32.715 0.54 57.22
24758.75 0.541 57.192 0.84 -32.743 0.84 -32.743 0.541 57.192
24783.708 0.541 57.164 0.84 -32.771 0.84 -32.771 0.541 57.164
24808.667 0.542 57.136 0.84 -32.799 0.84 -32.799 0.542 57.136
24833.625 0.542 57.108 0.84 -32.827 0.84 -32.827 0.542 57.108
24858.583 0.543 57.08 0.839 -32.855 0.839 -32.855 0.543 57.08
24883.542 0.543 57.053 0.839 -32.883 0.839 -32.883 0.543 57.053
24908.5 0.543 57.025 0.839 -32.911 0.839 -32.911 0.543 57.025
24933.458 0.544 56.997 0.839 -32.938 0.839 -32.938 0.544 56.997
24958.417 0.544 56.969 0.838 -32.966 0.838 -32.966 0.544 56.969
24983.375 0.545 56.942 0.838 -32.994 0.838 -32.994 0.545 56.942
25008.333 0.545 56.914 0.838 -33.022 0.838 -33.022 0.545 56.914
25033.292 0.545 56.886 0.838 -33.05 0.838 -33.05 0.545 56.886
25058.25 0.546 56.858 0.837 -33.077 0.837 -33.077 0.546 56.858
25083.208 0.546 56.831 0.837 -33.105 0.837 -33.105 0.546 56.831
25108.167 0.547 56.803 0.837 -33.133 0.837 -33.133 0.547 56.803
25133.125 0.547 56.775 0.837 -33.16 0.837 -33.16 0.547 56.775
25158.083 0.547 56.748 0.836 -33.188 0.836 -33.188 0.547 56.748
25183.042 0.548 56.72 0.836 -33.216 0.836 -33.216 0.548 56.72
25208 0.548 56.693 0.836 -33.243 0.836 -33.243 0.548 56.693
25232.958 0.549 56.665 0.835 -33.271 0.835 -33.271 0.549 56.665
25257.917 0.549 56.638 0.835 -33.299 0.835 -33.299 0.549 56.638
25282.875 0.549 56.61 0.835 -33.326 0.835 -33.326 0.549 56.61
25307.833 0.55 56.583 0.835 -33.354 0.835 -33.354 0.55 56.583
25332.792 0.55 56.555 0.834 -33.381 0.834 -33.381 0.55 56.555
25357.75 0.551 56.528 0.834 -33.409 0.834 -33.409 0.551 56.528
25382.708 0.551 56.5 0.834 -33.436 0.834 -33.436 0.551 56.5
25407.667 0.551 56.473 0.834 -33.464 0.834 -33.464 0.551 56.473
25432.625 0.552 56.445 0.833 -33.491 0.833 -33.491 0.552 56.445
25457.583 0.552 56.418 0.833 -33.519 0.833 -33.519 0.552 56.418
25482.542 0.553 56.391 0.833 -33.546 0.833 -33.546 0.553 56.391
25507.5 0.553 56.363 0.833 -33.574 0.833 -33.574 0.553 56.363
25532.458 0.553 56.336 0.832 -33.601 0.832 -33.601 0.553 56.336
25557.417 0.554 56.309 0.832 -33.628 0.832 -33.628 0.554 56.309
25582.375 0.554 56.282 0.832 -33.656 0.832 -33.656 0.554 56.282
25607.333 0.555 56.254 0.832 -33.683 0.832 -33.683 0.555 56.254
25632.292 0.555 56.227 0.831 -33.71 0.831 -33.71 0.555 56.227
25657.25 0.555 56.2 0.831 -33.738 0.831 -33.738 0.555 56.2
25682.208 0.556 56.173 0.831 -33.765 0.831 -33.765 0.556 56.173
25707.167 0.556 56.145 0.83 -33.792 0.83 -33.792 0.556 56.145
25732.125 0.557 56.118 0.83 -33.819 0.83 -33.819 0.557 56.118
25757.083 0.557 56.091 0.83 -33.847 0.83 -33.847 0.557 56.091
25782.042 0.557 56.064 0.83 -33.874 0.83 -33.874 0.557 56.064
25807 0.558 56.037 0.829 -33.901 0.829 -33.901 0.558 56.037
25831.958 0.558 56.01 0.829 -33.928 0.829 -33.928 0.558 56.01
25856.917 0.559 55.983 0.829 -33.955 0.829 -33.955 0.559 55.983
25881.875 0.559 55.956 0.829 -33.982 0.829 -33.982 0.559 55.956
25906.833 0.559 55.929 0.828 -34.009 0.828 -34.009 0.559 55.929
25931.792 0.56 55.901 0.828 -34.037 0.828 -34.037 0.56 55.901
25956.75 0.56 55.874 0.828 -34.064 0.828 -34.064 0.56 55.874
25981.708 0.561 55.848 0.828 -34.091 0.828 -34.091 0.561 55.848
26006.667 0.561 55.821 0.827 -34.118 0.827 -34.118 0.561 55.821
26031.625 0.561 55.794 0.827 -34.145 0.827 -34.145 0.561 55.794
26056.583 0.562 55.767 0.827 -34.172 0.827 -34.172 0.562 55.767
26081.542 0.562 55.74 0.826 -34.199 0.826 -34.199 0.562 55.74
26106.5 0.562 55.713 0.826 -34.226 0.826 -34.226 0.562 55.713
26131.458 0.563 55.686 0.826 -34.253 0.826 -34.253 0.563 55.686
26156.417 0.563 55.659 0.826 -34.279 0.826 -34.279 0.563 55.659
26181.375 0.564 55.632 0.825 -34.306 0.825 -34.306 0.564 55.632
26206.333 0.564 55.605 0.825 -34.333 0.825 -34.333 0.564 55.605
26231.292 0.564 55.579 0.825 -34.36 0.825 -34.36 0.564 55.579
26256.25 0.565 55.552 0.825 -34.387 0.825 -34.387 0.565 55.552
26281.208 0.565 55.525 0.824 -34.414 0.824 -34.414 0.565 55.525
26306.167 0.566 55.498 0.824 -34.441 0.824 -34.441 0.566 55.498
26331.125 0.566 55.472 0.824 -34.467 0.824 -34.467 0.566 55.472
26356.083 0.566 55.445 0.824 -34.494 0.824 -34.494 0.566 55.445
26381.042 0.567 55.418 0.823 -34.521 0.823 -34.521 0.567 55.418
26406 0.567 55.392 0.823 -34.548 0.823 -34.548 0.567 55.392
26430.958 0.567 55.365 0.823 -34.574 0.823 -34.574 0.567 55.365
26455.917 0.568 55.338 0.823 -34.601 0.823 -34.601 0.568 55.338
26480.875 0.568 55.312 0.822 -34.628 0.822 -34.628 0.568 55.312
26505.833 0.569 55.285 0.822 -34.654 0.822 -34.654 0.569 55.285
26530.792 0.569 55.259 0.822 -34.681 0.822 -34.681 0.569 55.259
26555.75 0.569 55.232 0.821 -34.708 0.821 -34.708 0.569 55.232
26580.708 0.57 55.205 0.821 -34.734 0.821 -34.734 0.57 55.205
26605.667 0.57 55.179 0.821 -34.761 0.821 -34.761 0.57 55.179
26630.625 0.571 55.152 0.821 -34.787 0.821 -34.787 0.571 55.152
26655.583 0.571 55.126 0.82 -34.814 0.82 -34.814 0.571 55.126
26680.542 0.571 55.099 0.82 -34.84 0.82 -34.84 0.571 55.099
26705.5 0.572 55.073 0.82 -34.867 0.82 -34.867 0.572 55.073
26730.458 0.572 55.047 0.82 -34.893 0.82 -34.893 0.572 55.047
26755.417 0.572 55.02 0.819 -34.92 0.819 -34.92 0.572 55.02
26780.375 0.573 54.994 0.819 -34.946 0.819 -34.946 0.573 54.994
26805.333 0.573 54.967 0.819 -34.973 0.819 -34.973 0.573 54.967
26830.292 0.574 54.941 0.819 -34.999 0.819 -34.999 0.574 54.941
26855.25 0.574 54.915 0.818 -35.026 0.818 -35.026 0.574 54.915
26880.208 0.574 54.888 0.818 -35.052 0.818 -35.052 0.574 54.888
26905.167 0.575 54.862 0.818 -35.078 0.818 -35.078 0.575 54.862
26930.125 0.575 54.836 0.818 -35.105 0.818 -35.105 0.575 54.836
26955.083 0.575 54.809 0.817 -35.131 0.817 -35.131 0.575 54.809
26980.042 0.576 54.783 0.817 -35.157 0.817 -35.157 0.576 54.783
27005 0.576 54.757 0.817 -35.184 0.817 -35.184 0.576 54.757
27029.958 0.577 54.731 0.816 -35.21 0.816 -35.21 0.577 54.731
27054.917 0.577 54.705 0.816 -35.236 0.816 -35.236 0.577 54.705
27079.875 0.577 54.678 0.816 -35.262 0.816 -35.262 0.577 54.678
27104.833 0.578 54.652 0.816 -35.289 0.816 -35.289 0.578 54.652
27129.792 0.578 54.626 0.815 -35.315 0.815 -35.315 0.578 54.626
27154.75 0.578 54.6 0.815 -35.341 0.815 -35.341 0.578 54.6
27179.708 0.579 54.574 0.815 -35.367 0.815 -35.367 0.579 54.574
27204.667 0.579 54.548 0.815 -35.393 0.815 -35.393 0.579 54.548
27229.625 0.58 54.522 0.814 -35.419 0.814 -35.419 0.58 54.522
27254.583 0.58 54.496 0.814 -35.446 0.814 -35.446 0.58 54.496
27279.542 0.58 54.47 0.814 -35.472 0.814 -35.472 0.58 54.47
27304.5 0.581 54.444 0.814 -35.498 0.814 -35.498 0.581 54.444
27329.458 0.581 54.418 0.813 -35.524 0.813 -35.524 0.581 54.418
27354.417 0.581 54.392 0.813 -35.55 0.813 -35.55 0.581 54.392
27379.375 0.582 54.366 0.813 -35.576 0.813 -35.576 0.582 54.366
27404.333 0.582 54.34 0.812 -35.602 0.812 -35.602 0.582 54.34
27429.292 0.583 54.314 0.812 -35.628 0.812 -35.628 0.583 54.314
27454.25 0.583 54.288 0.812 -35.654 0.812 -35.654 0.583 54.288
27479.208 0.583 54.262 0.812 -35.68 0.812 -35.68 0.583 54.262
27504.167 0.584 54.236 0.811 -35.706 0.811 -35.706 0.584 54.236
27529.125 0.584 54.21 0.811 -35.732 0.811 -35.732 0.584 54.21
27554.083 0.584 54.184 0.811 -35.757 0.811 -35.757 0.584 54.184
27579.042 0.585 54.159 0.811 -35.783 0.811 -35.783 0.585 54.159
27604 0.585 54.133 0.81 -35.809 0.81 -35.809 0.585 54.133
27628.958 0.585 54.107 0.81 -35.835 0.81 -35.835 0.585 54.107
27653.917 0.586 54.081 0.81 -35.861 0.81 -35.861 0.586 54.081
27678.875 0.586 54.056 0.81 -35.887 0.81 -35.887 0.586 54.056
27703.833 0.587 54.03 0.809 -35.912 0.809 -35.912 0.587 54.03
27728.792 0.587 54.004 0.809 -35.938 0.809 -35.938 0.587 54.004
27753.75 0.587 53.978 0.809 -35.964 0.809 -35.964 0.587 53.978
27778.708 0.588 53.953 0.809 -35.99 0.809 -35.99 0.588 53.953
27803.667 0.588 53.927 0.808 -36.015 0.808 -36.015 0.588 53.927
27828.625 0.588 53.901 0.808 -36.041 0.808 -36.041 0.588 53.901
27853.583 0.589 53.876 0.808 -36.067 0.808 -36.067 0.589 53.876
27878.542 0.589 53.85 0.807 -36.092 0.807 -36.092 0.589 53.85
27903.5 0.589 53.825 0.807 -36.118 0.807 -36.118 0.589 53.825
27928.458 0.59 53.799 0.807 -36.144 0.807 -36.144 0.59 53.799
27953.417 0.59 53.773 0.807 -36.169 0.807 -36.169 0.59 53.773
27978.375 0.591 53.748 0.806 -36.195 0.806 -36.195 0.591 53.748
28003.333 0.591 53.722 0.806 -36.22 0.806 -36.22 0.591 53.722
28028.292 0.591 53.697 0.806 -36.246 0.806 -36.246 0.591 53.697
28053.25 0.592 53.671 0.806 -36.272 0.806 -36.272 0.592 53.671
28078.208 0.592 53.646 0.805 -36.297 0.805 -36.297 0.592 53.646
28103.167 0.592 53.621 0.805 -36.323 0.805 -36.323 0.592 53.621
28128.125 0.593 53.595 0.805 -36.348 0.805 -36.348 0.593 53.595
28153.083 0.593 53.57 0.805 -36.374 0.805 -36.374 0.593 53.57
28178.042 0.593 53.544 0.804 -36.399 0.804 -36.399 0.593 53.544
28203 0.594 53.519 0.804 -36.424 0.804 -36.424 0.594 53.519
28227.958 0.594 53.494 0.804 -36.45 0.804 -36.45 0.594 53.494
28252.917 0.594 53.468 0.804 -36.475 0.804 -36.475 0.594 53.468
28277.875 0.595 53.443 0.803 -36.501 0.803 -36.501 0.595 53.443
28302.833 0.595 53.418 0.803 -36.526 0.803 -36.526 0.595 53.418
28327.792 0.596 53.392 0.803 -36.551 0.803 -36.551 0.596 53.392
28352.75 0.596 53.367 0.802 -36.577 0.802 -36.577 0.596 53.367
28377.708 0.596 53.342 0.802 -36.602 0.802 -36.602 0.596 53.342
28402.667 0.597 53.317 0.802 -36.627 0.802 -36.627 0.597 53.317
28427.625 0.597 53.291 0.802 -36.652 0.802 -36.652 0.597 53.291
28452.583 0.597 53.266 0.801 -36.678 0.801 -36.678 0.597 53.266
28477.542 0.598 53.241 0.801 -36.703 0.801 -36.703 0.598 53.241
28502.5 0.598 53.216 0.801 -36.728 0.801 -36.728 0.598 53.216
28527.458 0.598 53.191 0.801 -36.753 0.801 -36.753 0.598 53.191
28552.417 0.599 53.166 0.8 -36.779 0.8 -36.779 0.599 53.166
28577.375 0.599 53.14 0.8 -36.804 0.8 -36.804 0.599 53.14
28602.333 0.599 53.115 0.8 -36.829 0.8 -36.829 0.599 53.115
28627.292 0.6 53.09 0.8 -36.854 0.8 -36.854 0.6 53.09
28652.25 0.6 53.065 0.799 -36.879 0.799 -36.879 0.6 53.065
28677.208 0.6 53.04 0.799 -36.904 0.799 -36.904 0.6 53.04
28702.167 0.601 53.015 0.799 -36.929 0.799 -36.929 0.601 53.015
28727.125 0.601 52.99 0.799 -36.954 0.799 -36.954 0.601 52.99
28752.083 0.602 52.965 0.798 -36.979 0.798 -36.979 0.602 52.965
28777.042 0.602 52.94 0.798 -37.004 0.798 -37.004 0.602 52.94
28802 0.602 52.915 0.798 -37.029 0.798 -37.029 0.602 52.915
28826.958 0.603 52.89 0.797 -37.054 0.797 -37.054 0.603 52.89
28851.917 0.603 52.865 0.797 -37.079 0.797 -37.079 0.603 52.865
28876.875 0.603 52.84 0.797 -37.104 0.797 -37.104 0.603 52.84
28901.833 0.604 52.816 0.797 -37.129 0.797 -37.129 0.604 52.816
28926.792 0.604 52.791 0.796 -37.154 0.796 -37.154 0.604 52.791
28951.75 0.604 52.766 0.796 -37.179 0.796 -37.179 0.604 52.766
28976.708 0.605 52.741 0.796 -37.204 0.796 -37.204 0.605 52.741
29001.667 0.605 52.716 0.796 -37.229 0.796 -37.229 0.605 52.716
29026.625 0.605 52.691 0.795 -37.254 0.795 -37.254 0.605 52.691
29051.583 0.606 52.667 0.795 -37.278 0.795 -37.278 0.606 52.667
29076.542 0.606 52.642 0.795 -37.303 0.795 -37.303 0.606 52.642
29101.5 0.606 52.617 0.795 -37.328 0.795 -37.328 0.606 52.617
29126.458 0.607 52.592 0.794 -37.353 0.794 -37.353 0.607 52.592
29151.417 0.607 52.568 0.794 -37.378 0.794 -37.378 0.607 52.568
29176.375 0.607 52.543 0.794 -37.402 0.794 -37.402 0.607 52.543
29201.333 0.608 52.518 0.794 -37.427 0.794 -37.427 0.608 52.518
29226.292 0.608 52.494 0.793 -37.452 0.793 -37.452 0.608 52.494
29251.25 0.608 52.469 0.793 -37.477 0.793 -37.477 0.608 52.469
29276.208 0.609 52.444 0.793 -37.501 0.793 -37.501 0.609 52.444
29301.167 0.609 52.42 0.792 -37.526 0.792 -37.526 0.609 52.42
29326.125 0.609 52.395 0.792 -37.55 0.792 -37.55 0.609 52.395
29351.083 0.61 52.371 0.792 -37.575 0.792 -37.575 0.61 52.371
29376.042 0.61 52.346 0.792 -37.6 0.792 -37.6 0.61 52.346
29401 0.61 52.321 0.791 -37.624 0.791 -37.624 0.61 52.321
29425.958 0.611 52.297 0.791 -37.649 0.791 -37.649 0.611 52.297
29450.917 0.611 52.272 0.791 -37.673 0.791 -37.673 0.611 52.272
29475.875 0.611 52.248 0.791 -37.698 0.791 -37.698 0.611 52.248
29500.833 0.612 52.223 0.79 -37.723 0.79 -37.723 0.612 52.223
29525.792 0.612 52.199 0.79 -37.747 0.79 -37.747 0.612 52.199
29550.75 0.613 52.175 0.79 -37.772 0.79 -37.772 0.613 52.175
29575.708 0.613 52.15 0.79 -37.796 0.79 -37.796 0.613 52.15
29600.667 0.613 52.126 0.789 -37.82 0.789 -37.82 0.613 52.126
29625.625 0.614 52.101 0.789 -37.845 0.789 -37.845 0.614 52.101
29650.583 0.614 52.077 0.789 -37.869 0.789 -37.869 0.614 52.077
29675.542 0.614 52.053 0.789 -37.894 0.789 -37.894 0.614 52.053
29700.5 0.615 52.028 0.788 -37.918 0.788 -37.918 0.615 52.028
29725.458 0.615 52.004 0.788 -37.942 0.788 -37.942 0.615 52.004
29750.417 0.615 51.98 0.788 -37.967 0.788 -37.967 0.615 51.98
29775.375 0.616 51.955 0.788 -37.991 0.788 -37.991 0.616 51.955
29800.333 0.616 51.931 0.787 -38.015 0.787 -38.015 0.616 51.931
29825.292 0.616 51.907 0.787 -38.04 0.787 -38.04 0.616 51.907
29850.25 0.617 51.883 0.787 -38.064 0.787 -38.064 0.617 51.883
29875.208 0.617 51.858 0.786 -38.088 0.786 -38.088 0.617 51.858
29900.167 0.617 51.834 0.786 -38.113 0.786 -38.113 0.617 51.834
29925.125 0.618 51.81 0.786 -38.137 0.786 -38.137 0.618 51.81
29950.083 0.618 51.786 0.786 -38.161 0.786 -38.161 0.618 51.786
29975.042 0.618 51.762 0.785 -38.185 0.785 -38.185 0.618 51.762
30000 0.619 51.737 0.785 -38.209 0.785 -38.209 0.619 51.737
