!	AVX Thin Film Operation 	Date: April 2014		
!	Description: Accu-P® Series, Thin Film  SMD RF Capacitor
!	Part Number: 04023J9R1BBSTR					
!
# MHZ S MA R 50

50 0.961 -15.96 0.275 74.032 0.275 74.032 0.961 -15.96
74.958 0.919 -23.216 0.394 66.772 0.394 66.772 0.919 -23.216
99.917 0.868 -29.774 0.497 60.21 0.497 60.21 0.868 -29.774
124.875 0.813 -35.587 0.582 54.393 0.582 54.393 0.813 -35.587
149.833 0.758 -40.678 0.652 49.299 0.652 49.299 0.758 -40.678
174.792 0.705 -45.108 0.708 44.865 0.708 44.865 0.705 -45.108
199.75 0.656 -48.958 0.754 41.011 0.754 41.011 0.656 -48.958
224.708 0.611 -52.307 0.791 37.659 0.791 37.659 0.611 -52.307
249.667 0.57 -55.229 0.821 34.732 0.821 34.732 0.57 -55.229
274.625 0.532 -57.789 0.846 32.168 0.846 32.168 0.532 -57.789
299.583 0.499 -60.045 0.866 29.909 0.866 29.909 0.499 -60.045
324.542 0.468 -62.041 0.883 27.908 0.883 27.908 0.468 -62.041
349.5 0.44 -63.817 0.897 26.128 0.897 26.128 0.44 -63.817
374.458 0.415 -65.406 0.909 24.535 0.909 24.535 0.415 -65.406
399.417 0.392 -66.833 0.919 23.104 0.919 23.104 0.392 -66.833
424.375 0.372 -68.122 0.928 21.81 0.928 21.81 0.372 -68.122
449.333 0.352 -69.292 0.935 20.637 0.935 20.637 0.352 -69.292
474.292 0.335 -70.357 0.942 19.567 0.942 19.567 0.335 -70.357
499.25 0.319 -71.331 0.947 18.589 0.947 18.589 0.319 -71.331
524.208 0.304 -72.225 0.952 17.691 0.952 17.691 0.304 -72.225
549.167 0.29 -73.048 0.957 16.863 0.957 16.863 0.29 -73.048
574.125 0.277 -73.809 0.96 16.097 0.96 16.097 0.277 -73.809
599.083 0.265 -74.515 0.964 15.387 0.964 15.387 0.265 -74.515
624.042 0.254 -75.171 0.967 14.727 0.967 14.727 0.254 -75.171
649 0.244 -75.782 0.969 14.111 0.969 14.111 0.244 -75.782
673.958 0.234 -76.354 0.972 13.535 0.972 13.535 0.234 -76.354
698.917 0.225 -76.889 0.974 12.994 0.974 12.994 0.225 -76.889
723.875 0.216 -77.392 0.976 12.487 0.976 12.487 0.216 -77.392
748.833 0.208 -77.865 0.978 12.008 0.978 12.008 0.208 -77.865
773.792 0.2 -78.311 0.979 11.557 0.979 11.557 0.2 -78.311
798.75 0.193 -78.733 0.981 11.13 0.981 11.13 0.193 -78.733
823.708 0.186 -79.132 0.982 10.726 0.982 10.726 0.186 -79.132
848.667 0.18 -79.511 0.983 10.342 0.983 10.342 0.18 -79.511
873.625 0.173 -79.87 0.984 9.977 0.984 9.977 0.173 -79.87
898.583 0.167 -80.212 0.985 9.629 0.985 9.629 0.167 -80.212
923.542 0.162 -80.538 0.986 9.297 0.986 9.297 0.162 -80.538
948.5 0.156 -80.849 0.987 8.98 0.987 8.98 0.156 -80.849
973.458 0.151 -81.146 0.988 8.677 0.988 8.677 0.151 -81.146
998.417 0.146 -81.43 0.989 8.387 0.989 8.387 0.146 -81.43
1023.375 0.141 -81.702 0.99 8.109 0.99 8.109 0.141 -81.702
1048.333 0.136 -81.963 0.99 7.841 0.99 7.841 0.136 -81.963
1073.292 0.132 -82.213 0.991 7.584 0.991 7.584 0.132 -82.213
1098.25 0.128 -82.454 0.991 7.337 0.991 7.337 0.128 -82.454
1123.208 0.124 -82.685 0.992 7.098 0.992 7.098 0.124 -82.685
1148.167 0.12 -82.908 0.992 6.868 0.992 6.868 0.12 -82.908
1173.125 0.116 -83.123 0.993 6.646 0.993 6.646 0.116 -83.123
1198.083 0.112 -83.329 0.993 6.432 0.993 6.432 0.112 -83.329
1223.042 0.108 -83.529 0.994 6.224 0.994 6.224 0.108 -83.529
1248 0.105 -83.722 0.994 6.023 0.994 6.023 0.105 -83.722
1272.958 0.102 -83.908 0.994 5.828 0.994 5.828 0.102 -83.908
1297.917 0.098 -84.088 0.995 5.639 0.995 5.639 0.098 -84.088
1322.875 0.095 -84.262 0.995 5.456 0.995 5.456 0.095 -84.262
1347.833 0.092 -84.431 0.995 5.277 0.995 5.277 0.092 -84.431
1372.792 0.089 -84.594 0.996 5.104 0.996 5.104 0.089 -84.594
1397.75 0.086 -84.753 0.996 4.936 0.996 4.936 0.086 -84.753
1422.708 0.083 -84.906 0.996 4.771 0.996 4.771 0.083 -84.906
1447.667 0.08 -85.055 0.996 4.612 0.996 4.612 0.08 -85.055
1472.625 0.078 -85.199 0.997 4.456 0.997 4.456 0.078 -85.199
1497.583 0.075 -85.339 0.997 4.304 0.997 4.304 0.075 -85.339
1522.542 0.072 -85.474 0.997 4.155 0.997 4.155 0.072 -85.474
1547.5 0.07 -85.606 0.997 4.01 0.997 4.01 0.07 -85.606
1572.458 0.067 -85.733 0.997 3.869 0.997 3.869 0.067 -85.733
1597.417 0.065 -85.857 0.997 3.73 0.997 3.73 0.065 -85.857
1622.375 0.063 -85.977 0.998 3.595 0.998 3.595 0.063 -85.977
1647.333 0.06 -86.093 0.998 3.462 0.998 3.462 0.06 -86.093
1672.292 0.058 -86.206 0.998 3.332 0.998 3.332 0.058 -86.206
1697.25 0.056 -86.314 0.998 3.205 0.998 3.205 0.056 -86.314
1722.208 0.054 -86.42 0.998 3.08 0.998 3.08 0.054 -86.42
1747.167 0.052 -86.521 0.998 2.958 0.998 2.958 0.052 -86.521
1772.125 0.05 -86.619 0.998 2.838 0.998 2.838 0.05 -86.619
1797.083 0.047 -86.713 0.998 2.72 0.998 2.72 0.047 -86.713
1822.042 0.045 -86.804 0.998 2.604 0.998 2.604 0.045 -86.804
1847 0.043 -86.891 0.999 2.49 0.999 2.49 0.043 -86.891
1871.958 0.042 -86.973 0.999 2.379 0.999 2.379 0.042 -86.973
1896.917 0.04 -87.052 0.999 2.269 0.999 2.269 0.04 -87.052
1921.875 0.038 -87.126 0.999 2.161 0.999 2.161 0.038 -87.126
1946.833 0.036 -87.195 0.999 2.055 0.999 2.055 0.036 -87.195
1971.792 0.034 -87.259 0.999 1.95 0.999 1.95 0.034 -87.259
1996.75 0.032 -87.318 0.999 1.847 0.999 1.847 0.032 -87.318
2021.708 0.03 -87.371 0.999 1.746 0.999 1.746 0.03 -87.371
2046.667 0.029 -87.417 0.999 1.646 0.999 1.646 0.029 -87.417
2071.625 0.027 -87.456 0.999 1.547 0.999 1.547 0.027 -87.456
2096.583 0.025 -87.486 0.999 1.45 0.999 1.45 0.025 -87.486
2121.542 0.024 -87.507 0.999 1.354 0.999 1.354 0.024 -87.507
2146.5 0.022 -87.516 0.999 1.26 0.999 1.26 0.022 -87.516
2171.458 0.02 -87.511 0.999 1.167 0.999 1.167 0.02 -87.511
2196.417 0.019 -87.49 0.999 1.075 0.999 1.075 0.019 -87.49
2221.375 0.017 -87.449 0.999 0.984 0.999 0.984 0.017 -87.449
2246.333 0.016 -87.381 0.999 0.894 0.999 0.894 0.016 -87.381
2271.292 0.014 -87.28 0.999 0.806 0.999 0.806 0.014 -87.28
2296.25 0.013 -87.135 0.999 0.718 0.999 0.718 0.013 -87.135
2321.208 0.011 -86.927 0.999 0.632 0.999 0.632 0.011 -86.927
2346.167 9.542e-3 -86.631 0.999 0.546 0.999 0.546 9.542e-3 -86.631
2371.125 8.069e-3 -86.2 0.999 0.462 0.999 0.462 8.069e-3 -86.2
2396.083 6.613e-3 -85.547 1 0.378 1 0.378 6.613e-3 -85.547
2421.042 5.174e-3 -84.494 1 0.295 1 0.295 5.174e-3 -84.494
2446 3.755e-3 -82.597 1 0.213 1 0.213 3.755e-3 -82.597
2470.958 2.359e-3 -78.378 1 0.132 1 0.132 2.359e-3 -78.378
2495.917 1.027e-3 -62.72 1 0.052 1 0.052 1.027e-3 -62.72
2520.875 665.6e-6 45.064 1 -0.027 1 -0.027 665.6e-6 45.064
2545.833 1.901e-3 75.587 1 -0.106 1 -0.106 1.901e-3 75.587
2570.792 3.235e-3 81.463 1 -0.183 1 -0.183 3.235e-3 81.463
2595.75 4.57e-3 83.837 1 -0.26 1 -0.26 4.57e-3 83.837
2620.708 5.897e-3 85.092 1 -0.337 1 -0.337 5.897e-3 85.092
2645.667 7.214e-3 85.853 1 -0.412 1 -0.412 7.214e-3 85.853
2670.625 8.52e-3 86.351 0.999 -0.487 0.999 -0.487 8.52e-3 86.351
2695.583 9.815e-3 86.694 0.999 -0.562 0.999 -0.562 9.815e-3 86.694
2720.542 0.011 86.938 0.999 -0.635 0.999 -0.635 0.011 86.938
2745.5 0.012 87.115 0.999 -0.708 0.999 -0.708 0.012 87.115
2770.458 0.014 87.245 0.999 -0.781 0.999 -0.781 0.014 87.245
2795.417 0.015 87.339 0.999 -0.853 0.999 -0.853 0.015 87.339
2820.375 0.016 87.407 0.999 -0.924 0.999 -0.924 0.016 87.407
2845.333 0.017 87.455 0.999 -0.995 0.999 -0.995 0.017 87.455
2870.292 0.019 87.487 0.999 -1.065 0.999 -1.065 0.019 87.487
2895.25 0.02 87.506 0.999 -1.135 0.999 -1.135 0.02 87.506
2920.208 0.021 87.515 0.999 -1.204 0.999 -1.204 0.021 87.515
2945.167 0.022 87.516 0.999 -1.272 0.999 -1.272 0.022 87.516
2970.125 0.023 87.509 0.999 -1.341 0.999 -1.341 0.023 87.509
2995.083 0.025 87.497 0.999 -1.408 0.999 -1.408 0.025 87.497
3020.042 0.026 87.479 0.999 -1.476 0.999 -1.476 0.026 87.479
3045 0.027 87.458 0.999 -1.542 0.999 -1.542 0.027 87.458
3069.958 0.028 87.433 0.999 -1.609 0.999 -1.609 0.028 87.433
3094.917 0.029 87.405 0.999 -1.674 0.999 -1.674 0.029 87.405
3119.875 0.03 87.374 0.999 -1.74 0.999 -1.74 0.03 87.374
3144.833 0.031 87.341 0.999 -1.805 0.999 -1.805 0.031 87.341
3169.792 0.033 87.306 0.999 -1.869 0.999 -1.869 0.033 87.306
3194.75 0.034 87.269 0.999 -1.934 0.999 -1.934 0.034 87.269
3219.708 0.035 87.231 0.999 -1.998 0.999 -1.998 0.035 87.231
3244.667 0.036 87.191 0.999 -2.061 0.999 -2.061 0.036 87.191
3269.625 0.037 87.15 0.999 -2.124 0.999 -2.124 0.037 87.15
3294.583 0.038 87.108 0.999 -2.187 0.999 -2.187 0.038 87.108
3319.542 0.039 87.065 0.999 -2.249 0.999 -2.249 0.039 87.065
3344.5 0.04 87.022 0.999 -2.311 0.999 -2.311 0.04 87.022
3369.458 0.041 86.977 0.999 -2.373 0.999 -2.373 0.041 86.977
3394.417 0.042 86.932 0.999 -2.434 0.999 -2.434 0.042 86.932
3419.375 0.044 86.887 0.999 -2.495 0.999 -2.495 0.044 86.887
3444.333 0.045 86.841 0.999 -2.556 0.999 -2.556 0.045 86.841
3469.292 0.046 86.794 0.998 -2.616 0.998 -2.616 0.046 86.794
3494.25 0.047 86.748 0.998 -2.676 0.998 -2.676 0.047 86.748
3519.208 0.048 86.7 0.998 -2.736 0.998 -2.736 0.048 86.7
3544.167 0.049 86.653 0.998 -2.796 0.998 -2.796 0.049 86.653
3569.125 0.05 86.605 0.998 -2.855 0.998 -2.855 0.05 86.605
3594.083 0.051 86.557 0.998 -2.914 0.998 -2.914 0.051 86.557
3619.042 0.052 86.509 0.998 -2.973 0.998 -2.973 0.052 86.509
3644 0.053 86.461 0.998 -3.031 0.998 -3.031 0.053 86.461
3668.958 0.054 86.412 0.998 -3.089 0.998 -3.089 0.054 86.412
3693.917 0.055 86.363 0.998 -3.147 0.998 -3.147 0.055 86.363
3718.875 0.056 86.314 0.998 -3.205 0.998 -3.205 0.056 86.314
3743.833 0.057 86.266 0.998 -3.262 0.998 -3.262 0.057 86.266
3768.792 0.058 86.217 0.998 -3.319 0.998 -3.319 0.058 86.217
3793.75 0.059 86.168 0.998 -3.376 0.998 -3.376 0.059 86.168
3818.708 0.06 86.118 0.998 -3.433 0.998 -3.433 0.06 86.118
3843.667 0.061 86.069 0.998 -3.489 0.998 -3.489 0.061 86.069
3868.625 0.062 86.02 0.998 -3.545 0.998 -3.545 0.062 86.02
3893.583 0.063 85.971 0.998 -3.601 0.998 -3.601 0.063 85.971
3918.542 0.064 85.922 0.997 -3.657 0.997 -3.657 0.064 85.922
3943.5 0.065 85.872 0.997 -3.713 0.997 -3.713 0.065 85.872
3968.458 0.066 85.823 0.997 -3.768 0.997 -3.768 0.066 85.823
3993.417 0.067 85.774 0.997 -3.823 0.997 -3.823 0.067 85.774
4018.375 0.068 85.725 0.997 -3.878 0.997 -3.878 0.068 85.725
4043.333 0.069 85.676 0.997 -3.933 0.997 -3.933 0.069 85.676
4068.292 0.07 85.626 0.997 -3.987 0.997 -3.987 0.07 85.626
4093.25 0.07 85.577 0.997 -4.042 0.997 -4.042 0.07 85.577
4118.208 0.071 85.528 0.997 -4.096 0.997 -4.096 0.071 85.528
4143.167 0.072 85.479 0.997 -4.15 0.997 -4.15 0.072 85.479
4168.125 0.073 85.43 0.997 -4.204 0.997 -4.204 0.073 85.43
4193.083 0.074 85.381 0.997 -4.257 0.997 -4.257 0.074 85.381
4218.042 0.075 85.332 0.997 -4.311 0.997 -4.311 0.075 85.332
4243 0.076 85.283 0.997 -4.364 0.997 -4.364 0.076 85.283
4267.958 0.077 85.234 0.997 -4.417 0.997 -4.417 0.077 85.234
4292.917 0.078 85.186 0.996 -4.47 0.996 -4.47 0.078 85.186
4317.875 0.079 85.137 0.996 -4.523 0.996 -4.523 0.079 85.137
4342.833 0.08 85.088 0.996 -4.575 0.996 -4.575 0.08 85.088
4367.792 0.081 85.04 0.996 -4.628 0.996 -4.628 0.081 85.04
4392.75 0.082 84.991 0.996 -4.68 0.996 -4.68 0.082 84.991
4417.708 0.083 84.943 0.996 -4.732 0.996 -4.732 0.083 84.943
4442.667 0.083 84.894 0.996 -4.784 0.996 -4.784 0.083 84.894
4467.625 0.084 84.846 0.996 -4.836 0.996 -4.836 0.084 84.846
4492.583 0.085 84.797 0.996 -4.888 0.996 -4.888 0.085 84.797
4517.542 0.086 84.749 0.996 -4.939 0.996 -4.939 0.086 84.749
4542.5 0.087 84.701 0.996 -4.991 0.996 -4.991 0.087 84.701
4567.458 0.088 84.653 0.996 -5.042 0.996 -5.042 0.088 84.653
4592.417 0.089 84.605 0.996 -5.093 0.996 -5.093 0.089 84.605
4617.375 0.09 84.557 0.996 -5.144 0.996 -5.144 0.09 84.557
4642.333 0.091 84.509 0.995 -5.195 0.995 -5.195 0.091 84.509
4667.292 0.091 84.461 0.995 -5.246 0.995 -5.246 0.091 84.461
4692.25 0.092 84.413 0.995 -5.296 0.995 -5.296 0.092 84.413
4717.208 0.093 84.366 0.995 -5.347 0.995 -5.347 0.093 84.366
4742.167 0.094 84.318 0.995 -5.397 0.995 -5.397 0.094 84.318
4767.125 0.095 84.27 0.995 -5.447 0.995 -5.447 0.095 84.27
4792.083 0.096 84.223 0.995 -5.497 0.995 -5.497 0.096 84.223
4817.042 0.097 84.176 0.995 -5.547 0.995 -5.547 0.097 84.176
4842 0.098 84.128 0.995 -5.597 0.995 -5.597 0.098 84.128
4866.958 0.098 84.081 0.995 -5.647 0.995 -5.647 0.098 84.081
4891.917 0.099 84.034 0.995 -5.696 0.995 -5.696 0.099 84.034
4916.875 0.1 83.986 0.995 -5.746 0.995 -5.746 0.1 83.986
4941.833 0.101 83.939 0.994 -5.795 0.994 -5.795 0.101 83.939
4966.792 0.102 83.892 0.994 -5.845 0.994 -5.845 0.102 83.892
4991.75 0.103 83.845 0.994 -5.894 0.994 -5.894 0.103 83.845
5016.708 0.104 83.798 0.994 -5.943 0.994 -5.943 0.104 83.798
5041.667 0.104 83.752 0.994 -5.992 0.994 -5.992 0.104 83.752
5066.625 0.105 83.705 0.994 -6.041 0.994 -6.041 0.105 83.705
5091.583 0.106 83.658 0.994 -6.089 0.994 -6.089 0.106 83.658
5116.542 0.107 83.612 0.994 -6.138 0.994 -6.138 0.107 83.612
5141.5 0.108 83.565 0.994 -6.187 0.994 -6.187 0.108 83.565
5166.458 0.109 83.519 0.994 -6.235 0.994 -6.235 0.109 83.519
5191.417 0.109 83.472 0.994 -6.283 0.994 -6.283 0.109 83.472
5216.375 0.11 83.426 0.993 -6.332 0.993 -6.332 0.11 83.426
5241.333 0.111 83.379 0.993 -6.38 0.993 -6.38 0.111 83.379
5266.292 0.112 83.333 0.993 -6.428 0.993 -6.428 0.112 83.333
5291.25 0.113 83.287 0.993 -6.476 0.993 -6.476 0.113 83.287
5316.208 0.114 83.241 0.993 -6.524 0.993 -6.524 0.114 83.241
5341.167 0.114 83.195 0.993 -6.571 0.993 -6.571 0.114 83.195
5366.125 0.115 83.149 0.993 -6.619 0.993 -6.619 0.115 83.149
5391.083 0.116 83.103 0.993 -6.667 0.993 -6.667 0.116 83.103
5416.042 0.117 83.057 0.993 -6.714 0.993 -6.714 0.117 83.057
5441 0.118 83.011 0.993 -6.762 0.993 -6.762 0.118 83.011
5465.958 0.119 82.965 0.992 -6.809 0.992 -6.809 0.119 82.965
5490.917 0.119 82.92 0.992 -6.856 0.992 -6.856 0.119 82.92
5515.875 0.12 82.874 0.992 -6.903 0.992 -6.903 0.12 82.874
5540.833 0.121 82.829 0.992 -6.951 0.992 -6.951 0.121 82.829
5565.792 0.122 82.783 0.992 -6.998 0.992 -6.998 0.122 82.783
5590.75 0.123 82.738 0.992 -7.044 0.992 -7.044 0.123 82.738
5615.708 0.123 82.692 0.992 -7.091 0.992 -7.091 0.123 82.692
5640.667 0.124 82.647 0.992 -7.138 0.992 -7.138 0.124 82.647
5665.625 0.125 82.602 0.992 -7.185 0.992 -7.185 0.125 82.602
5690.583 0.126 82.556 0.992 -7.231 0.992 -7.231 0.126 82.556
5715.542 0.127 82.511 0.991 -7.278 0.991 -7.278 0.127 82.511
5740.5 0.127 82.466 0.991 -7.324 0.991 -7.324 0.127 82.466
5765.458 0.128 82.421 0.991 -7.371 0.991 -7.371 0.128 82.421
5790.417 0.129 82.376 0.991 -7.417 0.991 -7.417 0.129 82.376
5815.375 0.13 82.331 0.991 -7.463 0.991 -7.463 0.13 82.331
5840.333 0.131 82.286 0.991 -7.509 0.991 -7.509 0.131 82.286
5865.292 0.131 82.241 0.991 -7.556 0.991 -7.556 0.131 82.241
5890.25 0.132 82.197 0.991 -7.602 0.991 -7.602 0.132 82.197
5915.208 0.133 82.152 0.991 -7.648 0.991 -7.648 0.133 82.152
5940.167 0.134 82.107 0.991 -7.693 0.991 -7.693 0.134 82.107
5965.125 0.135 82.063 0.99 -7.739 0.99 -7.739 0.135 82.063
5990.083 0.135 82.018 0.99 -7.785 0.99 -7.785 0.135 82.018
6015.042 0.136 81.974 0.99 -7.831 0.99 -7.831 0.136 81.974
6040 0.137 81.929 0.99 -7.876 0.99 -7.876 0.137 81.929
6064.958 0.138 81.885 0.99 -7.922 0.99 -7.922 0.138 81.885
6089.917 0.139 81.84 0.99 -7.967 0.99 -7.967 0.139 81.84
6114.875 0.139 81.796 0.99 -8.013 0.99 -8.013 0.139 81.796
6139.833 0.14 81.752 0.99 -8.058 0.99 -8.058 0.14 81.752
6164.792 0.141 81.707 0.99 -8.103 0.99 -8.103 0.141 81.707
6189.75 0.142 81.663 0.989 -8.149 0.989 -8.149 0.142 81.663
6214.708 0.143 81.619 0.989 -8.194 0.989 -8.194 0.143 81.619
6239.667 0.143 81.575 0.989 -8.239 0.989 -8.239 0.143 81.575
6264.625 0.144 81.531 0.989 -8.284 0.989 -8.284 0.144 81.531
6289.583 0.145 81.487 0.989 -8.329 0.989 -8.329 0.145 81.487
6314.542 0.146 81.443 0.989 -8.374 0.989 -8.374 0.146 81.443
6339.5 0.146 81.399 0.989 -8.419 0.989 -8.419 0.146 81.399
6364.458 0.147 81.355 0.989 -8.464 0.989 -8.464 0.147 81.355
6389.417 0.148 81.312 0.989 -8.508 0.989 -8.508 0.148 81.312
6414.375 0.149 81.268 0.988 -8.553 0.988 -8.553 0.149 81.268
6439.333 0.149 81.224 0.988 -8.598 0.988 -8.598 0.149 81.224
6464.292 0.15 81.181 0.988 -8.642 0.988 -8.642 0.15 81.181
6489.25 0.151 81.137 0.988 -8.687 0.988 -8.687 0.151 81.137
6514.208 0.152 81.093 0.988 -8.731 0.988 -8.731 0.152 81.093
6539.167 0.153 81.05 0.988 -8.776 0.988 -8.776 0.153 81.05
6564.125 0.153 81.006 0.988 -8.82 0.988 -8.82 0.153 81.006
6589.083 0.154 80.963 0.988 -8.864 0.988 -8.864 0.154 80.963
6614.042 0.155 80.92 0.987 -8.909 0.987 -8.909 0.155 80.92
6639 0.156 80.876 0.987 -8.953 0.987 -8.953 0.156 80.876
6663.958 0.156 80.833 0.987 -8.997 0.987 -8.997 0.156 80.833
6688.917 0.157 80.79 0.987 -9.041 0.987 -9.041 0.157 80.79
6713.875 0.158 80.746 0.987 -9.085 0.987 -9.085 0.158 80.746
6738.833 0.159 80.703 0.987 -9.129 0.987 -9.129 0.159 80.703
6763.792 0.159 80.66 0.987 -9.173 0.987 -9.173 0.159 80.66
6788.75 0.16 80.617 0.987 -9.217 0.987 -9.217 0.16 80.617
6813.708 0.161 80.574 0.987 -9.261 0.987 -9.261 0.161 80.574
6838.667 0.162 80.531 0.986 -9.305 0.986 -9.305 0.162 80.531
6863.625 0.162 80.488 0.986 -9.348 0.986 -9.348 0.162 80.488
6888.583 0.163 80.445 0.986 -9.392 0.986 -9.392 0.163 80.445
6913.542 0.164 80.402 0.986 -9.436 0.986 -9.436 0.164 80.402
6938.5 0.165 80.359 0.986 -9.479 0.986 -9.479 0.165 80.359
6963.458 0.165 80.317 0.986 -9.523 0.986 -9.523 0.165 80.317
6988.417 0.166 80.274 0.986 -9.566 0.986 -9.566 0.166 80.274
7013.375 0.167 80.231 0.986 -9.61 0.986 -9.61 0.167 80.231
7038.333 0.168 80.188 0.985 -9.653 0.985 -9.653 0.168 80.188
7063.292 0.168 80.146 0.985 -9.697 0.985 -9.697 0.168 80.146
7088.25 0.169 80.103 0.985 -9.74 0.985 -9.74 0.169 80.103
7113.208 0.17 80.061 0.985 -9.783 0.985 -9.783 0.17 80.061
7138.167 0.171 80.018 0.985 -9.827 0.985 -9.827 0.171 80.018
7163.125 0.171 79.975 0.985 -9.87 0.985 -9.87 0.171 79.975
7188.083 0.172 79.933 0.985 -9.913 0.985 -9.913 0.172 79.933
7213.042 0.173 79.891 0.984 -9.956 0.984 -9.956 0.173 79.891
7238 0.174 79.848 0.984 -9.999 0.984 -9.999 0.174 79.848
7262.958 0.174 79.806 0.984 -10.042 0.984 -10.042 0.174 79.806
7287.917 0.175 79.764 0.984 -10.085 0.984 -10.085 0.175 79.764
7312.875 0.176 79.721 0.984 -10.128 0.984 -10.128 0.176 79.721
7337.833 0.177 79.679 0.984 -10.171 0.984 -10.171 0.177 79.679
7362.792 0.177 79.637 0.984 -10.214 0.984 -10.214 0.177 79.637
7387.75 0.178 79.595 0.984 -10.257 0.984 -10.257 0.178 79.595
7412.708 0.179 79.553 0.983 -10.299 0.983 -10.299 0.179 79.553
7437.667 0.18 79.51 0.983 -10.342 0.983 -10.342 0.18 79.51
7462.625 0.18 79.468 0.983 -10.385 0.983 -10.385 0.18 79.468
7487.583 0.181 79.426 0.983 -10.427 0.983 -10.427 0.181 79.426
7512.542 0.182 79.384 0.983 -10.47 0.983 -10.47 0.182 79.384
7537.5 0.182 79.342 0.983 -10.513 0.983 -10.513 0.182 79.342
7562.458 0.183 79.3 0.983 -10.555 0.983 -10.555 0.183 79.3
7587.417 0.184 79.259 0.982 -10.598 0.982 -10.598 0.184 79.259
7612.375 0.185 79.217 0.982 -10.64 0.982 -10.64 0.185 79.217
7637.333 0.185 79.175 0.982 -10.682 0.982 -10.682 0.185 79.175
7662.292 0.186 79.133 0.982 -10.725 0.982 -10.725 0.186 79.133
7687.25 0.187 79.091 0.982 -10.767 0.982 -10.767 0.187 79.091
7712.208 0.188 79.05 0.982 -10.809 0.982 -10.809 0.188 79.05
7737.167 0.188 79.008 0.982 -10.852 0.982 -10.852 0.188 79.008
7762.125 0.189 78.966 0.982 -10.894 0.982 -10.894 0.189 78.966
7787.083 0.19 78.925 0.981 -10.936 0.981 -10.936 0.19 78.925
7812.042 0.19 78.883 0.981 -10.978 0.981 -10.978 0.19 78.883
7837 0.191 78.842 0.981 -11.02 0.981 -11.02 0.191 78.842
7861.958 0.192 78.8 0.981 -11.062 0.981 -11.062 0.192 78.8
7886.917 0.193 78.759 0.981 -11.104 0.981 -11.104 0.193 78.759
7911.875 0.193 78.717 0.981 -11.146 0.981 -11.146 0.193 78.717
7936.833 0.194 78.676 0.981 -11.188 0.981 -11.188 0.194 78.676
7961.792 0.195 78.634 0.98 -11.23 0.98 -11.23 0.195 78.634
7986.75 0.195 78.593 0.98 -11.272 0.98 -11.272 0.195 78.593
8011.708 0.196 78.552 0.98 -11.314 0.98 -11.314 0.196 78.552
8036.667 0.197 78.51 0.98 -11.356 0.98 -11.356 0.197 78.51
8061.625 0.198 78.469 0.98 -11.397 0.98 -11.397 0.198 78.469
8086.583 0.198 78.428 0.98 -11.439 0.98 -11.439 0.198 78.428
8111.542 0.199 78.387 0.98 -11.481 0.98 -11.481 0.199 78.387
8136.5 0.2 78.345 0.979 -11.523 0.979 -11.523 0.2 78.345
8161.458 0.2 78.304 0.979 -11.564 0.979 -11.564 0.2 78.304
8186.417 0.201 78.263 0.979 -11.606 0.979 -11.606 0.201 78.263
8211.375 0.202 78.222 0.979 -11.647 0.979 -11.647 0.202 78.222
8236.333 0.203 78.181 0.979 -11.689 0.979 -11.689 0.203 78.181
8261.292 0.203 78.14 0.979 -11.73 0.979 -11.73 0.203 78.14
8286.25 0.204 78.099 0.979 -11.772 0.979 -11.772 0.204 78.099
8311.208 0.205 78.058 0.978 -11.813 0.978 -11.813 0.205 78.058
8336.167 0.205 78.017 0.978 -11.855 0.978 -11.855 0.205 78.017
8361.125 0.206 77.976 0.978 -11.896 0.978 -11.896 0.206 77.976
8386.083 0.207 77.935 0.978 -11.937 0.978 -11.937 0.207 77.935
8411.042 0.208 77.894 0.978 -11.979 0.978 -11.979 0.208 77.894
8436 0.208 77.854 0.978 -12.02 0.978 -12.02 0.208 77.854
8460.958 0.209 77.813 0.977 -12.061 0.977 -12.061 0.209 77.813
8485.917 0.21 77.772 0.977 -12.102 0.977 -12.102 0.21 77.772
8510.875 0.21 77.731 0.977 -12.144 0.977 -12.144 0.21 77.731
8535.833 0.211 77.691 0.977 -12.185 0.977 -12.185 0.211 77.691
8560.792 0.212 77.65 0.977 -12.226 0.977 -12.226 0.212 77.65
8585.75 0.212 77.609 0.977 -12.267 0.977 -12.267 0.212 77.609
8610.708 0.213 77.569 0.977 -12.308 0.977 -12.308 0.213 77.569
8635.667 0.214 77.528 0.976 -12.349 0.976 -12.349 0.214 77.528
8660.625 0.215 77.488 0.976 -12.39 0.976 -12.39 0.215 77.488
8685.583 0.215 77.447 0.976 -12.431 0.976 -12.431 0.215 77.447
8710.542 0.216 77.407 0.976 -12.472 0.976 -12.472 0.216 77.407
8735.5 0.217 77.366 0.976 -12.513 0.976 -12.513 0.217 77.366
8760.458 0.217 77.326 0.976 -12.553 0.976 -12.553 0.217 77.326
8785.417 0.218 77.285 0.975 -12.594 0.975 -12.594 0.218 77.285
8810.375 0.219 77.245 0.975 -12.635 0.975 -12.635 0.219 77.245
8835.333 0.219 77.204 0.975 -12.676 0.975 -12.676 0.219 77.204
8860.292 0.22 77.164 0.975 -12.717 0.975 -12.717 0.22 77.164
8885.25 0.221 77.124 0.975 -12.757 0.975 -12.757 0.221 77.124
8910.208 0.222 77.084 0.975 -12.798 0.975 -12.798 0.222 77.084
8935.167 0.222 77.043 0.975 -12.839 0.975 -12.839 0.222 77.043
8960.125 0.223 77.003 0.974 -12.879 0.974 -12.879 0.223 77.003
8985.083 0.224 76.963 0.974 -12.92 0.974 -12.92 0.224 76.963
9010.042 0.224 76.923 0.974 -12.96 0.974 -12.96 0.224 76.923
9035 0.225 76.883 0.974 -13.001 0.974 -13.001 0.225 76.883
9059.958 0.226 76.842 0.974 -13.041 0.974 -13.041 0.226 76.842
9084.917 0.226 76.802 0.974 -13.082 0.974 -13.082 0.226 76.802
9109.875 0.227 76.762 0.973 -13.122 0.973 -13.122 0.227 76.762
9134.833 0.228 76.722 0.973 -13.163 0.973 -13.163 0.228 76.722
9159.792 0.228 76.682 0.973 -13.203 0.973 -13.203 0.228 76.682
9184.75 0.229 76.642 0.973 -13.243 0.973 -13.243 0.229 76.642
9209.708 0.23 76.602 0.973 -13.284 0.973 -13.284 0.23 76.602
9234.667 0.23 76.562 0.973 -13.324 0.973 -13.324 0.23 76.562
9259.625 0.231 76.522 0.972 -13.364 0.972 -13.364 0.231 76.522
9284.583 0.232 76.483 0.972 -13.404 0.972 -13.404 0.232 76.483
9309.542 0.233 76.443 0.972 -13.445 0.972 -13.445 0.233 76.443
9334.5 0.233 76.403 0.972 -13.485 0.972 -13.485 0.233 76.403
9359.458 0.234 76.363 0.972 -13.525 0.972 -13.525 0.234 76.363
9384.417 0.235 76.323 0.972 -13.565 0.972 -13.565 0.235 76.323
9409.375 0.235 76.284 0.971 -13.605 0.971 -13.605 0.235 76.284
9434.333 0.236 76.244 0.971 -13.645 0.971 -13.645 0.236 76.244
9459.292 0.237 76.204 0.971 -13.685 0.971 -13.685 0.237 76.204
9484.25 0.237 76.164 0.971 -13.725 0.971 -13.725 0.237 76.164
9509.208 0.238 76.125 0.971 -13.765 0.971 -13.765 0.238 76.125
9534.167 0.239 76.085 0.971 -13.805 0.971 -13.805 0.239 76.085
9559.125 0.239 76.046 0.97 -13.845 0.97 -13.845 0.239 76.046
9584.083 0.24 76.006 0.97 -13.885 0.97 -13.885 0.24 76.006
9609.042 0.241 75.966 0.97 -13.925 0.97 -13.925 0.241 75.966
9634 0.241 75.927 0.97 -13.965 0.97 -13.965 0.241 75.927
9658.958 0.242 75.887 0.97 -14.005 0.97 -14.005 0.242 75.887
9683.917 0.243 75.848 0.97 -14.044 0.97 -14.044 0.243 75.848
9708.875 0.243 75.808 0.969 -14.084 0.969 -14.084 0.243 75.808
9733.833 0.244 75.769 0.969 -14.124 0.969 -14.124 0.244 75.769
9758.792 0.245 75.73 0.969 -14.164 0.969 -14.164 0.245 75.73
9783.75 0.245 75.69 0.969 -14.203 0.969 -14.203 0.245 75.69
9808.708 0.246 75.651 0.969 -14.243 0.969 -14.243 0.246 75.651
9833.667 0.247 75.612 0.969 -14.283 0.969 -14.283 0.247 75.612
9858.625 0.247 75.572 0.968 -14.322 0.968 -14.322 0.247 75.572
9883.583 0.248 75.533 0.968 -14.362 0.968 -14.362 0.248 75.533
9908.542 0.249 75.494 0.968 -14.401 0.968 -14.401 0.249 75.494
9933.5 0.249 75.454 0.968 -14.441 0.968 -14.441 0.249 75.454
9958.458 0.25 75.415 0.968 -14.48 0.968 -14.48 0.25 75.415
9983.417 0.251 75.376 0.968 -14.52 0.968 -14.52 0.251 75.376
10008.375 0.251 75.337 0.967 -14.559 0.967 -14.559 0.251 75.337
10033.333 0.252 75.298 0.967 -14.599 0.967 -14.599 0.252 75.298
10058.292 0.253 75.259 0.967 -14.638 0.967 -14.638 0.253 75.259
10083.25 0.253 75.22 0.967 -14.678 0.967 -14.678 0.253 75.22
10108.208 0.254 75.181 0.967 -14.717 0.967 -14.717 0.254 75.181
10133.167 0.255 75.141 0.967 -14.756 0.967 -14.756 0.255 75.141
10158.125 0.255 75.102 0.966 -14.796 0.966 -14.796 0.255 75.102
10183.083 0.256 75.063 0.966 -14.835 0.966 -14.835 0.256 75.063
10208.042 0.257 75.025 0.966 -14.874 0.966 -14.874 0.257 75.025
10233 0.257 74.986 0.966 -14.913 0.966 -14.913 0.257 74.986
10257.958 0.258 74.947 0.966 -14.953 0.966 -14.953 0.258 74.947
10282.917 0.259 74.908 0.966 -14.992 0.966 -14.992 0.259 74.908
10307.875 0.259 74.869 0.965 -15.031 0.965 -15.031 0.259 74.869
10332.833 0.26 74.83 0.965 -15.07 0.965 -15.07 0.26 74.83
10357.792 0.261 74.791 0.965 -15.109 0.965 -15.109 0.261 74.791
10382.75 0.261 74.752 0.965 -15.148 0.965 -15.148 0.261 74.752
10407.708 0.262 74.714 0.965 -15.187 0.965 -15.187 0.262 74.714
10432.667 0.263 74.675 0.964 -15.226 0.964 -15.226 0.263 74.675
10457.625 0.263 74.636 0.964 -15.265 0.964 -15.265 0.263 74.636
10482.583 0.264 74.597 0.964 -15.304 0.964 -15.304 0.264 74.597
10507.542 0.265 74.559 0.964 -15.343 0.964 -15.343 0.265 74.559
10532.5 0.265 74.52 0.964 -15.382 0.964 -15.382 0.265 74.52
10557.458 0.266 74.481 0.964 -15.421 0.964 -15.421 0.266 74.481
10582.417 0.267 74.443 0.963 -15.46 0.963 -15.46 0.267 74.443
10607.375 0.267 74.404 0.963 -15.499 0.963 -15.499 0.267 74.404
10632.333 0.268 74.366 0.963 -15.538 0.963 -15.538 0.268 74.366
10657.292 0.269 74.327 0.963 -15.576 0.963 -15.576 0.269 74.327
10682.25 0.269 74.289 0.963 -15.615 0.963 -15.615 0.269 74.289
10707.208 0.27 74.25 0.962 -15.654 0.962 -15.654 0.27 74.25
10732.167 0.27 74.212 0.962 -15.693 0.962 -15.693 0.27 74.212
10757.125 0.271 74.173 0.962 -15.731 0.962 -15.731 0.271 74.173
10782.083 0.272 74.135 0.962 -15.77 0.962 -15.77 0.272 74.135
10807.042 0.272 74.096 0.962 -15.809 0.962 -15.809 0.272 74.096
10832 0.273 74.058 0.962 -15.847 0.962 -15.847 0.273 74.058
10856.958 0.274 74.019 0.961 -15.886 0.961 -15.886 0.274 74.019
10881.917 0.274 73.981 0.961 -15.924 0.961 -15.924 0.274 73.981
10906.875 0.275 73.943 0.961 -15.963 0.961 -15.963 0.275 73.943
10931.833 0.276 73.905 0.961 -16.002 0.961 -16.002 0.276 73.905
10956.792 0.276 73.866 0.961 -16.04 0.961 -16.04 0.276 73.866
10981.75 0.277 73.828 0.96 -16.079 0.96 -16.079 0.277 73.828
11006.708 0.278 73.79 0.96 -16.117 0.96 -16.117 0.278 73.79
11031.667 0.278 73.752 0.96 -16.155 0.96 -16.155 0.278 73.752
11056.625 0.279 73.713 0.96 -16.194 0.96 -16.194 0.279 73.713
11081.583 0.28 73.675 0.96 -16.232 0.96 -16.232 0.28 73.675
11106.542 0.28 73.637 0.959 -16.271 0.959 -16.271 0.28 73.637
11131.5 0.281 73.599 0.959 -16.309 0.959 -16.309 0.281 73.599
11156.458 0.281 73.561 0.959 -16.347 0.959 -16.347 0.281 73.561
11181.417 0.282 73.523 0.959 -16.386 0.959 -16.386 0.282 73.523
11206.375 0.283 73.485 0.959 -16.424 0.959 -16.424 0.283 73.485
11231.333 0.283 73.447 0.959 -16.462 0.959 -16.462 0.283 73.447
11256.292 0.284 73.409 0.958 -16.5 0.958 -16.5 0.284 73.409
11281.25 0.285 73.371 0.958 -16.539 0.958 -16.539 0.285 73.371
11306.208 0.285 73.333 0.958 -16.577 0.958 -16.577 0.285 73.333
11331.167 0.286 73.295 0.958 -16.615 0.958 -16.615 0.286 73.295
11356.125 0.287 73.257 0.958 -16.653 0.958 -16.653 0.287 73.257
11381.083 0.287 73.219 0.957 -16.691 0.957 -16.691 0.287 73.219
11406.042 0.288 73.181 0.957 -16.729 0.957 -16.729 0.288 73.181
11431 0.288 73.143 0.957 -16.767 0.957 -16.767 0.288 73.143
11455.958 0.289 73.105 0.957 -16.806 0.957 -16.806 0.289 73.105
11480.917 0.29 73.067 0.957 -16.844 0.957 -16.844 0.29 73.067
11505.875 0.29 73.03 0.956 -16.882 0.956 -16.882 0.29 73.03
11530.833 0.291 72.992 0.956 -16.92 0.956 -16.92 0.291 72.992
11555.792 0.292 72.954 0.956 -16.957 0.956 -16.957 0.292 72.954
11580.75 0.292 72.916 0.956 -16.995 0.956 -16.995 0.292 72.916
11605.708 0.293 72.879 0.956 -17.033 0.956 -17.033 0.293 72.879
11630.667 0.294 72.841 0.955 -17.071 0.955 -17.071 0.294 72.841
11655.625 0.294 72.803 0.955 -17.109 0.955 -17.109 0.294 72.803
11680.583 0.295 72.766 0.955 -17.147 0.955 -17.147 0.295 72.766
11705.542 0.295 72.728 0.955 -17.185 0.955 -17.185 0.295 72.728
11730.5 0.296 72.691 0.955 -17.223 0.955 -17.223 0.296 72.691
11755.458 0.297 72.653 0.955 -17.26 0.955 -17.26 0.297 72.653
11780.417 0.297 72.615 0.954 -17.298 0.954 -17.298 0.297 72.615
11805.375 0.298 72.578 0.954 -17.336 0.954 -17.336 0.298 72.578
11830.333 0.299 72.54 0.954 -17.374 0.954 -17.374 0.299 72.54
11855.292 0.299 72.503 0.954 -17.411 0.954 -17.411 0.299 72.503
11880.25 0.3 72.465 0.954 -17.449 0.954 -17.449 0.3 72.465
11905.208 0.3 72.428 0.953 -17.487 0.953 -17.487 0.3 72.428
11930.167 0.301 72.391 0.953 -17.524 0.953 -17.524 0.301 72.391
11955.125 0.302 72.353 0.953 -17.562 0.953 -17.562 0.302 72.353
11980.083 0.302 72.316 0.953 -17.599 0.953 -17.599 0.302 72.316
12005.042 0.303 72.278 0.953 -17.637 0.953 -17.637 0.303 72.278
12030 0.304 72.241 0.952 -17.674 0.952 -17.674 0.304 72.241
12054.958 0.304 72.204 0.952 -17.712 0.952 -17.712 0.304 72.204
12079.917 0.305 72.166 0.952 -17.749 0.952 -17.749 0.305 72.166
12104.875 0.305 72.129 0.952 -17.787 0.952 -17.787 0.305 72.129
12129.833 0.306 72.092 0.952 -17.824 0.952 -17.824 0.306 72.092
12154.792 0.307 72.055 0.951 -17.862 0.951 -17.862 0.307 72.055
12179.75 0.307 72.017 0.951 -17.899 0.951 -17.899 0.307 72.017
12204.708 0.308 71.98 0.951 -17.937 0.951 -17.937 0.308 71.98
12229.667 0.309 71.943 0.951 -17.974 0.951 -17.974 0.309 71.943
12254.625 0.309 71.906 0.951 -18.011 0.951 -18.011 0.309 71.906
12279.583 0.31 71.869 0.95 -18.049 0.95 -18.049 0.31 71.869
12304.542 0.31 71.832 0.95 -18.086 0.95 -18.086 0.31 71.832
12329.5 0.311 71.795 0.95 -18.123 0.95 -18.123 0.311 71.795
12354.458 0.312 71.758 0.95 -18.16 0.95 -18.16 0.312 71.758
12379.417 0.312 71.72 0.95 -18.198 0.95 -18.198 0.312 71.72
12404.375 0.313 71.683 0.949 -18.235 0.949 -18.235 0.313 71.683
12429.333 0.314 71.646 0.949 -18.272 0.949 -18.272 0.314 71.646
12454.292 0.314 71.609 0.949 -18.309 0.949 -18.309 0.314 71.609
12479.25 0.315 71.572 0.949 -18.346 0.949 -18.346 0.315 71.572
12504.208 0.315 71.536 0.949 -18.383 0.949 -18.383 0.315 71.536
12529.167 0.316 71.499 0.948 -18.42 0.948 -18.42 0.316 71.499
12554.125 0.317 71.462 0.948 -18.458 0.948 -18.458 0.317 71.462
12579.083 0.317 71.425 0.948 -18.495 0.948 -18.495 0.317 71.425
12604.042 0.318 71.388 0.948 -18.532 0.948 -18.532 0.318 71.388
12629 0.318 71.351 0.947 -18.569 0.947 -18.569 0.318 71.351
12653.958 0.319 71.314 0.947 -18.606 0.947 -18.606 0.319 71.314
12678.917 0.32 71.278 0.947 -18.643 0.947 -18.643 0.32 71.278
12703.875 0.32 71.241 0.947 -18.68 0.947 -18.68 0.32 71.241
12728.833 0.321 71.204 0.947 -18.716 0.947 -18.716 0.321 71.204
12753.792 0.321 71.167 0.946 -18.753 0.946 -18.753 0.321 71.167
12778.75 0.322 71.131 0.946 -18.79 0.946 -18.79 0.322 71.131
12803.708 0.323 71.094 0.946 -18.827 0.946 -18.827 0.323 71.094
12828.667 0.323 71.057 0.946 -18.864 0.946 -18.864 0.323 71.057
12853.625 0.324 71.021 0.946 -18.901 0.946 -18.901 0.324 71.021
12878.583 0.325 70.984 0.945 -18.938 0.945 -18.938 0.325 70.984
12903.542 0.325 70.947 0.945 -18.974 0.945 -18.974 0.325 70.947
12928.5 0.326 70.911 0.945 -19.011 0.945 -19.011 0.326 70.911
12953.458 0.326 70.874 0.945 -19.048 0.945 -19.048 0.326 70.874
12978.417 0.327 70.838 0.945 -19.085 0.945 -19.085 0.327 70.838
13003.375 0.328 70.801 0.944 -19.121 0.944 -19.121 0.328 70.801
13028.333 0.328 70.765 0.944 -19.158 0.944 -19.158 0.328 70.765
13053.292 0.329 70.728 0.944 -19.195 0.944 -19.195 0.329 70.728
13078.25 0.329 70.692 0.944 -19.231 0.944 -19.231 0.329 70.692
13103.208 0.33 70.655 0.944 -19.268 0.944 -19.268 0.33 70.655
13128.167 0.331 70.619 0.943 -19.304 0.943 -19.304 0.331 70.619
13153.125 0.331 70.582 0.943 -19.341 0.943 -19.341 0.331 70.582
13178.083 0.332 70.546 0.943 -19.377 0.943 -19.377 0.332 70.546
13203.042 0.332 70.51 0.943 -19.414 0.943 -19.414 0.332 70.51
13228 0.333 70.473 0.942 -19.45 0.942 -19.45 0.333 70.473
13252.958 0.334 70.437 0.942 -19.487 0.942 -19.487 0.334 70.437
13277.917 0.334 70.401 0.942 -19.523 0.942 -19.523 0.334 70.401
13302.875 0.335 70.364 0.942 -19.56 0.942 -19.56 0.335 70.364
13327.833 0.335 70.328 0.942 -19.596 0.942 -19.596 0.335 70.328
13352.792 0.336 70.292 0.941 -19.633 0.941 -19.633 0.336 70.292
13377.75 0.337 70.256 0.941 -19.669 0.941 -19.669 0.337 70.256
13402.708 0.337 70.22 0.941 -19.705 0.941 -19.705 0.337 70.22
13427.667 0.338 70.183 0.941 -19.742 0.941 -19.742 0.338 70.183
13452.625 0.338 70.147 0.941 -19.778 0.941 -19.778 0.338 70.147
13477.583 0.339 70.111 0.94 -19.814 0.94 -19.814 0.339 70.111
13502.542 0.34 70.075 0.94 -19.85 0.94 -19.85 0.34 70.075
13527.5 0.34 70.039 0.94 -19.887 0.94 -19.887 0.34 70.039
13552.458 0.341 70.003 0.94 -19.923 0.94 -19.923 0.341 70.003
13577.417 0.341 69.967 0.939 -19.959 0.939 -19.959 0.341 69.967
13602.375 0.342 69.931 0.939 -19.995 0.939 -19.995 0.342 69.931
13627.333 0.343 69.895 0.939 -20.031 0.939 -20.031 0.343 69.895
13652.292 0.343 69.859 0.939 -20.068 0.939 -20.068 0.343 69.859
13677.25 0.344 69.823 0.939 -20.104 0.939 -20.104 0.344 69.823
13702.208 0.344 69.787 0.938 -20.14 0.938 -20.14 0.344 69.787
13727.167 0.345 69.751 0.938 -20.176 0.938 -20.176 0.345 69.751
13752.125 0.345 69.715 0.938 -20.212 0.938 -20.212 0.345 69.715
13777.083 0.346 69.679 0.938 -20.248 0.938 -20.248 0.346 69.679
13802.042 0.347 69.643 0.938 -20.284 0.938 -20.284 0.347 69.643
13827 0.347 69.607 0.937 -20.32 0.937 -20.32 0.347 69.607
13851.958 0.348 69.571 0.937 -20.356 0.937 -20.356 0.348 69.571
13876.917 0.348 69.536 0.937 -20.392 0.937 -20.392 0.348 69.536
13901.875 0.349 69.5 0.937 -20.428 0.937 -20.428 0.349 69.5
13926.833 0.35 69.464 0.936 -20.464 0.936 -20.464 0.35 69.464
13951.792 0.35 69.428 0.936 -20.5 0.936 -20.5 0.35 69.428
13976.75 0.351 69.393 0.936 -20.535 0.936 -20.535 0.351 69.393
14001.708 0.351 69.357 0.936 -20.571 0.936 -20.571 0.351 69.357
14026.667 0.352 69.321 0.936 -20.607 0.936 -20.607 0.352 69.321
14051.625 0.353 69.286 0.935 -20.643 0.935 -20.643 0.353 69.286
14076.583 0.353 69.25 0.935 -20.679 0.935 -20.679 0.353 69.25
14101.542 0.354 69.214 0.935 -20.714 0.935 -20.714 0.354 69.214
14126.5 0.354 69.179 0.935 -20.75 0.935 -20.75 0.354 69.179
14151.458 0.355 69.143 0.934 -20.786 0.934 -20.786 0.355 69.143
14176.417 0.355 69.108 0.934 -20.822 0.934 -20.822 0.355 69.108
14201.375 0.356 69.072 0.934 -20.857 0.934 -20.857 0.356 69.072
14226.333 0.357 69.036 0.934 -20.893 0.934 -20.893 0.357 69.036
14251.292 0.357 69.001 0.934 -20.929 0.934 -20.929 0.357 69.001
14276.25 0.358 68.965 0.933 -20.964 0.933 -20.964 0.358 68.965
14301.208 0.358 68.93 0.933 -21 0.933 -21 0.358 68.93
14326.167 0.359 68.895 0.933 -21.035 0.933 -21.035 0.359 68.895
14351.125 0.36 68.859 0.933 -21.071 0.933 -21.071 0.36 68.859
14376.083 0.36 68.824 0.932 -21.106 0.932 -21.106 0.36 68.824
14401.042 0.361 68.788 0.932 -21.142 0.932 -21.142 0.361 68.788
14426 0.361 68.753 0.932 -21.177 0.932 -21.177 0.361 68.753
14450.958 0.362 68.718 0.932 -21.213 0.932 -21.213 0.362 68.718
14475.917 0.362 68.682 0.932 -21.248 0.932 -21.248 0.362 68.682
14500.875 0.363 68.647 0.931 -21.284 0.931 -21.284 0.363 68.647
14525.833 0.364 68.612 0.931 -21.319 0.931 -21.319 0.364 68.612
14550.792 0.364 68.576 0.931 -21.355 0.931 -21.355 0.364 68.576
14575.75 0.365 68.541 0.931 -21.39 0.931 -21.39 0.365 68.541
14600.708 0.365 68.506 0.93 -21.425 0.93 -21.425 0.365 68.506
14625.667 0.366 68.471 0.93 -21.461 0.93 -21.461 0.366 68.471
14650.625 0.366 68.436 0.93 -21.496 0.93 -21.496 0.366 68.436
14675.583 0.367 68.4 0.93 -21.531 0.93 -21.531 0.367 68.4
14700.542 0.368 68.365 0.93 -21.567 0.93 -21.567 0.368 68.365
14725.5 0.368 68.33 0.929 -21.602 0.929 -21.602 0.368 68.33
14750.458 0.369 68.295 0.929 -21.637 0.929 -21.637 0.369 68.295
14775.417 0.369 68.26 0.929 -21.672 0.929 -21.672 0.369 68.26
14800.375 0.37 68.225 0.929 -21.707 0.929 -21.707 0.37 68.225
14825.333 0.37 68.19 0.928 -21.743 0.928 -21.743 0.37 68.19
14850.292 0.371 68.155 0.928 -21.778 0.928 -21.778 0.371 68.155
14875.25 0.372 68.12 0.928 -21.813 0.928 -21.813 0.372 68.12
14900.208 0.372 68.085 0.928 -21.848 0.928 -21.848 0.372 68.085
14925.167 0.373 68.05 0.928 -21.883 0.928 -21.883 0.373 68.05
14950.125 0.373 68.015 0.927 -21.918 0.927 -21.918 0.373 68.015
14975.083 0.374 67.98 0.927 -21.953 0.927 -21.953 0.374 67.98
15000.042 0.374 67.945 0.927 -21.988 0.927 -21.988 0.374 67.945
15025 0.375 67.91 0.927 -22.023 0.927 -22.023 0.375 67.91
15049.958 0.376 67.875 0.926 -22.058 0.926 -22.058 0.376 67.875
15074.917 0.376 67.841 0.926 -22.093 0.926 -22.093 0.376 67.841
15099.875 0.377 67.806 0.926 -22.128 0.926 -22.128 0.377 67.806
15124.833 0.377 67.771 0.926 -22.163 0.926 -22.163 0.377 67.771
15149.792 0.378 67.736 0.925 -22.198 0.925 -22.198 0.378 67.736
15174.75 0.378 67.701 0.925 -22.233 0.925 -22.233 0.378 67.701
15199.708 0.379 67.667 0.925 -22.267 0.925 -22.267 0.379 67.667
15224.667 0.379 67.632 0.925 -22.302 0.925 -22.302 0.379 67.632
15249.625 0.38 67.597 0.925 -22.337 0.925 -22.337 0.38 67.597
15274.583 0.381 67.563 0.924 -22.372 0.924 -22.372 0.381 67.563
15299.542 0.381 67.528 0.924 -22.407 0.924 -22.407 0.381 67.528
15324.5 0.382 67.493 0.924 -22.441 0.924 -22.441 0.382 67.493
15349.458 0.382 67.459 0.924 -22.476 0.924 -22.476 0.382 67.459
15374.417 0.383 67.424 0.923 -22.511 0.923 -22.511 0.383 67.424
15399.375 0.383 67.39 0.923 -22.546 0.923 -22.546 0.383 67.39
15424.333 0.384 67.355 0.923 -22.58 0.923 -22.58 0.384 67.355
15449.292 0.385 67.32 0.923 -22.615 0.923 -22.615 0.385 67.32
15474.25 0.385 67.286 0.922 -22.65 0.922 -22.65 0.385 67.286
15499.208 0.386 67.251 0.922 -22.684 0.922 -22.684 0.386 67.251
15524.167 0.386 67.217 0.922 -22.719 0.922 -22.719 0.386 67.217
15549.125 0.387 67.182 0.922 -22.753 0.922 -22.753 0.387 67.182
15574.083 0.387 67.148 0.922 -22.788 0.922 -22.788 0.387 67.148
15599.042 0.388 67.114 0.921 -22.822 0.921 -22.822 0.388 67.114
15624 0.388 67.079 0.921 -22.857 0.921 -22.857 0.388 67.079
15648.958 0.389 67.045 0.921 -22.891 0.921 -22.891 0.389 67.045
15673.917 0.39 67.01 0.921 -22.926 0.921 -22.926 0.39 67.01
15698.875 0.39 66.976 0.92 -22.96 0.92 -22.96 0.39 66.976
15723.833 0.391 66.942 0.92 -22.995 0.92 -22.995 0.391 66.942
15748.792 0.391 66.907 0.92 -23.029 0.92 -23.029 0.391 66.907
15773.75 0.392 66.873 0.92 -23.064 0.92 -23.064 0.392 66.873
15798.708 0.392 66.839 0.919 -23.098 0.919 -23.098 0.392 66.839
15823.667 0.393 66.805 0.919 -23.132 0.919 -23.132 0.393 66.805
15848.625 0.393 66.77 0.919 -23.167 0.919 -23.167 0.393 66.77
15873.583 0.394 66.736 0.919 -23.201 0.919 -23.201 0.394 66.736
15898.542 0.395 66.702 0.918 -23.235 0.918 -23.235 0.395 66.702
15923.5 0.395 66.668 0.918 -23.269 0.918 -23.269 0.395 66.668
15948.458 0.396 66.634 0.918 -23.304 0.918 -23.304 0.396 66.634
15973.417 0.396 66.6 0.918 -23.338 0.918 -23.338 0.396 66.6
15998.375 0.397 66.566 0.918 -23.372 0.918 -23.372 0.397 66.566
16023.333 0.397 66.531 0.917 -23.406 0.917 -23.406 0.397 66.531
16048.292 0.398 66.497 0.917 -23.44 0.917 -23.44 0.398 66.497
16073.25 0.398 66.463 0.917 -23.475 0.917 -23.475 0.398 66.463
16098.208 0.399 66.429 0.917 -23.509 0.917 -23.509 0.399 66.429
16123.167 0.399 66.395 0.916 -23.543 0.916 -23.543 0.399 66.395
16148.125 0.4 66.361 0.916 -23.577 0.916 -23.577 0.4 66.361
16173.083 0.401 66.327 0.916 -23.611 0.916 -23.611 0.401 66.327
16198.042 0.401 66.293 0.916 -23.645 0.916 -23.645 0.401 66.293
16223 0.402 66.259 0.915 -23.679 0.915 -23.679 0.402 66.259
16247.958 0.402 66.226 0.915 -23.713 0.915 -23.713 0.402 66.226
16272.917 0.403 66.192 0.915 -23.747 0.915 -23.747 0.403 66.192
16297.875 0.403 66.158 0.915 -23.781 0.915 -23.781 0.403 66.158
16322.833 0.404 66.124 0.914 -23.815 0.914 -23.815 0.404 66.124
16347.792 0.404 66.09 0.914 -23.849 0.914 -23.849 0.404 66.09
16372.75 0.405 66.056 0.914 -23.883 0.914 -23.883 0.405 66.056
16397.708 0.405 66.023 0.914 -23.917 0.914 -23.917 0.405 66.023
16422.667 0.406 65.989 0.913 -23.951 0.913 -23.951 0.406 65.989
16447.625 0.406 65.955 0.913 -23.984 0.913 -23.984 0.406 65.955
16472.583 0.407 65.921 0.913 -24.018 0.913 -24.018 0.407 65.921
16497.542 0.408 65.888 0.913 -24.052 0.913 -24.052 0.408 65.888
16522.5 0.408 65.854 0.913 -24.086 0.913 -24.086 0.408 65.854
16547.458 0.409 65.82 0.912 -24.12 0.912 -24.12 0.409 65.82
16572.417 0.409 65.787 0.912 -24.153 0.912 -24.153 0.409 65.787
16597.375 0.41 65.753 0.912 -24.187 0.912 -24.187 0.41 65.753
16622.333 0.41 65.719 0.912 -24.221 0.912 -24.221 0.41 65.719
16647.292 0.411 65.686 0.911 -24.254 0.911 -24.254 0.411 65.686
16672.25 0.411 65.652 0.911 -24.288 0.911 -24.288 0.411 65.652
16697.208 0.412 65.619 0.911 -24.322 0.911 -24.322 0.412 65.619
16722.167 0.412 65.585 0.911 -24.355 0.911 -24.355 0.412 65.585
16747.125 0.413 65.552 0.91 -24.389 0.91 -24.389 0.413 65.552
16772.083 0.413 65.518 0.91 -24.422 0.91 -24.422 0.413 65.518
16797.042 0.414 65.485 0.91 -24.456 0.91 -24.456 0.414 65.485
16822 0.415 65.451 0.91 -24.49 0.91 -24.49 0.415 65.451
16846.958 0.415 65.418 0.909 -24.523 0.909 -24.523 0.415 65.418
16871.917 0.416 65.384 0.909 -24.557 0.909 -24.557 0.416 65.384
16896.875 0.416 65.351 0.909 -24.59 0.909 -24.59 0.416 65.351
16921.833 0.417 65.318 0.909 -24.624 0.909 -24.624 0.417 65.318
16946.792 0.417 65.284 0.908 -24.657 0.908 -24.657 0.417 65.284
16971.75 0.418 65.251 0.908 -24.69 0.908 -24.69 0.418 65.251
16996.708 0.418 65.218 0.908 -24.724 0.908 -24.724 0.418 65.218
17021.667 0.419 65.184 0.908 -24.757 0.908 -24.757 0.419 65.184
17046.625 0.419 65.151 0.907 -24.791 0.907 -24.791 0.419 65.151
17071.583 0.42 65.118 0.907 -24.824 0.907 -24.824 0.42 65.118
17096.542 0.42 65.085 0.907 -24.857 0.907 -24.857 0.42 65.085
17121.5 0.421 65.051 0.907 -24.891 0.907 -24.891 0.421 65.051
17146.458 0.421 65.018 0.906 -24.924 0.906 -24.924 0.421 65.018
17171.417 0.422 64.985 0.906 -24.957 0.906 -24.957 0.422 64.985
17196.375 0.422 64.952 0.906 -24.99 0.906 -24.99 0.422 64.952
17221.333 0.423 64.919 0.906 -25.024 0.906 -25.024 0.423 64.919
17246.292 0.424 64.886 0.905 -25.057 0.905 -25.057 0.424 64.886
17271.25 0.424 64.853 0.905 -25.09 0.905 -25.09 0.424 64.853
17296.208 0.425 64.819 0.905 -25.123 0.905 -25.123 0.425 64.819
17321.167 0.425 64.786 0.905 -25.156 0.905 -25.156 0.425 64.786
17346.125 0.426 64.753 0.904 -25.189 0.904 -25.189 0.426 64.753
17371.083 0.426 64.72 0.904 -25.222 0.904 -25.222 0.426 64.72
17396.042 0.427 64.687 0.904 -25.256 0.904 -25.256 0.427 64.687
17421 0.427 64.654 0.904 -25.289 0.904 -25.289 0.427 64.654
17445.958 0.428 64.621 0.903 -25.322 0.903 -25.322 0.428 64.621
17470.917 0.428 64.588 0.903 -25.355 0.903 -25.355 0.428 64.588
17495.875 0.429 64.556 0.903 -25.388 0.903 -25.388 0.429 64.556
17520.833 0.429 64.523 0.903 -25.421 0.903 -25.421 0.429 64.523
17545.792 0.43 64.49 0.903 -25.454 0.903 -25.454 0.43 64.49
17570.75 0.43 64.457 0.902 -25.487 0.902 -25.487 0.43 64.457
17595.708 0.431 64.424 0.902 -25.519 0.902 -25.519 0.431 64.424
17620.667 0.431 64.391 0.902 -25.552 0.902 -25.552 0.431 64.391
17645.625 0.432 64.358 0.902 -25.585 0.902 -25.585 0.432 64.358
17670.583 0.432 64.326 0.901 -25.618 0.901 -25.618 0.432 64.326
17695.542 0.433 64.293 0.901 -25.651 0.901 -25.651 0.433 64.293
17720.5 0.433 64.26 0.901 -25.684 0.901 -25.684 0.433 64.26
17745.458 0.434 64.227 0.901 -25.717 0.901 -25.717 0.434 64.227
17770.417 0.434 64.195 0.9 -25.749 0.9 -25.749 0.434 64.195
17795.375 0.435 64.162 0.9 -25.782 0.9 -25.782 0.435 64.162
17820.333 0.435 64.129 0.9 -25.815 0.9 -25.815 0.435 64.129
17845.292 0.436 64.097 0.9 -25.848 0.9 -25.848 0.436 64.097
17870.25 0.436 64.064 0.899 -25.88 0.899 -25.88 0.436 64.064
17895.208 0.437 64.032 0.899 -25.913 0.899 -25.913 0.437 64.032
17920.167 0.438 63.999 0.899 -25.946 0.899 -25.946 0.438 63.999
17945.125 0.438 63.966 0.899 -25.978 0.899 -25.978 0.438 63.966
17970.083 0.439 63.934 0.898 -26.011 0.898 -26.011 0.439 63.934
17995.042 0.439 63.901 0.898 -26.044 0.898 -26.044 0.439 63.901
18020 0.44 63.869 0.898 -26.076 0.898 -26.076 0.44 63.869
18044.958 0.44 63.836 0.898 -26.109 0.898 -26.109 0.44 63.836
18069.917 0.441 63.804 0.897 -26.141 0.897 -26.141 0.441 63.804
18094.875 0.441 63.771 0.897 -26.174 0.897 -26.174 0.441 63.771
18119.833 0.442 63.739 0.897 -26.206 0.897 -26.206 0.442 63.739
18144.792 0.442 63.707 0.897 -26.239 0.897 -26.239 0.442 63.707
18169.75 0.443 63.674 0.896 -26.271 0.896 -26.271 0.443 63.674
18194.708 0.443 63.642 0.896 -26.304 0.896 -26.304 0.443 63.642
18219.667 0.444 63.61 0.896 -26.336 0.896 -26.336 0.444 63.61
18244.625 0.444 63.577 0.896 -26.368 0.896 -26.368 0.444 63.577
18269.583 0.445 63.545 0.895 -26.401 0.895 -26.401 0.445 63.545
18294.542 0.445 63.513 0.895 -26.433 0.895 -26.433 0.445 63.513
18319.5 0.446 63.48 0.895 -26.466 0.895 -26.466 0.446 63.48
18344.458 0.446 63.448 0.895 -26.498 0.895 -26.498 0.446 63.448
18369.417 0.447 63.416 0.894 -26.53 0.894 -26.53 0.447 63.416
18394.375 0.447 63.384 0.894 -26.562 0.894 -26.562 0.447 63.384
18419.333 0.448 63.351 0.894 -26.595 0.894 -26.595 0.448 63.351
18444.292 0.448 63.319 0.894 -26.627 0.894 -26.627 0.448 63.319
18469.25 0.449 63.287 0.893 -26.659 0.893 -26.659 0.449 63.287
18494.208 0.449 63.255 0.893 -26.691 0.893 -26.691 0.449 63.255
18519.167 0.45 63.223 0.893 -26.724 0.893 -26.724 0.45 63.223
18544.125 0.45 63.191 0.893 -26.756 0.893 -26.756 0.45 63.191
18569.083 0.451 63.159 0.892 -26.788 0.892 -26.788 0.451 63.159
18594.042 0.451 63.127 0.892 -26.82 0.892 -26.82 0.451 63.127
18619 0.452 63.095 0.892 -26.852 0.892 -26.852 0.452 63.095
18643.958 0.452 63.063 0.892 -26.884 0.892 -26.884 0.452 63.063
18668.917 0.453 63.031 0.891 -26.916 0.891 -26.916 0.453 63.031
18693.875 0.453 62.999 0.891 -26.948 0.891 -26.948 0.453 62.999
18718.833 0.454 62.967 0.891 -26.98 0.891 -26.98 0.454 62.967
18743.792 0.454 62.935 0.89 -27.012 0.89 -27.012 0.454 62.935
18768.75 0.455 62.903 0.89 -27.044 0.89 -27.044 0.455 62.903
18793.708 0.455 62.871 0.89 -27.076 0.89 -27.076 0.455 62.871
18818.667 0.456 62.839 0.89 -27.108 0.89 -27.108 0.456 62.839
18843.625 0.456 62.807 0.889 -27.14 0.889 -27.14 0.456 62.807
18868.583 0.457 62.775 0.889 -27.172 0.889 -27.172 0.457 62.775
18893.542 0.457 62.744 0.889 -27.204 0.889 -27.204 0.457 62.744
18918.5 0.458 62.712 0.889 -27.236 0.889 -27.236 0.458 62.712
18943.458 0.458 62.68 0.888 -27.268 0.888 -27.268 0.458 62.68
18968.417 0.459 62.648 0.888 -27.3 0.888 -27.3 0.459 62.648
18993.375 0.459 62.616 0.888 -27.331 0.888 -27.331 0.459 62.616
19018.333 0.46 62.585 0.888 -27.363 0.888 -27.363 0.46 62.585
19043.292 0.46 62.553 0.887 -27.395 0.887 -27.395 0.46 62.553
19068.25 0.461 62.521 0.887 -27.427 0.887 -27.427 0.461 62.521
19093.208 0.461 62.49 0.887 -27.458 0.887 -27.458 0.461 62.49
19118.167 0.462 62.458 0.887 -27.49 0.887 -27.49 0.462 62.458
19143.125 0.462 62.426 0.886 -27.522 0.886 -27.522 0.462 62.426
19168.083 0.463 62.395 0.886 -27.554 0.886 -27.554 0.463 62.395
19193.042 0.463 62.363 0.886 -27.585 0.886 -27.585 0.463 62.363
19218 0.464 62.332 0.886 -27.617 0.886 -27.617 0.464 62.332
19242.958 0.464 62.3 0.885 -27.648 0.885 -27.648 0.464 62.3
19267.917 0.465 62.269 0.885 -27.68 0.885 -27.68 0.465 62.269
19292.875 0.465 62.237 0.885 -27.712 0.885 -27.712 0.465 62.237
19317.833 0.466 62.206 0.885 -27.743 0.885 -27.743 0.466 62.206
19342.792 0.466 62.174 0.884 -27.775 0.884 -27.775 0.466 62.174
19367.75 0.466 62.143 0.884 -27.806 0.884 -27.806 0.466 62.143
19392.708 0.467 62.111 0.884 -27.838 0.884 -27.838 0.467 62.111
19417.667 0.467 62.08 0.884 -27.869 0.884 -27.869 0.467 62.08
19442.625 0.468 62.048 0.883 -27.901 0.883 -27.901 0.468 62.048
19467.583 0.468 62.017 0.883 -27.932 0.883 -27.932 0.468 62.017
19492.542 0.469 61.986 0.883 -27.964 0.883 -27.964 0.469 61.986
19517.5 0.469 61.954 0.883 -27.995 0.883 -27.995 0.469 61.954
19542.458 0.47 61.923 0.882 -28.026 0.882 -28.026 0.47 61.923
19567.417 0.47 61.892 0.882 -28.058 0.882 -28.058 0.47 61.892
19592.375 0.471 61.86 0.882 -28.089 0.882 -28.089 0.471 61.86
19617.333 0.471 61.829 0.882 -28.12 0.882 -28.12 0.471 61.829
19642.292 0.472 61.798 0.881 -28.152 0.881 -28.152 0.472 61.798
19667.25 0.472 61.767 0.881 -28.183 0.881 -28.183 0.472 61.767
19692.208 0.473 61.736 0.881 -28.214 0.881 -28.214 0.473 61.736
19717.167 0.473 61.704 0.881 -28.245 0.881 -28.245 0.473 61.704
19742.125 0.474 61.673 0.88 -28.277 0.88 -28.277 0.474 61.673
19767.083 0.474 61.642 0.88 -28.308 0.88 -28.308 0.474 61.642
19792.042 0.475 61.611 0.88 -28.339 0.88 -28.339 0.475 61.611
19817 0.475 61.58 0.879 -28.37 0.879 -28.37 0.475 61.58
19841.958 0.476 61.549 0.879 -28.401 0.879 -28.401 0.476 61.549
19866.917 0.476 61.518 0.879 -28.432 0.879 -28.432 0.476 61.518
19891.875 0.477 61.487 0.879 -28.464 0.879 -28.464 0.477 61.487
19916.833 0.477 61.456 0.878 -28.495 0.878 -28.495 0.477 61.456
19941.792 0.478 61.425 0.878 -28.526 0.878 -28.526 0.478 61.425
19966.75 0.478 61.394 0.878 -28.557 0.878 -28.557 0.478 61.394
19991.708 0.479 61.363 0.878 -28.588 0.878 -28.588 0.479 61.363
20016.667 0.479 61.332 0.877 -28.619 0.877 -28.619 0.479 61.332
20041.625 0.479 61.301 0.877 -28.65 0.877 -28.65 0.479 61.301
20066.583 0.48 61.27 0.877 -28.681 0.877 -28.681 0.48 61.27
20091.542 0.48 61.239 0.877 -28.712 0.877 -28.712 0.48 61.239
20116.5 0.481 61.208 0.876 -28.743 0.876 -28.743 0.481 61.208
20141.458 0.481 61.177 0.876 -28.774 0.876 -28.774 0.481 61.177
20166.417 0.482 61.146 0.876 -28.804 0.876 -28.804 0.482 61.146
20191.375 0.482 61.116 0.876 -28.835 0.876 -28.835 0.482 61.116
20216.333 0.483 61.085 0.875 -28.866 0.875 -28.866 0.483 61.085
20241.292 0.483 61.054 0.875 -28.897 0.875 -28.897 0.483 61.054
20266.25 0.484 61.023 0.875 -28.928 0.875 -28.928 0.484 61.023
20291.208 0.484 60.993 0.875 -28.959 0.875 -28.959 0.484 60.993
20316.167 0.485 60.962 0.874 -28.989 0.874 -28.989 0.485 60.962
20341.125 0.485 60.931 0.874 -29.02 0.874 -29.02 0.485 60.931
20366.083 0.486 60.901 0.874 -29.051 0.874 -29.051 0.486 60.901
20391.042 0.486 60.87 0.874 -29.082 0.874 -29.082 0.486 60.87
20416 0.487 60.839 0.873 -29.112 0.873 -29.112 0.487 60.839
20440.958 0.487 60.809 0.873 -29.143 0.873 -29.143 0.487 60.809
20465.917 0.487 60.778 0.873 -29.174 0.873 -29.174 0.487 60.778
20490.875 0.488 60.747 0.872 -29.204 0.872 -29.204 0.488 60.747
20515.833 0.488 60.717 0.872 -29.235 0.872 -29.235 0.488 60.717
20540.792 0.489 60.686 0.872 -29.266 0.872 -29.266 0.489 60.686
20565.75 0.489 60.656 0.872 -29.296 0.872 -29.296 0.489 60.656
20590.708 0.49 60.625 0.871 -29.327 0.871 -29.327 0.49 60.625
20615.667 0.49 60.595 0.871 -29.357 0.871 -29.357 0.49 60.595
20640.625 0.491 60.564 0.871 -29.388 0.871 -29.388 0.491 60.564
20665.583 0.491 60.534 0.871 -29.418 0.871 -29.418 0.491 60.534
20690.542 0.492 60.504 0.87 -29.449 0.87 -29.449 0.492 60.504
20715.5 0.492 60.473 0.87 -29.479 0.87 -29.479 0.492 60.473
20740.458 0.493 60.443 0.87 -29.51 0.87 -29.51 0.493 60.443
20765.417 0.493 60.412 0.87 -29.54 0.87 -29.54 0.493 60.412
20790.375 0.493 60.382 0.869 -29.57 0.869 -29.57 0.493 60.382
20815.333 0.494 60.352 0.869 -29.601 0.869 -29.601 0.494 60.352
20840.292 0.494 60.321 0.869 -29.631 0.869 -29.631 0.494 60.321
20865.25 0.495 60.291 0.869 -29.662 0.869 -29.662 0.495 60.291
20890.208 0.495 60.261 0.868 -29.692 0.868 -29.692 0.495 60.261
20915.167 0.496 60.231 0.868 -29.722 0.868 -29.722 0.496 60.231
20940.125 0.496 60.2 0.868 -29.753 0.868 -29.753 0.496 60.2
20965.083 0.497 60.17 0.868 -29.783 0.868 -29.783 0.497 60.17
20990.042 0.497 60.14 0.867 -29.813 0.867 -29.813 0.497 60.14
21015 0.498 60.11 0.867 -29.843 0.867 -29.843 0.498 60.11
21039.958 0.498 60.08 0.867 -29.873 0.867 -29.873 0.498 60.08
21064.917 0.499 60.049 0.866 -29.904 0.866 -29.904 0.499 60.049
21089.875 0.499 60.019 0.866 -29.934 0.866 -29.934 0.499 60.019
21114.833 0.499 59.989 0.866 -29.964 0.866 -29.964 0.499 59.989
21139.792 0.5 59.959 0.866 -29.994 0.866 -29.994 0.5 59.959
21164.75 0.5 59.929 0.865 -30.024 0.865 -30.024 0.5 59.929
21189.708 0.501 59.899 0.865 -30.054 0.865 -30.054 0.501 59.899
21214.667 0.501 59.869 0.865 -30.084 0.865 -30.084 0.501 59.869
21239.625 0.502 59.839 0.865 -30.115 0.865 -30.115 0.502 59.839
21264.583 0.502 59.809 0.864 -30.145 0.864 -30.145 0.502 59.809
21289.542 0.503 59.779 0.864 -30.175 0.864 -30.175 0.503 59.779
21314.5 0.503 59.749 0.864 -30.205 0.864 -30.205 0.503 59.749
21339.458 0.504 59.719 0.864 -30.235 0.864 -30.235 0.504 59.719
21364.417 0.504 59.689 0.863 -30.265 0.863 -30.265 0.504 59.689
21389.375 0.504 59.659 0.863 -30.294 0.863 -30.294 0.504 59.659
21414.333 0.505 59.63 0.863 -30.324 0.863 -30.324 0.505 59.63
21439.292 0.505 59.6 0.863 -30.354 0.863 -30.354 0.505 59.6
21464.25 0.506 59.57 0.862 -30.384 0.862 -30.384 0.506 59.57
21489.208 0.506 59.54 0.862 -30.414 0.862 -30.414 0.506 59.54
21514.167 0.507 59.51 0.862 -30.444 0.862 -30.444 0.507 59.51
21539.125 0.507 59.48 0.861 -30.474 0.861 -30.474 0.507 59.48
21564.083 0.508 59.451 0.861 -30.504 0.861 -30.504 0.508 59.451
21589.042 0.508 59.421 0.861 -30.533 0.861 -30.533 0.508 59.421
21614 0.508 59.391 0.861 -30.563 0.861 -30.563 0.508 59.391
21638.958 0.509 59.362 0.86 -30.593 0.86 -30.593 0.509 59.362
21663.917 0.509 59.332 0.86 -30.623 0.86 -30.623 0.509 59.332
21688.875 0.51 59.302 0.86 -30.652 0.86 -30.652 0.51 59.302
21713.833 0.51 59.273 0.86 -30.682 0.86 -30.682 0.51 59.273
21738.792 0.511 59.243 0.859 -30.712 0.859 -30.712 0.511 59.243
21763.75 0.511 59.213 0.859 -30.741 0.859 -30.741 0.511 59.213
21788.708 0.512 59.184 0.859 -30.771 0.859 -30.771 0.512 59.184
21813.667 0.512 59.154 0.859 -30.801 0.859 -30.801 0.512 59.154
21838.625 0.512 59.125 0.858 -30.83 0.858 -30.83 0.512 59.125
21863.583 0.513 59.095 0.858 -30.86 0.858 -30.86 0.513 59.095
21888.542 0.513 59.066 0.858 -30.889 0.858 -30.889 0.513 59.066
21913.5 0.514 59.036 0.857 -30.919 0.857 -30.919 0.514 59.036
21938.458 0.514 59.007 0.857 -30.948 0.857 -30.948 0.514 59.007
21963.417 0.515 58.977 0.857 -30.978 0.857 -30.978 0.515 58.977
21988.375 0.515 58.948 0.857 -31.007 0.857 -31.007 0.515 58.948
22013.333 0.516 58.918 0.856 -31.037 0.856 -31.037 0.516 58.918
22038.292 0.516 58.889 0.856 -31.066 0.856 -31.066 0.516 58.889
22063.25 0.516 58.86 0.856 -31.096 0.856 -31.096 0.516 58.86
22088.208 0.517 58.83 0.856 -31.125 0.856 -31.125 0.517 58.83
22113.167 0.517 58.801 0.855 -31.155 0.855 -31.155 0.517 58.801
22138.125 0.518 58.772 0.855 -31.184 0.855 -31.184 0.518 58.772
22163.083 0.518 58.742 0.855 -31.213 0.855 -31.213 0.518 58.742
22188.042 0.519 58.713 0.855 -31.243 0.855 -31.243 0.519 58.713
22213 0.519 58.684 0.854 -31.272 0.854 -31.272 0.519 58.684
22237.958 0.52 58.655 0.854 -31.301 0.854 -31.301 0.52 58.655
22262.917 0.52 58.625 0.854 -31.33 0.854 -31.33 0.52 58.625
22287.875 0.52 58.596 0.854 -31.36 0.854 -31.36 0.52 58.596
22312.833 0.521 58.567 0.853 -31.389 0.853 -31.389 0.521 58.567
22337.792 0.521 58.538 0.853 -31.418 0.853 -31.418 0.521 58.538
22362.75 0.522 58.509 0.853 -31.447 0.853 -31.447 0.522 58.509
22387.708 0.522 58.479 0.852 -31.477 0.852 -31.477 0.522 58.479
22412.667 0.523 58.45 0.852 -31.506 0.852 -31.506 0.523 58.45
22437.625 0.523 58.421 0.852 -31.535 0.852 -31.535 0.523 58.421
22462.583 0.523 58.392 0.852 -31.564 0.852 -31.564 0.523 58.392
22487.542 0.524 58.363 0.851 -31.593 0.851 -31.593 0.524 58.363
22512.5 0.524 58.334 0.851 -31.622 0.851 -31.622 0.524 58.334
22537.458 0.525 58.305 0.851 -31.651 0.851 -31.651 0.525 58.305
22562.417 0.525 58.276 0.851 -31.68 0.851 -31.68 0.525 58.276
22587.375 0.526 58.247 0.85 -31.709 0.85 -31.709 0.526 58.247
22612.333 0.526 58.218 0.85 -31.738 0.85 -31.738 0.526 58.218
22637.292 0.526 58.189 0.85 -31.767 0.85 -31.767 0.526 58.189
22662.25 0.527 58.16 0.85 -31.796 0.85 -31.796 0.527 58.16
22687.208 0.527 58.131 0.849 -31.825 0.849 -31.825 0.527 58.131
22712.167 0.528 58.102 0.849 -31.854 0.849 -31.854 0.528 58.102
22737.125 0.528 58.074 0.849 -31.883 0.849 -31.883 0.528 58.074
22762.083 0.529 58.045 0.848 -31.912 0.848 -31.912 0.529 58.045
22787.042 0.529 58.016 0.848 -31.941 0.848 -31.941 0.529 58.016
22812 0.529 57.987 0.848 -31.97 0.848 -31.97 0.529 57.987
22836.958 0.53 57.958 0.848 -31.999 0.848 -31.999 0.53 57.958
22861.917 0.53 57.93 0.847 -32.027 0.847 -32.027 0.53 57.93
22886.875 0.531 57.901 0.847 -32.056 0.847 -32.056 0.531 57.901
22911.833 0.531 57.872 0.847 -32.085 0.847 -32.085 0.531 57.872
22936.792 0.532 57.843 0.847 -32.114 0.847 -32.114 0.532 57.843
22961.75 0.532 57.815 0.846 -32.142 0.846 -32.142 0.532 57.815
22986.708 0.532 57.786 0.846 -32.171 0.846 -32.171 0.532 57.786
23011.667 0.533 57.757 0.846 -32.2 0.846 -32.2 0.533 57.757
23036.625 0.533 57.729 0.846 -32.229 0.846 -32.229 0.533 57.729
23061.583 0.534 57.7 0.845 -32.257 0.845 -32.257 0.534 57.7
23086.542 0.534 57.671 0.845 -32.286 0.845 -32.286 0.534 57.671
23111.5 0.535 57.643 0.845 -32.314 0.845 -32.314 0.535 57.643
23136.458 0.535 57.614 0.844 -32.343 0.844 -32.343 0.535 57.614
23161.417 0.535 57.586 0.844 -32.372 0.844 -32.372 0.535 57.586
23186.375 0.536 57.557 0.844 -32.4 0.844 -32.4 0.536 57.557
23211.333 0.536 57.529 0.844 -32.429 0.844 -32.429 0.536 57.529
23236.292 0.537 57.5 0.843 -32.457 0.843 -32.457 0.537 57.5
23261.25 0.537 57.472 0.843 -32.486 0.843 -32.486 0.537 57.472
23286.208 0.538 57.443 0.843 -32.514 0.843 -32.514 0.538 57.443
23311.167 0.538 57.415 0.843 -32.543 0.843 -32.543 0.538 57.415
23336.125 0.538 57.386 0.842 -32.571 0.842 -32.571 0.538 57.386
23361.083 0.539 57.358 0.842 -32.6 0.842 -32.6 0.539 57.358
23386.042 0.539 57.33 0.842 -32.628 0.842 -32.628 0.539 57.33
23411 0.54 57.301 0.842 -32.657 0.842 -32.657 0.54 57.301
23435.958 0.54 57.273 0.841 -32.685 0.841 -32.685 0.54 57.273
23460.917 0.54 57.245 0.841 -32.713 0.841 -32.713 0.54 57.245
23485.875 0.541 57.216 0.841 -32.742 0.841 -32.742 0.541 57.216
23510.833 0.541 57.188 0.84 -32.77 0.84 -32.77 0.541 57.188
23535.792 0.542 57.16 0.84 -32.798 0.84 -32.798 0.542 57.16
23560.75 0.542 57.132 0.84 -32.827 0.84 -32.827 0.542 57.132
23585.708 0.543 57.103 0.84 -32.855 0.84 -32.855 0.543 57.103
23610.667 0.543 57.075 0.839 -32.883 0.839 -32.883 0.543 57.075
23635.625 0.543 57.047 0.839 -32.911 0.839 -32.911 0.543 57.047
23660.583 0.544 57.019 0.839 -32.94 0.839 -32.94 0.544 57.019
23685.542 0.544 56.991 0.839 -32.968 0.839 -32.968 0.544 56.991
23710.5 0.545 56.962 0.838 -32.996 0.838 -32.996 0.545 56.962
23735.458 0.545 56.934 0.838 -33.024 0.838 -33.024 0.545 56.934
23760.417 0.545 56.906 0.838 -33.052 0.838 -33.052 0.545 56.906
23785.375 0.546 56.878 0.838 -33.08 0.838 -33.08 0.546 56.878
23810.333 0.546 56.85 0.837 -33.109 0.837 -33.109 0.546 56.85
23835.292 0.547 56.822 0.837 -33.137 0.837 -33.137 0.547 56.822
23860.25 0.547 56.794 0.837 -33.165 0.837 -33.165 0.547 56.794
23885.208 0.547 56.766 0.836 -33.193 0.836 -33.193 0.547 56.766
23910.167 0.548 56.738 0.836 -33.221 0.836 -33.221 0.548 56.738
23935.125 0.548 56.71 0.836 -33.249 0.836 -33.249 0.548 56.71
23960.083 0.549 56.682 0.836 -33.277 0.836 -33.277 0.549 56.682
23985.042 0.549 56.654 0.835 -33.305 0.835 -33.305 0.549 56.654
24010 0.55 56.626 0.835 -33.333 0.835 -33.333 0.55 56.626
24034.958 0.55 56.598 0.835 -33.361 0.835 -33.361 0.55 56.598
24059.917 0.55 56.57 0.835 -33.389 0.835 -33.389 0.55 56.57
24084.875 0.551 56.543 0.834 -33.417 0.834 -33.417 0.551 56.543
24109.833 0.551 56.515 0.834 -33.444 0.834 -33.444 0.551 56.515
24134.792 0.552 56.487 0.834 -33.472 0.834 -33.472 0.552 56.487
24159.75 0.552 56.459 0.833 -33.5 0.833 -33.5 0.552 56.459
24184.708 0.552 56.431 0.833 -33.528 0.833 -33.528 0.552 56.431
24209.667 0.553 56.404 0.833 -33.556 0.833 -33.556 0.553 56.404
24234.625 0.553 56.376 0.833 -33.584 0.833 -33.584 0.553 56.376
24259.583 0.554 56.348 0.832 -33.611 0.832 -33.611 0.554 56.348
24284.542 0.554 56.32 0.832 -33.639 0.832 -33.639 0.554 56.32
24309.5 0.554 56.293 0.832 -33.667 0.832 -33.667 0.554 56.293
24334.458 0.555 56.265 0.832 -33.695 0.832 -33.695 0.555 56.265
24359.417 0.555 56.237 0.831 -33.722 0.831 -33.722 0.555 56.237
24384.375 0.556 56.21 0.831 -33.75 0.831 -33.75 0.556 56.21
24409.333 0.556 56.182 0.831 -33.778 0.831 -33.778 0.556 56.182
24434.292 0.556 56.155 0.831 -33.805 0.831 -33.805 0.556 56.155
24459.25 0.557 56.127 0.83 -33.833 0.83 -33.833 0.557 56.127
24484.208 0.557 56.099 0.83 -33.86 0.83 -33.86 0.557 56.099
24509.167 0.558 56.072 0.83 -33.888 0.83 -33.888 0.558 56.072
24534.125 0.558 56.044 0.829 -33.916 0.829 -33.916 0.558 56.044
24559.083 0.558 56.017 0.829 -33.943 0.829 -33.943 0.558 56.017
24584.042 0.559 55.989 0.829 -33.971 0.829 -33.971 0.559 55.989
24609 0.559 55.962 0.829 -33.998 0.829 -33.998 0.559 55.962
24633.958 0.56 55.934 0.828 -34.026 0.828 -34.026 0.56 55.934
24658.917 0.56 55.907 0.828 -34.053 0.828 -34.053 0.56 55.907
24683.875 0.56 55.88 0.828 -34.081 0.828 -34.081 0.56 55.88
24708.833 0.561 55.852 0.828 -34.108 0.828 -34.108 0.561 55.852
24733.792 0.561 55.825 0.827 -34.135 0.827 -34.135 0.561 55.825
24758.75 0.562 55.797 0.827 -34.163 0.827 -34.163 0.562 55.797
24783.708 0.562 55.77 0.827 -34.19 0.827 -34.19 0.562 55.77
24808.667 0.562 55.743 0.827 -34.218 0.827 -34.218 0.562 55.743
24833.625 0.563 55.715 0.826 -34.245 0.826 -34.245 0.563 55.715
24858.583 0.563 55.688 0.826 -34.272 0.826 -34.272 0.563 55.688
24883.542 0.564 55.661 0.826 -34.3 0.826 -34.3 0.564 55.661
24908.5 0.564 55.634 0.825 -34.327 0.825 -34.327 0.564 55.634
24933.458 0.564 55.606 0.825 -34.354 0.825 -34.354 0.564 55.606
24958.417 0.565 55.579 0.825 -34.381 0.825 -34.381 0.565 55.579
24983.375 0.565 55.552 0.825 -34.409 0.825 -34.409 0.565 55.552
25008.333 0.565 55.525 0.824 -34.436 0.824 -34.436 0.565 55.525
25033.292 0.566 55.498 0.824 -34.463 0.824 -34.463 0.566 55.498
25058.25 0.566 55.47 0.824 -34.49 0.824 -34.49 0.566 55.47
25083.208 0.567 55.443 0.824 -34.517 0.824 -34.517 0.567 55.443
25108.167 0.567 55.416 0.823 -34.545 0.823 -34.545 0.567 55.416
25133.125 0.567 55.389 0.823 -34.572 0.823 -34.572 0.567 55.389
25158.083 0.568 55.362 0.823 -34.599 0.823 -34.599 0.568 55.362
25183.042 0.568 55.335 0.822 -34.626 0.822 -34.626 0.568 55.335
25208 0.569 55.308 0.822 -34.653 0.822 -34.653 0.569 55.308
25232.958 0.569 55.281 0.822 -34.68 0.822 -34.68 0.569 55.281
25257.917 0.569 55.254 0.822 -34.707 0.822 -34.707 0.569 55.254
25282.875 0.57 55.227 0.821 -34.734 0.821 -34.734 0.57 55.227
25307.833 0.57 55.2 0.821 -34.761 0.821 -34.761 0.57 55.2
25332.792 0.571 55.173 0.821 -34.788 0.821 -34.788 0.571 55.173
25357.75 0.571 55.146 0.821 -34.815 0.821 -34.815 0.571 55.146
25382.708 0.571 55.119 0.82 -34.842 0.82 -34.842 0.571 55.119
25407.667 0.572 55.092 0.82 -34.869 0.82 -34.869 0.572 55.092
25432.625 0.572 55.065 0.82 -34.896 0.82 -34.896 0.572 55.065
25457.583 0.572 55.039 0.82 -34.923 0.82 -34.923 0.572 55.039
25482.542 0.573 55.012 0.819 -34.95 0.819 -34.95 0.573 55.012
25507.5 0.573 54.985 0.819 -34.977 0.819 -34.977 0.573 54.985
25532.458 0.574 54.958 0.819 -35.003 0.819 -35.003 0.574 54.958
25557.417 0.574 54.931 0.818 -35.03 0.818 -35.03 0.574 54.931
25582.375 0.574 54.905 0.818 -35.057 0.818 -35.057 0.574 54.905
25607.333 0.575 54.878 0.818 -35.084 0.818 -35.084 0.575 54.878
25632.292 0.575 54.851 0.818 -35.111 0.818 -35.111 0.575 54.851
25657.25 0.576 54.824 0.817 -35.137 0.817 -35.137 0.576 54.824
25682.208 0.576 54.798 0.817 -35.164 0.817 -35.164 0.576 54.798
25707.167 0.576 54.771 0.817 -35.191 0.817 -35.191 0.576 54.771
25732.125 0.577 54.744 0.817 -35.217 0.817 -35.217 0.577 54.744
25757.083 0.577 54.718 0.816 -35.244 0.816 -35.244 0.577 54.718
25782.042 0.577 54.691 0.816 -35.271 0.816 -35.271 0.577 54.691
25807 0.578 54.665 0.816 -35.297 0.816 -35.297 0.578 54.665
25831.958 0.578 54.638 0.816 -35.324 0.816 -35.324 0.578 54.638
25856.917 0.579 54.611 0.815 -35.351 0.815 -35.351 0.579 54.611
25881.875 0.579 54.585 0.815 -35.377 0.815 -35.377 0.579 54.585
25906.833 0.579 54.558 0.815 -35.404 0.815 -35.404 0.579 54.558
25931.792 0.58 54.532 0.814 -35.43 0.814 -35.43 0.58 54.532
25956.75 0.58 54.505 0.814 -35.457 0.814 -35.457 0.58 54.505
25981.708 0.58 54.479 0.814 -35.483 0.814 -35.483 0.58 54.479
26006.667 0.581 54.452 0.814 -35.51 0.814 -35.51 0.581 54.452
26031.625 0.581 54.426 0.813 -35.536 0.813 -35.536 0.581 54.426
26056.583 0.582 54.399 0.813 -35.563 0.813 -35.563 0.582 54.399
26081.542 0.582 54.373 0.813 -35.589 0.813 -35.589 0.582 54.373
26106.5 0.582 54.347 0.813 -35.616 0.813 -35.616 0.582 54.347
26131.458 0.583 54.32 0.812 -35.642 0.812 -35.642 0.583 54.32
26156.417 0.583 54.294 0.812 -35.669 0.812 -35.669 0.583 54.294
26181.375 0.583 54.268 0.812 -35.695 0.812 -35.695 0.583 54.268
26206.333 0.584 54.241 0.811 -35.721 0.811 -35.721 0.584 54.241
26231.292 0.584 54.215 0.811 -35.748 0.811 -35.748 0.584 54.215
26256.25 0.585 54.189 0.811 -35.774 0.811 -35.774 0.585 54.189
26281.208 0.585 54.162 0.811 -35.8 0.811 -35.8 0.585 54.162
26306.167 0.585 54.136 0.81 -35.826 0.81 -35.826 0.585 54.136
26331.125 0.586 54.11 0.81 -35.853 0.81 -35.853 0.586 54.11
26356.083 0.586 54.084 0.81 -35.879 0.81 -35.879 0.586 54.084
26381.042 0.586 54.058 0.81 -35.905 0.81 -35.905 0.586 54.058
26406 0.587 54.031 0.809 -35.931 0.809 -35.931 0.587 54.031
26430.958 0.587 54.005 0.809 -35.958 0.809 -35.958 0.587 54.005
26455.917 0.588 53.979 0.809 -35.984 0.809 -35.984 0.588 53.979
26480.875 0.588 53.953 0.809 -36.01 0.809 -36.01 0.588 53.953
26505.833 0.588 53.927 0.808 -36.036 0.808 -36.036 0.588 53.927
26530.792 0.589 53.901 0.808 -36.062 0.808 -36.062 0.589 53.901
26555.75 0.589 53.875 0.808 -36.088 0.808 -36.088 0.589 53.875
26580.708 0.589 53.849 0.807 -36.114 0.807 -36.114 0.589 53.849
26605.667 0.59 53.823 0.807 -36.14 0.807 -36.14 0.59 53.823
26630.625 0.59 53.797 0.807 -36.167 0.807 -36.167 0.59 53.797
26655.583 0.591 53.771 0.807 -36.193 0.807 -36.193 0.591 53.771
26680.542 0.591 53.745 0.806 -36.219 0.806 -36.219 0.591 53.745
26705.5 0.591 53.719 0.806 -36.245 0.806 -36.245 0.591 53.719
26730.458 0.592 53.693 0.806 -36.271 0.806 -36.271 0.592 53.693
26755.417 0.592 53.667 0.806 -36.297 0.806 -36.297 0.592 53.667
26780.375 0.592 53.641 0.805 -36.322 0.805 -36.322 0.592 53.641
26805.333 0.593 53.615 0.805 -36.348 0.805 -36.348 0.593 53.615
26830.292 0.593 53.589 0.805 -36.374 0.805 -36.374 0.593 53.589
26855.25 0.593 53.563 0.805 -36.4 0.805 -36.4 0.593 53.563
26880.208 0.594 53.537 0.804 -36.426 0.804 -36.426 0.594 53.537
26905.167 0.594 53.512 0.804 -36.452 0.804 -36.452 0.594 53.512
26930.125 0.595 53.486 0.804 -36.478 0.804 -36.478 0.595 53.486
26955.083 0.595 53.46 0.803 -36.504 0.803 -36.504 0.595 53.46
26980.042 0.595 53.434 0.803 -36.529 0.803 -36.529 0.595 53.434
27005 0.596 53.408 0.803 -36.555 0.803 -36.555 0.596 53.408
27029.958 0.596 53.383 0.803 -36.581 0.803 -36.581 0.596 53.383
27054.917 0.596 53.357 0.802 -36.607 0.802 -36.607 0.596 53.357
27079.875 0.597 53.331 0.802 -36.632 0.802 -36.632 0.597 53.331
27104.833 0.597 53.306 0.802 -36.658 0.802 -36.658 0.597 53.306
27129.792 0.597 53.28 0.802 -36.684 0.802 -36.684 0.597 53.28
27154.75 0.598 53.254 0.801 -36.71 0.801 -36.71 0.598 53.254
27179.708 0.598 53.229 0.801 -36.735 0.801 -36.735 0.598 53.229
27204.667 0.598 53.203 0.801 -36.761 0.801 -36.761 0.598 53.203
27229.625 0.599 53.178 0.8 -36.786 0.8 -36.786 0.599 53.178
27254.583 0.599 53.152 0.8 -36.812 0.8 -36.812 0.599 53.152
27279.542 0.6 53.126 0.8 -36.838 0.8 -36.838 0.6 53.126
27304.5 0.6 53.101 0.8 -36.863 0.8 -36.863 0.6 53.101
27329.458 0.6 53.075 0.799 -36.889 0.799 -36.889 0.6 53.075
27354.417 0.601 53.05 0.799 -36.914 0.799 -36.914 0.601 53.05
27379.375 0.601 53.024 0.799 -36.94 0.799 -36.94 0.601 53.024
27404.333 0.601 52.999 0.799 -36.965 0.799 -36.965 0.601 52.999
27429.292 0.602 52.973 0.798 -36.991 0.798 -36.991 0.602 52.973
27454.25 0.602 52.948 0.798 -37.016 0.798 -37.016 0.602 52.948
27479.208 0.602 52.923 0.798 -37.042 0.798 -37.042 0.602 52.923
27504.167 0.603 52.897 0.798 -37.067 0.798 -37.067 0.603 52.897
27529.125 0.603 52.872 0.797 -37.093 0.797 -37.093 0.603 52.872
27554.083 0.603 52.846 0.797 -37.118 0.797 -37.118 0.603 52.846
27579.042 0.604 52.821 0.797 -37.143 0.797 -37.143 0.604 52.821
27604 0.604 52.796 0.796 -37.169 0.796 -37.169 0.604 52.796
27628.958 0.605 52.77 0.796 -37.194 0.796 -37.194 0.605 52.77
27653.917 0.605 52.745 0.796 -37.219 0.796 -37.219 0.605 52.745
27678.875 0.605 52.72 0.796 -37.245 0.796 -37.245 0.605 52.72
27703.833 0.606 52.695 0.795 -37.27 0.795 -37.27 0.606 52.695
27728.792 0.606 52.669 0.795 -37.295 0.795 -37.295 0.606 52.669
27753.75 0.606 52.644 0.795 -37.321 0.795 -37.321 0.606 52.644
27778.708 0.607 52.619 0.795 -37.346 0.795 -37.346 0.607 52.619
27803.667 0.607 52.594 0.794 -37.371 0.794 -37.371 0.607 52.594
27828.625 0.607 52.568 0.794 -37.396 0.794 -37.396 0.607 52.568
27853.583 0.608 52.543 0.794 -37.421 0.794 -37.421 0.608 52.543
27878.542 0.608 52.518 0.794 -37.447 0.794 -37.447 0.608 52.518
27903.5 0.608 52.493 0.793 -37.472 0.793 -37.472 0.608 52.493
27928.458 0.609 52.468 0.793 -37.497 0.793 -37.497 0.609 52.468
27953.417 0.609 52.443 0.793 -37.522 0.793 -37.522 0.609 52.443
27978.375 0.609 52.418 0.792 -37.547 0.792 -37.547 0.609 52.418
28003.333 0.61 52.393 0.792 -37.572 0.792 -37.572 0.61 52.393
28028.292 0.61 52.368 0.792 -37.597 0.792 -37.597 0.61 52.368
28053.25 0.61 52.343 0.792 -37.622 0.792 -37.622 0.61 52.343
28078.208 0.611 52.318 0.791 -37.647 0.791 -37.647 0.611 52.318
28103.167 0.611 52.293 0.791 -37.672 0.791 -37.672 0.611 52.293
28128.125 0.611 52.268 0.791 -37.697 0.791 -37.697 0.611 52.268
28153.083 0.612 52.243 0.791 -37.722 0.791 -37.722 0.612 52.243
28178.042 0.612 52.218 0.79 -37.747 0.79 -37.747 0.612 52.218
28203 0.613 52.193 0.79 -37.772 0.79 -37.772 0.613 52.193
28227.958 0.613 52.168 0.79 -37.797 0.79 -37.797 0.613 52.168
28252.917 0.613 52.143 0.79 -37.822 0.79 -37.822 0.613 52.143
28277.875 0.614 52.118 0.789 -37.847 0.789 -37.847 0.614 52.118
28302.833 0.614 52.093 0.789 -37.872 0.789 -37.872 0.614 52.093
28327.792 0.614 52.069 0.789 -37.897 0.789 -37.897 0.614 52.069
28352.75 0.615 52.044 0.788 -37.922 0.788 -37.922 0.615 52.044
28377.708 0.615 52.019 0.788 -37.947 0.788 -37.947 0.615 52.019
28402.667 0.615 51.994 0.788 -37.971 0.788 -37.971 0.615 51.994
28427.625 0.616 51.969 0.788 -37.996 0.788 -37.996 0.616 51.969
28452.583 0.616 51.945 0.787 -38.021 0.787 -38.021 0.616 51.945
28477.542 0.616 51.92 0.787 -38.046 0.787 -38.046 0.616 51.92
28502.5 0.617 51.895 0.787 -38.07 0.787 -38.07 0.617 51.895
28527.458 0.617 51.87 0.787 -38.095 0.787 -38.095 0.617 51.87
28552.417 0.617 51.846 0.786 -38.12 0.786 -38.12 0.617 51.846
28577.375 0.618 51.821 0.786 -38.145 0.786 -38.145 0.618 51.821
28602.333 0.618 51.796 0.786 -38.169 0.786 -38.169 0.618 51.796
28627.292 0.618 51.772 0.786 -38.194 0.786 -38.194 0.618 51.772
28652.25 0.619 51.747 0.785 -38.219 0.785 -38.219 0.619 51.747
28677.208 0.619 51.723 0.785 -38.243 0.785 -38.243 0.619 51.723
28702.167 0.619 51.698 0.785 -38.268 0.785 -38.268 0.619 51.698
28727.125 0.62 51.674 0.784 -38.292 0.784 -38.292 0.62 51.674
28752.083 0.62 51.649 0.784 -38.317 0.784 -38.317 0.62 51.649
28777.042 0.62 51.624 0.784 -38.341 0.784 -38.341 0.62 51.624
28802 0.621 51.6 0.784 -38.366 0.784 -38.366 0.621 51.6
28826.958 0.621 51.575 0.783 -38.391 0.783 -38.391 0.621 51.575
28851.917 0.621 51.551 0.783 -38.415 0.783 -38.415 0.621 51.551
28876.875 0.622 51.526 0.783 -38.44 0.783 -38.44 0.622 51.526
28901.833 0.622 51.502 0.783 -38.464 0.783 -38.464 0.622 51.502
28926.792 0.622 51.478 0.782 -38.488 0.782 -38.488 0.622 51.478
28951.75 0.623 51.453 0.782 -38.513 0.782 -38.513 0.623 51.453
28976.708 0.623 51.429 0.782 -38.537 0.782 -38.537 0.623 51.429
29001.667 0.623 51.404 0.782 -38.562 0.782 -38.562 0.623 51.404
29026.625 0.624 51.38 0.781 -38.586 0.781 -38.586 0.624 51.38
29051.583 0.624 51.356 0.781 -38.611 0.781 -38.611 0.624 51.356
29076.542 0.624 51.331 0.781 -38.635 0.781 -38.635 0.624 51.331
29101.5 0.625 51.307 0.781 -38.659 0.781 -38.659 0.625 51.307
29126.458 0.625 51.283 0.78 -38.684 0.78 -38.684 0.625 51.283
29151.417 0.625 51.259 0.78 -38.708 0.78 -38.708 0.625 51.259
29176.375 0.626 51.234 0.78 -38.732 0.78 -38.732 0.626 51.234
29201.333 0.626 51.21 0.779 -38.756 0.779 -38.756 0.626 51.21
29226.292 0.626 51.186 0.779 -38.781 0.779 -38.781 0.626 51.186
29251.25 0.627 51.162 0.779 -38.805 0.779 -38.805 0.627 51.162
29276.208 0.627 51.137 0.779 -38.829 0.779 -38.829 0.627 51.137
29301.167 0.627 51.113 0.778 -38.853 0.778 -38.853 0.627 51.113
29326.125 0.628 51.089 0.778 -38.877 0.778 -38.877 0.628 51.089
29351.083 0.628 51.065 0.778 -38.902 0.778 -38.902 0.628 51.065
29376.042 0.628 51.041 0.778 -38.926 0.778 -38.926 0.628 51.041
29401 0.629 51.017 0.777 -38.95 0.777 -38.95 0.629 51.017
29425.958 0.629 50.993 0.777 -38.974 0.777 -38.974 0.629 50.993
29450.917 0.629 50.969 0.777 -38.998 0.777 -38.998 0.629 50.969
29475.875 0.63 50.944 0.777 -39.022 0.777 -39.022 0.63 50.944
29500.833 0.63 50.92 0.776 -39.046 0.776 -39.046 0.63 50.92
29525.792 0.63 50.896 0.776 -39.07 0.776 -39.07 0.63 50.896
29550.75 0.631 50.872 0.776 -39.094 0.776 -39.094 0.631 50.872
29575.708 0.631 50.848 0.775 -39.118 0.775 -39.118 0.631 50.848
29600.667 0.631 50.824 0.775 -39.142 0.775 -39.142 0.631 50.824
29625.625 0.632 50.8 0.775 -39.166 0.775 -39.166 0.632 50.8
29650.583 0.632 50.777 0.775 -39.19 0.775 -39.19 0.632 50.777
29675.542 0.632 50.753 0.774 -39.214 0.774 -39.214 0.632 50.753
29700.5 0.633 50.729 0.774 -39.238 0.774 -39.238 0.633 50.729
29725.458 0.633 50.705 0.774 -39.262 0.774 -39.262 0.633 50.705
29750.417 0.633 50.681 0.774 -39.286 0.774 -39.286 0.633 50.681
29775.375 0.634 50.657 0.773 -39.31 0.773 -39.31 0.634 50.657
29800.333 0.634 50.633 0.773 -39.334 0.773 -39.334 0.634 50.633
29825.292 0.634 50.609 0.773 -39.358 0.773 -39.358 0.634 50.609
29850.25 0.634 50.586 0.773 -39.382 0.773 -39.382 0.634 50.586
29875.208 0.635 50.562 0.772 -39.405 0.772 -39.405 0.635 50.562
29900.167 0.635 50.538 0.772 -39.429 0.772 -39.429 0.635 50.538
29925.125 0.635 50.514 0.772 -39.453 0.772 -39.453 0.635 50.514
29950.083 0.636 50.491 0.772 -39.477 0.772 -39.477 0.636 50.491
29975.042 0.636 50.467 0.771 -39.5 0.771 -39.5 0.636 50.467
30000 0.636 50.443 0.771 -39.524 0.771 -39.524 0.636 50.443
