!	AVX Thin Film Operation 	Date: April 2014		
!	Description: Accu-P® Series, Thin Film  SMD RF Capacitor
!	Part Number: 04023K170FBSTR					
!
# MHZ S MA R 50

50 0.882 -28.118 0.471 61.868 0.471 61.868 0.882 -28.118
74.958 0.78 -38.716 0.625 51.263 0.625 51.263 0.78 -38.716
99.917 0.683 -46.924 0.73 43.048 0.73 43.048 0.683 -46.924
124.875 0.598 -53.232 0.801 36.733 0.801 36.733 0.598 -53.232
149.833 0.527 -58.124 0.849 31.833 0.849 31.833 0.527 -58.124
174.792 0.469 -61.981 0.883 27.97 0.883 27.97 0.469 -61.981
199.75 0.421 -65.075 0.907 24.869 0.907 24.869 0.421 -65.075
224.708 0.38 -67.6 0.925 22.336 0.925 22.336 0.38 -67.6
249.667 0.346 -69.694 0.938 20.235 0.938 20.235 0.346 -69.694
274.625 0.317 -71.455 0.948 18.466 0.948 18.466 0.317 -71.455
299.583 0.292 -72.956 0.956 16.958 0.956 16.958 0.292 -72.956
324.542 0.27 -74.248 0.962 15.657 0.962 15.657 0.27 -74.248
349.5 0.251 -75.374 0.968 14.525 0.968 14.525 0.251 -75.374
374.458 0.234 -76.362 0.972 13.529 0.972 13.529 0.234 -76.362
399.417 0.219 -77.236 0.975 12.646 0.975 12.646 0.219 -77.236
424.375 0.205 -78.016 0.978 11.859 0.978 11.859 0.205 -78.016
449.333 0.193 -78.716 0.981 11.151 0.981 11.151 0.193 -78.716
474.292 0.182 -79.347 0.983 10.511 0.983 10.511 0.182 -79.347
499.25 0.172 -79.92 0.985 9.929 0.985 9.929 0.172 -79.92
524.208 0.163 -80.443 0.986 9.398 0.986 9.398 0.163 -80.443
549.167 0.155 -80.922 0.987 8.91 0.987 8.91 0.155 -80.922
574.125 0.147 -81.362 0.989 8.461 0.989 8.461 0.147 -81.362
599.083 0.14 -81.769 0.99 8.045 0.99 8.045 0.14 -81.769
624.042 0.133 -82.145 0.991 7.659 0.991 7.659 0.133 -82.145
649 0.127 -82.495 0.991 7.299 0.991 7.299 0.127 -82.495
673.958 0.121 -82.821 0.992 6.963 0.992 6.963 0.121 -82.821
698.917 0.116 -83.126 0.993 6.648 0.993 6.648 0.116 -83.126
723.875 0.111 -83.411 0.993 6.352 0.993 6.352 0.111 -83.411
748.833 0.106 -83.68 0.994 6.073 0.994 6.073 0.106 -83.68
773.792 0.101 -83.932 0.994 5.809 0.994 5.809 0.101 -83.932
798.75 0.097 -84.17 0.995 5.56 0.995 5.56 0.097 -84.17
823.708 0.093 -84.394 0.995 5.323 0.995 5.323 0.093 -84.394
848.667 0.089 -84.607 0.996 5.098 0.996 5.098 0.089 -84.607
873.625 0.085 -84.808 0.996 4.884 0.996 4.884 0.085 -84.808
898.583 0.082 -84.999 0.996 4.679 0.996 4.679 0.082 -84.999
923.542 0.078 -85.18 0.996 4.484 0.996 4.484 0.078 -85.18
948.5 0.075 -85.353 0.997 4.296 0.997 4.296 0.075 -85.353
973.458 0.072 -85.517 0.997 4.117 0.997 4.117 0.072 -85.517
998.417 0.069 -85.673 0.997 3.945 0.997 3.945 0.069 -85.673
1023.375 0.066 -85.822 0.997 3.779 0.997 3.779 0.066 -85.822
1048.333 0.063 -85.964 0.998 3.62 0.998 3.62 0.063 -85.964
1073.292 0.06 -86.099 0.998 3.466 0.998 3.466 0.06 -86.099
1098.25 0.058 -86.228 0.998 3.317 0.998 3.317 0.058 -86.228
1123.208 0.055 -86.351 0.998 3.174 0.998 3.174 0.055 -86.351
1148.167 0.053 -86.468 0.998 3.035 0.998 3.035 0.053 -86.468
1173.125 0.051 -86.579 0.998 2.9 0.998 2.9 0.051 -86.579
1198.083 0.048 -86.685 0.998 2.77 0.998 2.77 0.048 -86.685
1223.042 0.046 -86.786 0.998 2.644 0.998 2.644 0.046 -86.786
1248 0.044 -86.881 0.999 2.521 0.999 2.521 0.044 -86.881
1272.958 0.042 -86.97 0.999 2.401 0.999 2.401 0.042 -86.97
1297.917 0.04 -87.055 0.999 2.285 0.999 2.285 0.04 -87.055
1322.875 0.038 -87.133 0.999 2.172 0.999 2.172 0.038 -87.133
1347.833 0.036 -87.207 0.999 2.061 0.999 2.061 0.036 -87.207
1372.792 0.034 -87.274 0.999 1.954 0.999 1.954 0.034 -87.274
1397.75 0.032 -87.335 0.999 1.849 0.999 1.849 0.032 -87.335
1422.708 0.03 -87.39 0.999 1.746 0.999 1.746 0.03 -87.39
1447.667 0.029 -87.437 0.999 1.646 0.999 1.646 0.029 -87.437
1472.625 0.027 -87.477 0.999 1.547 0.999 1.547 0.027 -87.477
1497.583 0.025 -87.509 0.999 1.451 0.999 1.451 0.025 -87.509
1522.542 0.024 -87.531 0.999 1.357 0.999 1.357 0.024 -87.531
1547.5 0.022 -87.542 0.999 1.265 0.999 1.265 0.022 -87.542
1572.458 0.021 -87.54 0.999 1.175 0.999 1.175 0.021 -87.54
1597.417 0.019 -87.524 0.999 1.086 0.999 1.086 0.019 -87.524
1622.375 0.017 -87.49 0.999 0.999 0.999 0.999 0.017 -87.49
1647.333 0.016 -87.434 0.999 0.913 0.999 0.913 0.016 -87.434
1672.292 0.014 -87.351 0.999 0.829 0.999 0.829 0.014 -87.351
1697.25 0.013 -87.232 0.999 0.747 0.999 0.747 0.013 -87.232
1722.208 0.012 -87.067 0.999 0.665 0.999 0.665 0.012 -87.067
1747.167 0.01 -86.837 0.999 0.585 0.999 0.585 0.01 -86.837
1772.125 8.855e-3 -86.517 1 0.507 1 0.507 8.855e-3 -86.517
1797.083 7.505e-3 -86.058 1 0.429 1 0.429 7.505e-3 -86.058
1822.042 6.176e-3 -85.377 1 0.353 1 0.353 6.176e-3 -85.377
1847 4.867e-3 -84.301 1 0.278 1 0.278 4.867e-3 -84.301
1871.958 3.581e-3 -82.418 1 0.203 1 0.203 3.581e-3 -82.418
1896.917 2.32e-3 -78.438 1 0.13 1 0.13 2.32e-3 -78.438
1921.875 1.114e-3 -65.556 1 0.058 1 0.058 1.114e-3 -65.556
1946.833 513.7e-6 26.448 1 -0.013 1 -0.013 513.7e-6 26.448
1971.792 1.527e-3 72.393 1 -0.083 1 -0.083 1.527e-3 72.393
1996.75 2.708e-3 80.07 1 -0.153 1 -0.153 2.708e-3 80.07
2021.708 3.894e-3 82.996 1 -0.222 1 -0.222 3.894e-3 82.996
2046.667 5.071e-3 84.507 1 -0.289 1 -0.289 5.071e-3 84.507
2071.625 6.237e-3 85.415 1 -0.356 1 -0.356 6.237e-3 85.415
2096.583 7.391e-3 86.01 1 -0.423 1 -0.423 7.391e-3 86.01
2121.542 8.533e-3 86.423 1 -0.488 1 -0.488 8.533e-3 86.423
2146.5 9.664e-3 86.719 0.999 -0.553 0.999 -0.553 9.664e-3 86.719
2171.458 0.011 86.938 0.999 -0.617 0.999 -0.617 0.011 86.938
2196.417 0.012 87.103 0.999 -0.681 0.999 -0.681 0.012 87.103
2221.375 0.013 87.227 0.999 -0.744 0.999 -0.744 0.013 87.227
2246.333 0.014 87.322 0.999 -0.806 0.999 -0.806 0.014 87.322
2271.292 0.015 87.393 0.999 -0.868 0.999 -0.868 0.015 87.393
2296.25 0.016 87.446 0.999 -0.929 0.999 -0.929 0.016 87.446
2321.208 0.017 87.485 0.999 -0.989 0.999 -0.989 0.017 87.485
2346.167 0.018 87.512 0.999 -1.049 0.999 -1.049 0.018 87.512
2371.125 0.019 87.53 0.999 -1.109 0.999 -1.109 0.019 87.53
2396.083 0.02 87.54 0.999 -1.168 0.999 -1.168 0.02 87.54
2421.042 0.021 87.543 0.999 -1.226 0.999 -1.226 0.021 87.543
2446 0.022 87.541 0.999 -1.284 0.999 -1.284 0.022 87.541
2470.958 0.023 87.533 0.999 -1.342 0.999 -1.342 0.023 87.533
2495.917 0.024 87.522 0.999 -1.399 0.999 -1.399 0.024 87.522
2520.875 0.025 87.507 0.999 -1.456 0.999 -1.456 0.025 87.507
2545.833 0.026 87.49 0.999 -1.512 0.999 -1.512 0.026 87.49
2570.792 0.027 87.469 0.999 -1.568 0.999 -1.568 0.027 87.469
2595.75 0.028 87.447 0.999 -1.623 0.999 -1.623 0.028 87.447
2620.708 0.029 87.422 0.999 -1.679 0.999 -1.679 0.029 87.422
2645.667 0.03 87.396 0.999 -1.733 0.999 -1.733 0.03 87.396
2670.625 0.031 87.368 0.999 -1.788 0.999 -1.788 0.031 87.368
2695.583 0.032 87.339 0.999 -1.842 0.999 -1.842 0.032 87.339
2720.542 0.033 87.308 0.999 -1.895 0.999 -1.895 0.033 87.308
2745.5 0.034 87.277 0.999 -1.949 0.999 -1.949 0.034 87.277
2770.458 0.035 87.244 0.999 -2.002 0.999 -2.002 0.035 87.244
2795.417 0.036 87.211 0.999 -2.054 0.999 -2.054 0.036 87.211
2820.375 0.037 87.177 0.999 -2.107 0.999 -2.107 0.037 87.177
2845.333 0.038 87.142 0.999 -2.159 0.999 -2.159 0.038 87.142
2870.292 0.039 87.107 0.999 -2.211 0.999 -2.211 0.039 87.107
2895.25 0.039 87.071 0.999 -2.262 0.999 -2.262 0.039 87.071
2920.208 0.04 87.034 0.999 -2.313 0.999 -2.313 0.04 87.034
2945.167 0.041 86.998 0.999 -2.364 0.999 -2.364 0.041 86.998
2970.125 0.042 86.96 0.999 -2.415 0.999 -2.415 0.042 86.96
2995.083 0.043 86.923 0.999 -2.465 0.999 -2.465 0.043 86.923
3020.042 0.044 86.885 0.999 -2.516 0.999 -2.516 0.044 86.885
3045 0.045 86.846 0.999 -2.565 0.999 -2.565 0.045 86.846
3069.958 0.046 86.808 0.998 -2.615 0.998 -2.615 0.046 86.808
3094.917 0.046 86.769 0.998 -2.665 0.998 -2.665 0.046 86.769
3119.875 0.047 86.73 0.998 -2.714 0.998 -2.714 0.047 86.73
3144.833 0.048 86.691 0.998 -2.763 0.998 -2.763 0.048 86.691
3169.792 0.049 86.652 0.998 -2.812 0.998 -2.812 0.049 86.652
3194.75 0.05 86.612 0.998 -2.86 0.998 -2.86 0.05 86.612
3219.708 0.051 86.573 0.998 -2.909 0.998 -2.909 0.051 86.573
3244.667 0.052 86.533 0.998 -2.957 0.998 -2.957 0.052 86.533
3269.625 0.052 86.493 0.998 -3.005 0.998 -3.005 0.052 86.493
3294.583 0.053 86.453 0.998 -3.052 0.998 -3.052 0.053 86.453
3319.542 0.054 86.413 0.998 -3.1 0.998 -3.1 0.054 86.413
3344.5 0.055 86.373 0.998 -3.147 0.998 -3.147 0.055 86.373
3369.458 0.056 86.333 0.998 -3.195 0.998 -3.195 0.056 86.333
3394.417 0.057 86.293 0.998 -3.242 0.998 -3.242 0.057 86.293
3419.375 0.057 86.253 0.998 -3.288 0.998 -3.288 0.057 86.253
3444.333 0.058 86.213 0.998 -3.335 0.998 -3.335 0.058 86.213
3469.292 0.059 86.172 0.998 -3.382 0.998 -3.382 0.059 86.172
3494.25 0.06 86.132 0.998 -3.428 0.998 -3.428 0.06 86.132
3519.208 0.061 86.092 0.998 -3.474 0.998 -3.474 0.061 86.092
3544.167 0.061 86.051 0.998 -3.52 0.998 -3.52 0.061 86.051
3569.125 0.062 86.011 0.998 -3.566 0.998 -3.566 0.062 86.011
3594.083 0.063 85.971 0.998 -3.612 0.998 -3.612 0.063 85.971
3619.042 0.064 85.93 0.998 -3.657 0.998 -3.657 0.064 85.93
3644 0.065 85.89 0.997 -3.703 0.997 -3.703 0.065 85.89
3668.958 0.065 85.85 0.997 -3.748 0.997 -3.748 0.065 85.85
3693.917 0.066 85.809 0.997 -3.793 0.997 -3.793 0.066 85.809
3718.875 0.067 85.769 0.997 -3.838 0.997 -3.838 0.067 85.769
3743.833 0.068 85.729 0.997 -3.883 0.997 -3.883 0.068 85.729
3768.792 0.069 85.688 0.997 -3.928 0.997 -3.928 0.069 85.688
3793.75 0.069 85.648 0.997 -3.973 0.997 -3.973 0.069 85.648
3818.708 0.07 85.608 0.997 -4.017 0.997 -4.017 0.07 85.608
3843.667 0.071 85.567 0.997 -4.061 0.997 -4.061 0.071 85.567
3868.625 0.072 85.527 0.997 -4.106 0.997 -4.106 0.072 85.527
3893.583 0.072 85.487 0.997 -4.15 0.997 -4.15 0.072 85.487
3918.542 0.073 85.447 0.997 -4.194 0.997 -4.194 0.073 85.447
3943.5 0.074 85.407 0.997 -4.238 0.997 -4.238 0.074 85.407
3968.458 0.075 85.367 0.997 -4.282 0.997 -4.282 0.075 85.367
3993.417 0.075 85.326 0.997 -4.325 0.997 -4.325 0.075 85.326
4018.375 0.076 85.286 0.997 -4.369 0.997 -4.369 0.076 85.286
4043.333 0.077 85.246 0.997 -4.412 0.997 -4.412 0.077 85.246
4068.292 0.078 85.206 0.997 -4.456 0.997 -4.456 0.078 85.206
4093.25 0.078 85.166 0.996 -4.499 0.996 -4.499 0.078 85.166
4118.208 0.079 85.126 0.996 -4.542 0.996 -4.542 0.079 85.126
4143.167 0.08 85.086 0.996 -4.585 0.996 -4.585 0.08 85.086
4168.125 0.081 85.047 0.996 -4.628 0.996 -4.628 0.081 85.047
4193.083 0.081 85.007 0.996 -4.671 0.996 -4.671 0.081 85.007
4218.042 0.082 84.967 0.996 -4.714 0.996 -4.714 0.082 84.967
4243 0.083 84.927 0.996 -4.756 0.996 -4.756 0.083 84.927
4267.958 0.084 84.887 0.996 -4.799 0.996 -4.799 0.084 84.887
4292.917 0.084 84.848 0.996 -4.841 0.996 -4.841 0.084 84.848
4317.875 0.085 84.808 0.996 -4.884 0.996 -4.884 0.085 84.808
4342.833 0.086 84.768 0.996 -4.926 0.996 -4.926 0.086 84.768
4367.792 0.087 84.729 0.996 -4.968 0.996 -4.968 0.087 84.729
4392.75 0.087 84.689 0.996 -5.01 0.996 -5.01 0.087 84.689
4417.708 0.088 84.65 0.996 -5.052 0.996 -5.052 0.088 84.65
4442.667 0.089 84.61 0.996 -5.094 0.996 -5.094 0.089 84.61
4467.625 0.09 84.571 0.996 -5.136 0.996 -5.136 0.09 84.571
4492.583 0.09 84.531 0.995 -5.178 0.995 -5.178 0.09 84.531
4517.542 0.091 84.492 0.995 -5.22 0.995 -5.22 0.091 84.492
4542.5 0.092 84.453 0.995 -5.261 0.995 -5.261 0.092 84.453
4567.458 0.092 84.413 0.995 -5.303 0.995 -5.303 0.092 84.413
4592.417 0.093 84.374 0.995 -5.344 0.995 -5.344 0.093 84.374
4617.375 0.094 84.335 0.995 -5.386 0.995 -5.386 0.094 84.335
4642.333 0.095 84.295 0.995 -5.427 0.995 -5.427 0.095 84.295
4667.292 0.095 84.256 0.995 -5.468 0.995 -5.468 0.095 84.256
4692.25 0.096 84.217 0.995 -5.51 0.995 -5.51 0.096 84.217
4717.208 0.097 84.178 0.995 -5.551 0.995 -5.551 0.097 84.178
4742.167 0.097 84.139 0.995 -5.592 0.995 -5.592 0.097 84.139
4767.125 0.098 84.1 0.995 -5.633 0.995 -5.633 0.098 84.1
4792.083 0.099 84.061 0.995 -5.674 0.995 -5.674 0.099 84.061
4817.042 0.1 84.022 0.995 -5.715 0.995 -5.715 0.1 84.022
4842 0.1 83.983 0.995 -5.755 0.995 -5.755 0.1 83.983
4866.958 0.101 83.944 0.994 -5.796 0.994 -5.796 0.101 83.944
4891.917 0.102 83.905 0.994 -5.837 0.994 -5.837 0.102 83.905
4916.875 0.102 83.867 0.994 -5.877 0.994 -5.877 0.102 83.867
4941.833 0.103 83.828 0.994 -5.918 0.994 -5.918 0.103 83.828
4966.792 0.104 83.789 0.994 -5.958 0.994 -5.958 0.104 83.789
4991.75 0.105 83.75 0.994 -5.999 0.994 -5.999 0.105 83.75
5016.708 0.105 83.712 0.994 -6.039 0.994 -6.039 0.105 83.712
5041.667 0.106 83.673 0.994 -6.08 0.994 -6.08 0.106 83.673
5066.625 0.107 83.634 0.994 -6.12 0.994 -6.12 0.107 83.634
5091.583 0.107 83.596 0.994 -6.16 0.994 -6.16 0.107 83.596
5116.542 0.108 83.557 0.994 -6.2 0.994 -6.2 0.108 83.557
5141.5 0.109 83.519 0.994 -6.24 0.994 -6.24 0.109 83.519
5166.458 0.109 83.48 0.994 -6.28 0.994 -6.28 0.109 83.48
5191.417 0.11 83.442 0.993 -6.32 0.993 -6.32 0.11 83.442
5216.375 0.111 83.403 0.993 -6.36 0.993 -6.36 0.111 83.403
5241.333 0.111 83.365 0.993 -6.4 0.993 -6.4 0.111 83.365
5266.292 0.112 83.327 0.993 -6.44 0.993 -6.44 0.112 83.327
5291.25 0.113 83.288 0.993 -6.48 0.993 -6.48 0.113 83.288
5316.208 0.114 83.25 0.993 -6.519 0.993 -6.519 0.114 83.25
5341.167 0.114 83.212 0.993 -6.559 0.993 -6.559 0.114 83.212
5366.125 0.115 83.174 0.993 -6.599 0.993 -6.599 0.115 83.174
5391.083 0.116 83.135 0.993 -6.638 0.993 -6.638 0.116 83.135
5416.042 0.116 83.097 0.993 -6.678 0.993 -6.678 0.116 83.097
5441 0.117 83.059 0.993 -6.717 0.993 -6.717 0.117 83.059
5465.958 0.118 83.021 0.993 -6.757 0.993 -6.757 0.118 83.021
5490.917 0.118 82.983 0.993 -6.796 0.993 -6.796 0.118 82.983
5515.875 0.119 82.945 0.992 -6.835 0.992 -6.835 0.119 82.945
5540.833 0.12 82.907 0.992 -6.875 0.992 -6.875 0.12 82.907
5565.792 0.12 82.869 0.992 -6.914 0.992 -6.914 0.12 82.869
5590.75 0.121 82.831 0.992 -6.953 0.992 -6.953 0.121 82.831
5615.708 0.122 82.793 0.992 -6.992 0.992 -6.992 0.122 82.793
5640.667 0.122 82.755 0.992 -7.031 0.992 -7.031 0.122 82.755
5665.625 0.123 82.717 0.992 -7.07 0.992 -7.07 0.123 82.717
5690.583 0.124 82.679 0.992 -7.109 0.992 -7.109 0.124 82.679
5715.542 0.124 82.642 0.992 -7.148 0.992 -7.148 0.124 82.642
5740.5 0.125 82.604 0.992 -7.187 0.992 -7.187 0.125 82.604
5765.458 0.126 82.566 0.992 -7.226 0.992 -7.226 0.126 82.566
5790.417 0.126 82.528 0.992 -7.265 0.992 -7.265 0.126 82.528
5815.375 0.127 82.491 0.991 -7.304 0.991 -7.304 0.127 82.491
5840.333 0.128 82.453 0.991 -7.343 0.991 -7.343 0.128 82.453
5865.292 0.128 82.415 0.991 -7.381 0.991 -7.381 0.128 82.415
5890.25 0.129 82.378 0.991 -7.42 0.991 -7.42 0.129 82.378
5915.208 0.13 82.34 0.991 -7.459 0.991 -7.459 0.13 82.34
5940.167 0.13 82.302 0.991 -7.497 0.991 -7.497 0.13 82.302
5965.125 0.131 82.265 0.991 -7.536 0.991 -7.536 0.131 82.265
5990.083 0.132 82.227 0.991 -7.574 0.991 -7.574 0.132 82.227
6015.042 0.132 82.19 0.991 -7.613 0.991 -7.613 0.132 82.19
6040 0.133 82.152 0.991 -7.651 0.991 -7.651 0.133 82.152
6064.958 0.134 82.115 0.991 -7.69 0.991 -7.69 0.134 82.115
6089.917 0.134 82.078 0.99 -7.728 0.99 -7.728 0.134 82.078
6114.875 0.135 82.04 0.99 -7.767 0.99 -7.767 0.135 82.04
6139.833 0.136 82.003 0.99 -7.805 0.99 -7.805 0.136 82.003
6164.792 0.136 81.965 0.99 -7.843 0.99 -7.843 0.136 81.965
6189.75 0.137 81.928 0.99 -7.881 0.99 -7.881 0.137 81.928
6214.708 0.138 81.891 0.99 -7.92 0.99 -7.92 0.138 81.891
6239.667 0.138 81.854 0.99 -7.958 0.99 -7.958 0.138 81.854
6264.625 0.139 81.816 0.99 -7.996 0.99 -7.996 0.139 81.816
6289.583 0.14 81.779 0.99 -8.034 0.99 -8.034 0.14 81.779
6314.542 0.14 81.742 0.99 -8.072 0.99 -8.072 0.14 81.742
6339.5 0.141 81.705 0.99 -8.11 0.99 -8.11 0.141 81.705
6364.458 0.142 81.668 0.989 -8.148 0.989 -8.148 0.142 81.668
6389.417 0.142 81.631 0.989 -8.186 0.989 -8.186 0.142 81.631
6414.375 0.143 81.593 0.989 -8.224 0.989 -8.224 0.143 81.593
6439.333 0.144 81.556 0.989 -8.262 0.989 -8.262 0.144 81.556
6464.292 0.144 81.519 0.989 -8.3 0.989 -8.3 0.144 81.519
6489.25 0.145 81.482 0.989 -8.338 0.989 -8.338 0.145 81.482
6514.208 0.146 81.445 0.989 -8.376 0.989 -8.376 0.146 81.445
6539.167 0.146 81.408 0.989 -8.413 0.989 -8.413 0.146 81.408
6564.125 0.147 81.371 0.989 -8.451 0.989 -8.451 0.147 81.371
6589.083 0.148 81.334 0.989 -8.489 0.989 -8.489 0.148 81.334
6614.042 0.148 81.298 0.988 -8.527 0.988 -8.527 0.148 81.298
6639 0.149 81.261 0.988 -8.564 0.988 -8.564 0.149 81.261
6663.958 0.15 81.224 0.988 -8.602 0.988 -8.602 0.15 81.224
6688.917 0.15 81.187 0.988 -8.64 0.988 -8.64 0.15 81.187
6713.875 0.151 81.15 0.988 -8.677 0.988 -8.677 0.151 81.15
6738.833 0.152 81.113 0.988 -8.715 0.988 -8.715 0.152 81.113
6763.792 0.152 81.077 0.988 -8.752 0.988 -8.752 0.152 81.077
6788.75 0.153 81.04 0.988 -8.79 0.988 -8.79 0.153 81.04
6813.708 0.153 81.003 0.988 -8.827 0.988 -8.827 0.153 81.003
6838.667 0.154 80.966 0.988 -8.865 0.988 -8.865 0.154 80.966
6863.625 0.155 80.93 0.987 -8.902 0.987 -8.902 0.155 80.93
6888.583 0.155 80.893 0.987 -8.939 0.987 -8.939 0.155 80.893
6913.542 0.156 80.856 0.987 -8.977 0.987 -8.977 0.156 80.856
6938.5 0.157 80.82 0.987 -9.014 0.987 -9.014 0.157 80.82
6963.458 0.157 80.783 0.987 -9.051 0.987 -9.051 0.157 80.783
6988.417 0.158 80.747 0.987 -9.089 0.987 -9.089 0.158 80.747
7013.375 0.159 80.71 0.987 -9.126 0.987 -9.126 0.159 80.71
7038.333 0.159 80.673 0.987 -9.163 0.987 -9.163 0.159 80.673
7063.292 0.16 80.637 0.987 -9.2 0.987 -9.2 0.16 80.637
7088.25 0.161 80.6 0.987 -9.238 0.987 -9.238 0.161 80.6
7113.208 0.161 80.564 0.986 -9.275 0.986 -9.275 0.161 80.564
7138.167 0.162 80.527 0.986 -9.312 0.986 -9.312 0.162 80.527
7163.125 0.162 80.491 0.986 -9.349 0.986 -9.349 0.162 80.491
7188.083 0.163 80.455 0.986 -9.386 0.986 -9.386 0.163 80.455
7213.042 0.164 80.418 0.986 -9.423 0.986 -9.423 0.164 80.418
7238 0.164 80.382 0.986 -9.46 0.986 -9.46 0.164 80.382
7262.958 0.165 80.345 0.986 -9.497 0.986 -9.497 0.165 80.345
7287.917 0.166 80.309 0.986 -9.534 0.986 -9.534 0.166 80.309
7312.875 0.166 80.273 0.986 -9.571 0.986 -9.571 0.166 80.273
7337.833 0.167 80.236 0.986 -9.608 0.986 -9.608 0.167 80.236
7362.792 0.168 80.2 0.985 -9.645 0.985 -9.645 0.168 80.2
7387.75 0.168 80.164 0.985 -9.682 0.985 -9.682 0.168 80.164
7412.708 0.169 80.128 0.985 -9.718 0.985 -9.718 0.169 80.128
7437.667 0.169 80.091 0.985 -9.755 0.985 -9.755 0.169 80.091
7462.625 0.17 80.055 0.985 -9.792 0.985 -9.792 0.17 80.055
7487.583 0.171 80.019 0.985 -9.829 0.985 -9.829 0.171 80.019
7512.542 0.171 79.983 0.985 -9.866 0.985 -9.866 0.171 79.983
7537.5 0.172 79.947 0.985 -9.902 0.985 -9.902 0.172 79.947
7562.458 0.173 79.911 0.985 -9.939 0.985 -9.939 0.173 79.911
7587.417 0.173 79.874 0.984 -9.976 0.984 -9.976 0.173 79.874
7612.375 0.174 79.838 0.984 -10.012 0.984 -10.012 0.174 79.838
7637.333 0.174 79.802 0.984 -10.049 0.984 -10.049 0.174 79.802
7662.292 0.175 79.766 0.984 -10.086 0.984 -10.086 0.175 79.766
7687.25 0.176 79.73 0.984 -10.122 0.984 -10.122 0.176 79.73
7712.208 0.176 79.694 0.984 -10.159 0.984 -10.159 0.176 79.694
7737.167 0.177 79.658 0.984 -10.195 0.984 -10.195 0.177 79.658
7762.125 0.178 79.622 0.984 -10.232 0.984 -10.232 0.178 79.622
7787.083 0.178 79.586 0.984 -10.268 0.984 -10.268 0.178 79.586
7812.042 0.179 79.55 0.983 -10.305 0.983 -10.305 0.179 79.55
7837 0.18 79.514 0.983 -10.341 0.983 -10.341 0.18 79.514
7861.958 0.18 79.478 0.983 -10.378 0.983 -10.378 0.18 79.478
7886.917 0.181 79.443 0.983 -10.414 0.983 -10.414 0.181 79.443
7911.875 0.181 79.407 0.983 -10.45 0.983 -10.45 0.181 79.407
7936.833 0.182 79.371 0.983 -10.487 0.983 -10.487 0.182 79.371
7961.792 0.183 79.335 0.983 -10.523 0.983 -10.523 0.183 79.335
7986.75 0.183 79.299 0.983 -10.559 0.983 -10.559 0.183 79.299
8011.708 0.184 79.263 0.982 -10.596 0.982 -10.596 0.184 79.263
8036.667 0.185 79.228 0.982 -10.632 0.982 -10.632 0.185 79.228
8061.625 0.185 79.192 0.982 -10.668 0.982 -10.668 0.185 79.192
8086.583 0.186 79.156 0.982 -10.704 0.982 -10.704 0.186 79.156
8111.542 0.186 79.12 0.982 -10.741 0.982 -10.741 0.186 79.12
8136.5 0.187 79.085 0.982 -10.777 0.982 -10.777 0.187 79.085
8161.458 0.188 79.049 0.982 -10.813 0.982 -10.813 0.188 79.049
8186.417 0.188 79.013 0.982 -10.849 0.982 -10.849 0.188 79.013
8211.375 0.189 78.978 0.982 -10.885 0.982 -10.885 0.189 78.978
8236.333 0.189 78.942 0.981 -10.921 0.981 -10.921 0.189 78.942
8261.292 0.19 78.906 0.981 -10.958 0.981 -10.958 0.19 78.906
8286.25 0.191 78.871 0.981 -10.994 0.981 -10.994 0.191 78.871
8311.208 0.191 78.835 0.981 -11.03 0.981 -11.03 0.191 78.835
8336.167 0.192 78.8 0.981 -11.066 0.981 -11.066 0.192 78.8
8361.125 0.193 78.764 0.981 -11.102 0.981 -11.102 0.193 78.764
8386.083 0.193 78.728 0.981 -11.138 0.981 -11.138 0.193 78.728
8411.042 0.194 78.693 0.981 -11.174 0.981 -11.174 0.194 78.693
8436 0.194 78.657 0.98 -11.21 0.98 -11.21 0.194 78.657
8460.958 0.195 78.622 0.98 -11.246 0.98 -11.246 0.195 78.622
8485.917 0.196 78.586 0.98 -11.282 0.98 -11.282 0.196 78.586
8510.875 0.196 78.551 0.98 -11.317 0.98 -11.317 0.196 78.551
8535.833 0.197 78.515 0.98 -11.353 0.98 -11.353 0.197 78.515
8560.792 0.197 78.48 0.98 -11.389 0.98 -11.389 0.197 78.48
8585.75 0.198 78.445 0.98 -11.425 0.98 -11.425 0.198 78.445
8610.708 0.199 78.409 0.98 -11.461 0.98 -11.461 0.199 78.409
8635.667 0.199 78.374 0.979 -11.497 0.979 -11.497 0.199 78.374
8660.625 0.2 78.338 0.979 -11.532 0.979 -11.532 0.2 78.338
8685.583 0.201 78.303 0.979 -11.568 0.979 -11.568 0.201 78.303
8710.542 0.201 78.268 0.979 -11.604 0.979 -11.604 0.201 78.268
8735.5 0.202 78.232 0.979 -11.64 0.979 -11.64 0.202 78.232
8760.458 0.202 78.197 0.979 -11.675 0.979 -11.675 0.202 78.197
8785.417 0.203 78.162 0.979 -11.711 0.979 -11.711 0.203 78.162
8810.375 0.204 78.127 0.979 -11.747 0.979 -11.747 0.204 78.127
8835.333 0.204 78.091 0.978 -11.782 0.978 -11.782 0.204 78.091
8860.292 0.205 78.056 0.978 -11.818 0.978 -11.818 0.205 78.056
8885.25 0.205 78.021 0.978 -11.854 0.978 -11.854 0.205 78.021
8910.208 0.206 77.986 0.978 -11.889 0.978 -11.889 0.206 77.986
8935.167 0.207 77.95 0.978 -11.925 0.978 -11.925 0.207 77.95
8960.125 0.207 77.915 0.978 -11.96 0.978 -11.96 0.207 77.915
8985.083 0.208 77.88 0.978 -11.996 0.978 -11.996 0.208 77.88
9010.042 0.208 77.845 0.978 -12.031 0.978 -12.031 0.208 77.845
9035 0.209 77.81 0.977 -12.067 0.977 -12.067 0.209 77.81
9059.958 0.21 77.775 0.977 -12.102 0.977 -12.102 0.21 77.775
9084.917 0.21 77.74 0.977 -12.138 0.977 -12.138 0.21 77.74
9109.875 0.211 77.705 0.977 -12.173 0.977 -12.173 0.211 77.705
9134.833 0.211 77.67 0.977 -12.209 0.977 -12.209 0.211 77.67
9159.792 0.212 77.635 0.977 -12.244 0.977 -12.244 0.212 77.635
9184.75 0.213 77.599 0.977 -12.279 0.977 -12.279 0.213 77.599
9209.708 0.213 77.564 0.977 -12.315 0.977 -12.315 0.213 77.564
9234.667 0.214 77.529 0.976 -12.35 0.976 -12.35 0.214 77.529
9259.625 0.214 77.494 0.976 -12.386 0.976 -12.386 0.214 77.494
9284.583 0.215 77.459 0.976 -12.421 0.976 -12.421 0.215 77.459
9309.542 0.216 77.425 0.976 -12.456 0.976 -12.456 0.216 77.425
9334.5 0.216 77.39 0.976 -12.491 0.976 -12.491 0.216 77.39
9359.458 0.217 77.355 0.976 -12.527 0.976 -12.527 0.217 77.355
9384.417 0.217 77.32 0.976 -12.562 0.976 -12.562 0.217 77.32
9409.375 0.218 77.285 0.975 -12.597 0.975 -12.597 0.218 77.285
9434.333 0.219 77.25 0.975 -12.632 0.975 -12.632 0.219 77.25
9459.292 0.219 77.215 0.975 -12.668 0.975 -12.668 0.219 77.215
9484.25 0.22 77.18 0.975 -12.703 0.975 -12.703 0.22 77.18
9509.208 0.22 77.145 0.975 -12.738 0.975 -12.738 0.22 77.145
9534.167 0.221 77.111 0.975 -12.773 0.975 -12.773 0.221 77.111
9559.125 0.222 77.076 0.975 -12.808 0.975 -12.808 0.222 77.076
9584.083 0.222 77.041 0.975 -12.843 0.975 -12.843 0.222 77.041
9609.042 0.223 77.006 0.974 -12.878 0.974 -12.878 0.223 77.006
9634 0.223 76.972 0.974 -12.914 0.974 -12.914 0.223 76.972
9658.958 0.224 76.937 0.974 -12.949 0.974 -12.949 0.224 76.937
9683.917 0.225 76.902 0.974 -12.984 0.974 -12.984 0.225 76.902
9708.875 0.225 76.867 0.974 -13.019 0.974 -13.019 0.225 76.867
9733.833 0.226 76.833 0.974 -13.054 0.974 -13.054 0.226 76.833
9758.792 0.226 76.798 0.974 -13.089 0.974 -13.089 0.226 76.798
9783.75 0.227 76.763 0.973 -13.124 0.973 -13.124 0.227 76.763
9808.708 0.228 76.729 0.973 -13.159 0.973 -13.159 0.228 76.729
9833.667 0.228 76.694 0.973 -13.194 0.973 -13.194 0.228 76.694
9858.625 0.229 76.659 0.973 -13.228 0.973 -13.228 0.229 76.659
9883.583 0.229 76.625 0.973 -13.263 0.973 -13.263 0.229 76.625
9908.542 0.23 76.59 0.973 -13.298 0.973 -13.298 0.23 76.59
9933.5 0.231 76.556 0.973 -13.333 0.973 -13.333 0.231 76.556
9958.458 0.231 76.521 0.972 -13.368 0.972 -13.368 0.231 76.521
9983.417 0.232 76.486 0.972 -13.403 0.972 -13.403 0.232 76.486
10008.375 0.232 76.452 0.972 -13.438 0.972 -13.438 0.232 76.452
10033.333 0.233 76.417 0.972 -13.473 0.972 -13.473 0.233 76.417
10058.292 0.234 76.383 0.972 -13.507 0.972 -13.507 0.234 76.383
10083.25 0.234 76.348 0.972 -13.542 0.972 -13.542 0.234 76.348
10108.208 0.235 76.314 0.972 -13.577 0.972 -13.577 0.235 76.314
10133.167 0.235 76.28 0.971 -13.612 0.971 -13.612 0.235 76.28
10158.125 0.236 76.245 0.971 -13.646 0.971 -13.646 0.236 76.245
10183.083 0.237 76.211 0.971 -13.681 0.971 -13.681 0.237 76.211
10208.042 0.237 76.176 0.971 -13.716 0.971 -13.716 0.237 76.176
10233 0.238 76.142 0.971 -13.75 0.971 -13.75 0.238 76.142
10257.958 0.238 76.107 0.971 -13.785 0.971 -13.785 0.238 76.107
10282.917 0.239 76.073 0.971 -13.82 0.971 -13.82 0.239 76.073
10307.875 0.239 76.039 0.97 -13.854 0.97 -13.854 0.239 76.039
10332.833 0.24 76.004 0.97 -13.889 0.97 -13.889 0.24 76.004
10357.792 0.241 75.97 0.97 -13.924 0.97 -13.924 0.241 75.97
10382.75 0.241 75.936 0.97 -13.958 0.97 -13.958 0.241 75.936
10407.708 0.242 75.901 0.97 -13.993 0.97 -13.993 0.242 75.901
10432.667 0.242 75.867 0.97 -14.027 0.97 -14.027 0.242 75.867
10457.625 0.243 75.833 0.97 -14.062 0.97 -14.062 0.243 75.833
10482.583 0.244 75.799 0.969 -14.096 0.969 -14.096 0.244 75.799
10507.542 0.244 75.764 0.969 -14.131 0.969 -14.131 0.244 75.764
10532.5 0.245 75.73 0.969 -14.165 0.969 -14.165 0.245 75.73
10557.458 0.245 75.696 0.969 -14.2 0.969 -14.2 0.245 75.696
10582.417 0.246 75.662 0.969 -14.234 0.969 -14.234 0.246 75.662
10607.375 0.246 75.628 0.969 -14.269 0.969 -14.269 0.246 75.628
10632.333 0.247 75.593 0.969 -14.303 0.969 -14.303 0.247 75.593
10657.292 0.248 75.559 0.968 -14.338 0.968 -14.338 0.248 75.559
10682.25 0.248 75.525 0.968 -14.372 0.968 -14.372 0.248 75.525
10707.208 0.249 75.491 0.968 -14.406 0.968 -14.406 0.249 75.491
10732.167 0.249 75.457 0.968 -14.441 0.968 -14.441 0.249 75.457
10757.125 0.25 75.423 0.968 -14.475 0.968 -14.475 0.25 75.423
10782.083 0.251 75.389 0.968 -14.509 0.968 -14.509 0.251 75.389
10807.042 0.251 75.355 0.968 -14.544 0.968 -14.544 0.251 75.355
10832 0.252 75.321 0.967 -14.578 0.967 -14.578 0.252 75.321
10856.958 0.252 75.287 0.967 -14.612 0.967 -14.612 0.252 75.287
10881.917 0.253 75.252 0.967 -14.647 0.967 -14.647 0.253 75.252
10906.875 0.253 75.218 0.967 -14.681 0.967 -14.681 0.253 75.218
10931.833 0.254 75.184 0.967 -14.715 0.967 -14.715 0.254 75.184
10956.792 0.255 75.151 0.967 -14.749 0.967 -14.749 0.255 75.151
10981.75 0.255 75.117 0.966 -14.784 0.966 -14.784 0.255 75.117
11006.708 0.256 75.083 0.966 -14.818 0.966 -14.818 0.256 75.083
11031.667 0.256 75.049 0.966 -14.852 0.966 -14.852 0.256 75.049
11056.625 0.257 75.015 0.966 -14.886 0.966 -14.886 0.257 75.015
11081.583 0.257 74.981 0.966 -14.92 0.966 -14.92 0.257 74.981
11106.542 0.258 74.947 0.966 -14.954 0.966 -14.954 0.258 74.947
11131.5 0.259 74.913 0.966 -14.989 0.966 -14.989 0.259 74.913
11156.458 0.259 74.879 0.965 -15.023 0.965 -15.023 0.259 74.879
11181.417 0.26 74.845 0.965 -15.057 0.965 -15.057 0.26 74.845
11206.375 0.26 74.811 0.965 -15.091 0.965 -15.091 0.26 74.811
11231.333 0.261 74.778 0.965 -15.125 0.965 -15.125 0.261 74.778
11256.292 0.261 74.744 0.965 -15.159 0.965 -15.159 0.261 74.744
11281.25 0.262 74.71 0.965 -15.193 0.965 -15.193 0.262 74.71
11306.208 0.263 74.676 0.964 -15.227 0.964 -15.227 0.263 74.676
11331.167 0.263 74.642 0.964 -15.261 0.964 -15.261 0.263 74.642
11356.125 0.264 74.609 0.964 -15.295 0.964 -15.295 0.264 74.609
11381.083 0.264 74.575 0.964 -15.329 0.964 -15.329 0.264 74.575
11406.042 0.265 74.541 0.964 -15.363 0.964 -15.363 0.265 74.541
11431 0.266 74.508 0.964 -15.397 0.964 -15.397 0.266 74.508
11455.958 0.266 74.474 0.964 -15.431 0.964 -15.431 0.266 74.474
11480.917 0.267 74.44 0.963 -15.465 0.963 -15.465 0.267 74.44
11505.875 0.267 74.407 0.963 -15.498 0.963 -15.498 0.267 74.407
11530.833 0.268 74.373 0.963 -15.532 0.963 -15.532 0.268 74.373
11555.792 0.268 74.339 0.963 -15.566 0.963 -15.566 0.268 74.339
11580.75 0.269 74.306 0.963 -15.6 0.963 -15.6 0.269 74.306
11605.708 0.269 74.272 0.963 -15.634 0.963 -15.634 0.269 74.272
11630.667 0.27 74.238 0.962 -15.668 0.962 -15.668 0.27 74.238
11655.625 0.271 74.205 0.962 -15.701 0.962 -15.701 0.271 74.205
11680.583 0.271 74.171 0.962 -15.735 0.962 -15.735 0.271 74.171
11705.542 0.272 74.138 0.962 -15.769 0.962 -15.769 0.272 74.138
11730.5 0.272 74.104 0.962 -15.803 0.962 -15.803 0.272 74.104
11755.458 0.273 74.071 0.962 -15.836 0.962 -15.836 0.273 74.071
11780.417 0.273 74.037 0.961 -15.87 0.961 -15.87 0.273 74.037
11805.375 0.274 74.004 0.961 -15.904 0.961 -15.904 0.274 74.004
11830.333 0.275 73.97 0.961 -15.938 0.961 -15.938 0.275 73.97
11855.292 0.275 73.937 0.961 -15.971 0.961 -15.971 0.275 73.937
11880.25 0.276 73.903 0.961 -16.005 0.961 -16.005 0.276 73.903
11905.208 0.276 73.87 0.961 -16.039 0.961 -16.039 0.276 73.87
11930.167 0.277 73.836 0.96 -16.072 0.96 -16.072 0.277 73.836
11955.125 0.277 73.803 0.96 -16.106 0.96 -16.106 0.277 73.803
11980.083 0.278 73.769 0.96 -16.139 0.96 -16.139 0.278 73.769
12005.042 0.279 73.736 0.96 -16.173 0.96 -16.173 0.279 73.736
12030 0.279 73.703 0.96 -16.207 0.96 -16.207 0.279 73.703
12054.958 0.28 73.669 0.96 -16.24 0.96 -16.24 0.28 73.669
12079.917 0.28 73.636 0.959 -16.274 0.959 -16.274 0.28 73.636
12104.875 0.281 73.603 0.959 -16.307 0.959 -16.307 0.281 73.603
12129.833 0.281 73.569 0.959 -16.341 0.959 -16.341 0.281 73.569
12154.792 0.282 73.536 0.959 -16.374 0.959 -16.374 0.282 73.536
12179.75 0.282 73.503 0.959 -16.408 0.959 -16.408 0.282 73.503
12204.708 0.283 73.47 0.959 -16.441 0.959 -16.441 0.283 73.47
12229.667 0.284 73.436 0.959 -16.475 0.959 -16.475 0.284 73.436
12254.625 0.284 73.403 0.958 -16.508 0.958 -16.508 0.284 73.403
12279.583 0.285 73.37 0.958 -16.541 0.958 -16.541 0.285 73.37
12304.542 0.285 73.337 0.958 -16.575 0.958 -16.575 0.285 73.337
12329.5 0.286 73.303 0.958 -16.608 0.958 -16.608 0.286 73.303
12354.458 0.286 73.27 0.958 -16.642 0.958 -16.642 0.286 73.27
12379.417 0.287 73.237 0.958 -16.675 0.958 -16.675 0.287 73.237
12404.375 0.288 73.204 0.957 -16.708 0.957 -16.708 0.288 73.204
12429.333 0.288 73.171 0.957 -16.742 0.957 -16.742 0.288 73.171
12454.292 0.289 73.138 0.957 -16.775 0.957 -16.775 0.289 73.138
12479.25 0.289 73.104 0.957 -16.808 0.957 -16.808 0.289 73.104
12504.208 0.29 73.071 0.957 -16.842 0.957 -16.842 0.29 73.071
12529.167 0.29 73.038 0.957 -16.875 0.957 -16.875 0.29 73.038
12554.125 0.291 73.005 0.956 -16.908 0.956 -16.908 0.291 73.005
12579.083 0.291 72.972 0.956 -16.941 0.956 -16.941 0.291 72.972
12604.042 0.292 72.939 0.956 -16.975 0.956 -16.975 0.292 72.939
12629 0.293 72.906 0.956 -17.008 0.956 -17.008 0.293 72.906
12653.958 0.293 72.873 0.956 -17.041 0.956 -17.041 0.293 72.873
12678.917 0.294 72.84 0.955 -17.074 0.955 -17.074 0.294 72.84
12703.875 0.294 72.807 0.955 -17.107 0.955 -17.107 0.294 72.807
12728.833 0.295 72.774 0.955 -17.141 0.955 -17.141 0.295 72.774
12753.792 0.295 72.741 0.955 -17.174 0.955 -17.174 0.295 72.741
12778.75 0.296 72.708 0.955 -17.207 0.955 -17.207 0.296 72.708
12803.708 0.296 72.675 0.955 -17.24 0.955 -17.24 0.296 72.675
12828.667 0.297 72.642 0.954 -17.273 0.954 -17.273 0.297 72.642
12853.625 0.297 72.609 0.954 -17.306 0.954 -17.306 0.297 72.609
12878.583 0.298 72.576 0.954 -17.339 0.954 -17.339 0.298 72.576
12903.542 0.299 72.544 0.954 -17.372 0.954 -17.372 0.299 72.544
12928.5 0.299 72.511 0.954 -17.405 0.954 -17.405 0.299 72.511
12953.458 0.3 72.478 0.954 -17.438 0.954 -17.438 0.3 72.478
12978.417 0.3 72.445 0.953 -17.471 0.953 -17.471 0.3 72.445
13003.375 0.301 72.412 0.953 -17.504 0.953 -17.504 0.301 72.412
13028.333 0.301 72.379 0.953 -17.537 0.953 -17.537 0.301 72.379
13053.292 0.302 72.347 0.953 -17.57 0.953 -17.57 0.302 72.347
13078.25 0.302 72.314 0.953 -17.603 0.953 -17.603 0.302 72.314
13103.208 0.303 72.281 0.953 -17.636 0.953 -17.636 0.303 72.281
13128.167 0.304 72.248 0.952 -17.669 0.952 -17.669 0.304 72.248
13153.125 0.304 72.216 0.952 -17.702 0.952 -17.702 0.304 72.216
13178.083 0.305 72.183 0.952 -17.735 0.952 -17.735 0.305 72.183
13203.042 0.305 72.15 0.952 -17.768 0.952 -17.768 0.305 72.15
13228 0.306 72.117 0.952 -17.801 0.952 -17.801 0.306 72.117
13252.958 0.306 72.085 0.952 -17.833 0.952 -17.833 0.306 72.085
13277.917 0.307 72.052 0.951 -17.866 0.951 -17.866 0.307 72.052
13302.875 0.307 72.019 0.951 -17.899 0.951 -17.899 0.307 72.019
13327.833 0.308 71.987 0.951 -17.932 0.951 -17.932 0.308 71.987
13352.792 0.308 71.954 0.951 -17.965 0.951 -17.965 0.308 71.954
13377.75 0.309 71.921 0.951 -17.997 0.951 -17.997 0.309 71.921
13402.708 0.31 71.889 0.95 -18.03 0.95 -18.03 0.31 71.889
13427.667 0.31 71.856 0.95 -18.063 0.95 -18.063 0.31 71.856
13452.625 0.311 71.824 0.95 -18.096 0.95 -18.096 0.311 71.824
13477.583 0.311 71.791 0.95 -18.128 0.95 -18.128 0.311 71.791
13502.542 0.312 71.759 0.95 -18.161 0.95 -18.161 0.312 71.759
13527.5 0.312 71.726 0.95 -18.194 0.95 -18.194 0.312 71.726
13552.458 0.313 71.694 0.949 -18.226 0.949 -18.226 0.313 71.694
13577.417 0.313 71.661 0.949 -18.259 0.949 -18.259 0.313 71.661
13602.375 0.314 71.629 0.949 -18.292 0.949 -18.292 0.314 71.629
13627.333 0.314 71.596 0.949 -18.324 0.949 -18.324 0.314 71.596
13652.292 0.315 71.564 0.949 -18.357 0.949 -18.357 0.315 71.564
13677.25 0.315 71.531 0.948 -18.389 0.948 -18.389 0.315 71.531
13702.208 0.316 71.499 0.948 -18.422 0.948 -18.422 0.316 71.499
13727.167 0.317 71.466 0.948 -18.455 0.948 -18.455 0.317 71.466
13752.125 0.317 71.434 0.948 -18.487 0.948 -18.487 0.317 71.434
13777.083 0.318 71.402 0.948 -18.52 0.948 -18.52 0.318 71.402
13802.042 0.318 71.369 0.948 -18.552 0.948 -18.552 0.318 71.369
13827 0.319 71.337 0.947 -18.585 0.947 -18.585 0.319 71.337
13851.958 0.319 71.304 0.947 -18.617 0.947 -18.617 0.319 71.304
13876.917 0.32 71.272 0.947 -18.65 0.947 -18.65 0.32 71.272
13901.875 0.32 71.24 0.947 -18.682 0.947 -18.682 0.32 71.24
13926.833 0.321 71.208 0.947 -18.715 0.947 -18.715 0.321 71.208
13951.792 0.321 71.175 0.947 -18.747 0.947 -18.747 0.321 71.175
13976.75 0.322 71.143 0.946 -18.779 0.946 -18.779 0.322 71.143
14001.708 0.322 71.111 0.946 -18.812 0.946 -18.812 0.322 71.111
14026.667 0.323 71.078 0.946 -18.844 0.946 -18.844 0.323 71.078
14051.625 0.324 71.046 0.946 -18.877 0.946 -18.877 0.324 71.046
14076.583 0.324 71.014 0.946 -18.909 0.946 -18.909 0.324 71.014
14101.542 0.325 70.982 0.945 -18.941 0.945 -18.941 0.325 70.982
14126.5 0.325 70.95 0.945 -18.974 0.945 -18.974 0.325 70.95
14151.458 0.326 70.917 0.945 -19.006 0.945 -19.006 0.326 70.917
14176.417 0.326 70.885 0.945 -19.038 0.945 -19.038 0.326 70.885
14201.375 0.327 70.853 0.945 -19.071 0.945 -19.071 0.327 70.853
14226.333 0.327 70.821 0.944 -19.103 0.944 -19.103 0.327 70.821
14251.292 0.328 70.789 0.944 -19.135 0.944 -19.135 0.328 70.789
14276.25 0.328 70.757 0.944 -19.167 0.944 -19.167 0.328 70.757
14301.208 0.329 70.725 0.944 -19.2 0.944 -19.2 0.329 70.725
14326.167 0.329 70.693 0.944 -19.232 0.944 -19.232 0.329 70.693
14351.125 0.33 70.661 0.944 -19.264 0.944 -19.264 0.33 70.661
14376.083 0.33 70.628 0.943 -19.296 0.943 -19.296 0.33 70.628
14401.042 0.331 70.596 0.943 -19.328 0.943 -19.328 0.331 70.596
14426 0.332 70.564 0.943 -19.361 0.943 -19.361 0.332 70.564
14450.958 0.332 70.532 0.943 -19.393 0.943 -19.393 0.332 70.532
14475.917 0.333 70.5 0.943 -19.425 0.943 -19.425 0.333 70.5
14500.875 0.333 70.468 0.942 -19.457 0.942 -19.457 0.333 70.468
14525.833 0.334 70.437 0.942 -19.489 0.942 -19.489 0.334 70.437
14550.792 0.334 70.405 0.942 -19.521 0.942 -19.521 0.334 70.405
14575.75 0.335 70.373 0.942 -19.553 0.942 -19.553 0.335 70.373
14600.708 0.335 70.341 0.942 -19.585 0.942 -19.585 0.335 70.341
14625.667 0.336 70.309 0.942 -19.617 0.942 -19.617 0.336 70.309
14650.625 0.336 70.277 0.941 -19.649 0.941 -19.649 0.336 70.277
14675.583 0.337 70.245 0.941 -19.681 0.941 -19.681 0.337 70.245
14700.542 0.337 70.213 0.941 -19.713 0.941 -19.713 0.337 70.213
14725.5 0.338 70.181 0.941 -19.745 0.941 -19.745 0.338 70.181
14750.458 0.338 70.149 0.941 -19.777 0.941 -19.777 0.338 70.149
14775.417 0.339 70.118 0.94 -19.809 0.94 -19.809 0.339 70.118
14800.375 0.339 70.086 0.94 -19.841 0.94 -19.841 0.339 70.086
14825.333 0.34 70.054 0.94 -19.873 0.94 -19.873 0.34 70.054
14850.292 0.34 70.022 0.94 -19.905 0.94 -19.905 0.34 70.022
14875.25 0.341 69.99 0.94 -19.937 0.94 -19.937 0.341 69.99
14900.208 0.342 69.959 0.939 -19.969 0.939 -19.969 0.342 69.959
14925.167 0.342 69.927 0.939 -20.001 0.939 -20.001 0.342 69.927
14950.125 0.343 69.895 0.939 -20.032 0.939 -20.032 0.343 69.895
14975.083 0.343 69.864 0.939 -20.064 0.939 -20.064 0.343 69.864
15000.042 0.344 69.832 0.939 -20.096 0.939 -20.096 0.344 69.832
15025 0.344 69.8 0.938 -20.128 0.938 -20.128 0.344 69.8
15049.958 0.345 69.769 0.938 -20.16 0.938 -20.16 0.345 69.769
15074.917 0.345 69.737 0.938 -20.191 0.938 -20.191 0.345 69.737
15099.875 0.346 69.705 0.938 -20.223 0.938 -20.223 0.346 69.705
15124.833 0.346 69.674 0.938 -20.255 0.938 -20.255 0.346 69.674
15149.792 0.347 69.642 0.938 -20.287 0.938 -20.287 0.347 69.642
15174.75 0.347 69.61 0.937 -20.318 0.937 -20.318 0.347 69.61
15199.708 0.348 69.579 0.937 -20.35 0.937 -20.35 0.348 69.579
15224.667 0.348 69.547 0.937 -20.382 0.937 -20.382 0.348 69.547
15249.625 0.349 69.516 0.937 -20.413 0.937 -20.413 0.349 69.516
15274.583 0.349 69.484 0.937 -20.445 0.937 -20.445 0.349 69.484
15299.542 0.35 69.453 0.936 -20.477 0.936 -20.477 0.35 69.453
15324.5 0.35 69.421 0.936 -20.508 0.936 -20.508 0.35 69.421
15349.458 0.351 69.39 0.936 -20.54 0.936 -20.54 0.351 69.39
15374.417 0.351 69.358 0.936 -20.572 0.936 -20.572 0.351 69.358
15399.375 0.352 69.327 0.936 -20.603 0.936 -20.603 0.352 69.327
15424.333 0.352 69.295 0.935 -20.635 0.935 -20.635 0.352 69.295
15449.292 0.353 69.264 0.935 -20.666 0.935 -20.666 0.353 69.264
15474.25 0.353 69.232 0.935 -20.698 0.935 -20.698 0.353 69.232
15499.208 0.354 69.201 0.935 -20.729 0.935 -20.729 0.354 69.201
15524.167 0.354 69.17 0.935 -20.761 0.935 -20.761 0.354 69.17
15549.125 0.355 69.138 0.934 -20.792 0.934 -20.792 0.355 69.138
15574.083 0.355 69.107 0.934 -20.824 0.934 -20.824 0.355 69.107
15599.042 0.356 69.076 0.934 -20.855 0.934 -20.855 0.356 69.076
15624 0.357 69.044 0.934 -20.887 0.934 -20.887 0.357 69.044
15648.958 0.357 69.013 0.934 -20.918 0.934 -20.918 0.357 69.013
15673.917 0.358 68.982 0.933 -20.95 0.933 -20.95 0.358 68.982
15698.875 0.358 68.95 0.933 -20.981 0.933 -20.981 0.358 68.95
15723.833 0.359 68.919 0.933 -21.012 0.933 -21.012 0.359 68.919
15748.792 0.359 68.888 0.933 -21.044 0.933 -21.044 0.359 68.888
15773.75 0.36 68.856 0.933 -21.075 0.933 -21.075 0.36 68.856
15798.708 0.36 68.825 0.932 -21.106 0.932 -21.106 0.36 68.825
15823.667 0.361 68.794 0.932 -21.138 0.932 -21.138 0.361 68.794
15848.625 0.361 68.763 0.932 -21.169 0.932 -21.169 0.361 68.763
15873.583 0.362 68.732 0.932 -21.2 0.932 -21.2 0.362 68.732
15898.542 0.362 68.7 0.932 -21.232 0.932 -21.232 0.362 68.7
15923.5 0.363 68.669 0.931 -21.263 0.931 -21.263 0.363 68.669
15948.458 0.363 68.638 0.931 -21.294 0.931 -21.294 0.363 68.638
15973.417 0.364 68.607 0.931 -21.326 0.931 -21.326 0.364 68.607
15998.375 0.364 68.576 0.931 -21.357 0.931 -21.357 0.364 68.576
16023.333 0.365 68.545 0.931 -21.388 0.931 -21.388 0.365 68.545
16048.292 0.365 68.514 0.931 -21.419 0.931 -21.419 0.365 68.514
16073.25 0.366 68.483 0.93 -21.45 0.93 -21.45 0.366 68.483
16098.208 0.366 68.451 0.93 -21.482 0.93 -21.482 0.366 68.451
16123.167 0.367 68.42 0.93 -21.513 0.93 -21.513 0.367 68.42
16148.125 0.367 68.389 0.93 -21.544 0.93 -21.544 0.367 68.389
16173.083 0.368 68.358 0.93 -21.575 0.93 -21.575 0.368 68.358
16198.042 0.368 68.327 0.929 -21.606 0.929 -21.606 0.368 68.327
16223 0.369 68.296 0.929 -21.637 0.929 -21.637 0.369 68.296
16247.958 0.369 68.265 0.929 -21.668 0.929 -21.668 0.369 68.265
16272.917 0.37 68.234 0.929 -21.699 0.929 -21.699 0.37 68.234
16297.875 0.37 68.203 0.929 -21.73 0.929 -21.73 0.37 68.203
16322.833 0.371 68.173 0.928 -21.761 0.928 -21.761 0.371 68.173
16347.792 0.371 68.142 0.928 -21.792 0.928 -21.792 0.371 68.142
16372.75 0.372 68.111 0.928 -21.823 0.928 -21.823 0.372 68.111
16397.708 0.372 68.08 0.928 -21.854 0.928 -21.854 0.372 68.08
16422.667 0.373 68.049 0.928 -21.885 0.928 -21.885 0.373 68.049
16447.625 0.373 68.018 0.927 -21.916 0.927 -21.916 0.373 68.018
16472.583 0.374 67.987 0.927 -21.947 0.927 -21.947 0.374 67.987
16497.542 0.374 67.956 0.927 -21.978 0.927 -21.978 0.374 67.956
16522.5 0.375 67.926 0.927 -22.009 0.927 -22.009 0.375 67.926
16547.458 0.375 67.895 0.926 -22.04 0.926 -22.04 0.375 67.895
16572.417 0.376 67.864 0.926 -22.071 0.926 -22.071 0.376 67.864
16597.375 0.376 67.833 0.926 -22.102 0.926 -22.102 0.376 67.833
16622.333 0.377 67.802 0.926 -22.133 0.926 -22.133 0.377 67.802
16647.292 0.377 67.772 0.926 -22.164 0.926 -22.164 0.377 67.772
16672.25 0.378 67.741 0.925 -22.194 0.925 -22.194 0.378 67.741
16697.208 0.378 67.71 0.925 -22.225 0.925 -22.225 0.378 67.71
16722.167 0.379 67.68 0.925 -22.256 0.925 -22.256 0.379 67.68
16747.125 0.379 67.649 0.925 -22.287 0.925 -22.287 0.379 67.649
16772.083 0.38 67.618 0.925 -22.318 0.925 -22.318 0.38 67.618
16797.042 0.38 67.588 0.924 -22.348 0.924 -22.348 0.38 67.588
16822 0.381 67.557 0.924 -22.379 0.924 -22.379 0.381 67.557
16846.958 0.381 67.526 0.924 -22.41 0.924 -22.41 0.381 67.526
16871.917 0.382 67.496 0.924 -22.441 0.924 -22.441 0.382 67.496
16896.875 0.382 67.465 0.924 -22.471 0.924 -22.471 0.382 67.465
16921.833 0.383 67.434 0.923 -22.502 0.923 -22.502 0.383 67.434
16946.792 0.383 67.404 0.923 -22.533 0.923 -22.533 0.383 67.404
16971.75 0.384 67.373 0.923 -22.563 0.923 -22.563 0.384 67.373
16996.708 0.384 67.343 0.923 -22.594 0.923 -22.594 0.384 67.343
17021.667 0.385 67.312 0.923 -22.625 0.923 -22.625 0.385 67.312
17046.625 0.385 67.282 0.922 -22.655 0.922 -22.655 0.385 67.282
17071.583 0.386 67.251 0.922 -22.686 0.922 -22.686 0.386 67.251
17096.542 0.386 67.221 0.922 -22.716 0.922 -22.716 0.386 67.221
17121.5 0.387 67.19 0.922 -22.747 0.922 -22.747 0.387 67.19
17146.458 0.387 67.16 0.922 -22.777 0.922 -22.777 0.387 67.16
17171.417 0.388 67.129 0.921 -22.808 0.921 -22.808 0.388 67.129
17196.375 0.388 67.099 0.921 -22.838 0.921 -22.838 0.388 67.099
17221.333 0.389 67.069 0.921 -22.869 0.921 -22.869 0.389 67.069
17246.292 0.389 67.038 0.921 -22.899 0.921 -22.899 0.389 67.038
17271.25 0.39 67.008 0.921 -22.93 0.921 -22.93 0.39 67.008
17296.208 0.39 66.977 0.92 -22.96 0.92 -22.96 0.39 66.977
17321.167 0.391 66.947 0.92 -22.991 0.92 -22.991 0.391 66.947
17346.125 0.391 66.917 0.92 -23.021 0.92 -23.021 0.391 66.917
17371.083 0.392 66.886 0.92 -23.052 0.92 -23.052 0.392 66.886
17396.042 0.392 66.856 0.92 -23.082 0.92 -23.082 0.392 66.856
17421 0.393 66.826 0.919 -23.112 0.919 -23.112 0.393 66.826
17445.958 0.393 66.795 0.919 -23.143 0.919 -23.143 0.393 66.795
17470.917 0.394 66.765 0.919 -23.173 0.919 -23.173 0.394 66.765
17495.875 0.394 66.735 0.919 -23.204 0.919 -23.204 0.394 66.735
17520.833 0.394 66.705 0.918 -23.234 0.918 -23.234 0.394 66.705
17545.792 0.395 66.674 0.918 -23.264 0.918 -23.264 0.395 66.674
17570.75 0.395 66.644 0.918 -23.295 0.918 -23.295 0.395 66.644
17595.708 0.396 66.614 0.918 -23.325 0.918 -23.325 0.396 66.614
17620.667 0.396 66.584 0.918 -23.355 0.918 -23.355 0.396 66.584
17645.625 0.397 66.554 0.917 -23.385 0.917 -23.385 0.397 66.554
17670.583 0.397 66.524 0.917 -23.416 0.917 -23.416 0.397 66.524
17695.542 0.398 66.493 0.917 -23.446 0.917 -23.446 0.398 66.493
17720.5 0.398 66.463 0.917 -23.476 0.917 -23.476 0.398 66.463
17745.458 0.399 66.433 0.917 -23.506 0.917 -23.506 0.399 66.433
17770.417 0.399 66.403 0.916 -23.536 0.916 -23.536 0.399 66.403
17795.375 0.4 66.373 0.916 -23.567 0.916 -23.567 0.4 66.373
17820.333 0.4 66.343 0.916 -23.597 0.916 -23.597 0.4 66.343
17845.292 0.401 66.313 0.916 -23.627 0.916 -23.627 0.401 66.313
17870.25 0.401 66.283 0.916 -23.657 0.916 -23.657 0.401 66.283
17895.208 0.402 66.253 0.915 -23.687 0.915 -23.687 0.402 66.253
17920.167 0.402 66.223 0.915 -23.717 0.915 -23.717 0.402 66.223
17945.125 0.403 66.193 0.915 -23.747 0.915 -23.747 0.403 66.193
17970.083 0.403 66.163 0.915 -23.777 0.915 -23.777 0.403 66.163
17995.042 0.404 66.133 0.914 -23.807 0.914 -23.807 0.404 66.133
18020 0.404 66.103 0.914 -23.837 0.914 -23.837 0.404 66.103
18044.958 0.405 66.073 0.914 -23.867 0.914 -23.867 0.405 66.073
18069.917 0.405 66.043 0.914 -23.897 0.914 -23.897 0.405 66.043
18094.875 0.406 66.013 0.914 -23.927 0.914 -23.927 0.406 66.013
18119.833 0.406 65.983 0.913 -23.957 0.913 -23.957 0.406 65.983
18144.792 0.407 65.953 0.913 -23.987 0.913 -23.987 0.407 65.953
18169.75 0.407 65.924 0.913 -24.017 0.913 -24.017 0.407 65.924
18194.708 0.407 65.894 0.913 -24.047 0.913 -24.047 0.407 65.894
18219.667 0.408 65.864 0.913 -24.077 0.913 -24.077 0.408 65.864
18244.625 0.408 65.834 0.912 -24.107 0.912 -24.107 0.408 65.834
18269.583 0.409 65.804 0.912 -24.137 0.912 -24.137 0.409 65.804
18294.542 0.409 65.774 0.912 -24.167 0.912 -24.167 0.409 65.774
18319.5 0.41 65.745 0.912 -24.197 0.912 -24.197 0.41 65.745
18344.458 0.41 65.715 0.912 -24.226 0.912 -24.226 0.41 65.715
18369.417 0.411 65.685 0.911 -24.256 0.911 -24.256 0.411 65.685
18394.375 0.411 65.655 0.911 -24.286 0.911 -24.286 0.411 65.655
18419.333 0.412 65.626 0.911 -24.316 0.911 -24.316 0.412 65.626
18444.292 0.412 65.596 0.911 -24.346 0.911 -24.346 0.412 65.596
18469.25 0.413 65.566 0.91 -24.375 0.91 -24.375 0.413 65.566
18494.208 0.413 65.537 0.91 -24.405 0.91 -24.405 0.413 65.537
18519.167 0.414 65.507 0.91 -24.435 0.91 -24.435 0.414 65.507
18544.125 0.414 65.477 0.91 -24.465 0.91 -24.465 0.414 65.477
18569.083 0.415 65.448 0.91 -24.494 0.91 -24.494 0.415 65.448
18594.042 0.415 65.418 0.909 -24.524 0.909 -24.524 0.415 65.418
18619 0.416 65.389 0.909 -24.554 0.909 -24.554 0.416 65.389
18643.958 0.416 65.359 0.909 -24.583 0.909 -24.583 0.416 65.359
18668.917 0.416 65.329 0.909 -24.613 0.909 -24.613 0.416 65.329
18693.875 0.417 65.3 0.909 -24.643 0.909 -24.643 0.417 65.3
18718.833 0.417 65.27 0.908 -24.672 0.908 -24.672 0.417 65.27
18743.792 0.418 65.241 0.908 -24.702 0.908 -24.702 0.418 65.241
18768.75 0.418 65.211 0.908 -24.731 0.908 -24.731 0.418 65.211
18793.708 0.419 65.182 0.908 -24.761 0.908 -24.761 0.419 65.182
18818.667 0.419 65.152 0.907 -24.791 0.907 -24.791 0.419 65.152
18843.625 0.42 65.123 0.907 -24.82 0.907 -24.82 0.42 65.123
18868.583 0.42 65.093 0.907 -24.85 0.907 -24.85 0.42 65.093
18893.542 0.421 65.064 0.907 -24.879 0.907 -24.879 0.421 65.064
18918.5 0.421 65.035 0.907 -24.909 0.907 -24.909 0.421 65.035
18943.458 0.422 65.005 0.906 -24.938 0.906 -24.938 0.422 65.005
18968.417 0.422 64.976 0.906 -24.968 0.906 -24.968 0.422 64.976
18993.375 0.423 64.946 0.906 -24.997 0.906 -24.997 0.423 64.946
19018.333 0.423 64.917 0.906 -25.026 0.906 -25.026 0.423 64.917
19043.292 0.424 64.888 0.905 -25.056 0.905 -25.056 0.424 64.888
19068.25 0.424 64.858 0.905 -25.085 0.905 -25.085 0.424 64.858
19093.208 0.424 64.829 0.905 -25.115 0.905 -25.115 0.424 64.829
19118.167 0.425 64.8 0.905 -25.144 0.905 -25.144 0.425 64.8
19143.125 0.425 64.77 0.905 -25.173 0.905 -25.173 0.425 64.77
19168.083 0.426 64.741 0.904 -25.203 0.904 -25.203 0.426 64.741
19193.042 0.426 64.712 0.904 -25.232 0.904 -25.232 0.426 64.712
19218 0.427 64.683 0.904 -25.261 0.904 -25.261 0.427 64.683
19242.958 0.427 64.653 0.904 -25.291 0.904 -25.291 0.427 64.653
19267.917 0.428 64.624 0.904 -25.32 0.904 -25.32 0.428 64.624
19292.875 0.428 64.595 0.903 -25.349 0.903 -25.349 0.428 64.595
19317.833 0.429 64.566 0.903 -25.379 0.903 -25.379 0.429 64.566
19342.792 0.429 64.537 0.903 -25.408 0.903 -25.408 0.429 64.537
19367.75 0.43 64.508 0.903 -25.437 0.903 -25.437 0.43 64.508
19392.708 0.43 64.478 0.902 -25.466 0.902 -25.466 0.43 64.478
19417.667 0.43 64.449 0.902 -25.495 0.902 -25.495 0.43 64.449
19442.625 0.431 64.42 0.902 -25.525 0.902 -25.525 0.431 64.42
19467.583 0.431 64.391 0.902 -25.554 0.902 -25.554 0.431 64.391
19492.542 0.432 64.362 0.902 -25.583 0.902 -25.583 0.432 64.362
19517.5 0.432 64.333 0.901 -25.612 0.901 -25.612 0.432 64.333
19542.458 0.433 64.304 0.901 -25.641 0.901 -25.641 0.433 64.304
19567.417 0.433 64.275 0.901 -25.67 0.901 -25.67 0.433 64.275
19592.375 0.434 64.246 0.901 -25.699 0.901 -25.699 0.434 64.246
19617.333 0.434 64.217 0.9 -25.728 0.9 -25.728 0.434 64.217
19642.292 0.435 64.188 0.9 -25.758 0.9 -25.758 0.435 64.188
19667.25 0.435 64.159 0.9 -25.787 0.9 -25.787 0.435 64.159
19692.208 0.435 64.13 0.9 -25.816 0.9 -25.816 0.435 64.13
19717.167 0.436 64.101 0.9 -25.845 0.9 -25.845 0.436 64.101
19742.125 0.436 64.072 0.899 -25.874 0.899 -25.874 0.436 64.072
19767.083 0.437 64.043 0.899 -25.903 0.899 -25.903 0.437 64.043
19792.042 0.437 64.014 0.899 -25.932 0.899 -25.932 0.437 64.014
19817 0.438 63.985 0.899 -25.961 0.899 -25.961 0.438 63.985
19841.958 0.438 63.956 0.898 -25.99 0.898 -25.99 0.438 63.956
19866.917 0.439 63.928 0.898 -26.018 0.898 -26.018 0.439 63.928
19891.875 0.439 63.899 0.898 -26.047 0.898 -26.047 0.439 63.899
19916.833 0.44 63.87 0.898 -26.076 0.898 -26.076 0.44 63.87
19941.792 0.44 63.841 0.898 -26.105 0.898 -26.105 0.44 63.841
19966.75 0.44 63.812 0.897 -26.134 0.897 -26.134 0.44 63.812
19991.708 0.441 63.783 0.897 -26.163 0.897 -26.163 0.441 63.783
20016.667 0.441 63.755 0.897 -26.192 0.897 -26.192 0.441 63.755
20041.625 0.442 63.726 0.897 -26.221 0.897 -26.221 0.442 63.726
20066.583 0.442 63.697 0.896 -26.249 0.896 -26.249 0.442 63.697
20091.542 0.443 63.668 0.896 -26.278 0.896 -26.278 0.443 63.668
20116.5 0.443 63.64 0.896 -26.307 0.896 -26.307 0.443 63.64
20141.458 0.444 63.611 0.896 -26.336 0.896 -26.336 0.444 63.611
20166.417 0.444 63.582 0.896 -26.364 0.896 -26.364 0.444 63.582
20191.375 0.445 63.554 0.895 -26.393 0.895 -26.393 0.445 63.554
20216.333 0.445 63.525 0.895 -26.422 0.895 -26.422 0.445 63.525
20241.292 0.445 63.496 0.895 -26.451 0.895 -26.451 0.445 63.496
20266.25 0.446 63.468 0.895 -26.479 0.895 -26.479 0.446 63.468
20291.208 0.446 63.439 0.894 -26.508 0.894 -26.508 0.446 63.439
20316.167 0.447 63.411 0.894 -26.537 0.894 -26.537 0.447 63.411
20341.125 0.447 63.382 0.894 -26.565 0.894 -26.565 0.447 63.382
20366.083 0.448 63.353 0.894 -26.594 0.894 -26.594 0.448 63.353
20391.042 0.448 63.325 0.894 -26.623 0.894 -26.623 0.448 63.325
20416 0.449 63.296 0.893 -26.651 0.893 -26.651 0.449 63.296
20440.958 0.449 63.268 0.893 -26.68 0.893 -26.68 0.449 63.268
20465.917 0.449 63.239 0.893 -26.708 0.893 -26.708 0.449 63.239
20490.875 0.45 63.211 0.893 -26.737 0.893 -26.737 0.45 63.211
20515.833 0.45 63.182 0.892 -26.765 0.892 -26.765 0.45 63.182
20540.792 0.451 63.154 0.892 -26.794 0.892 -26.794 0.451 63.154
20565.75 0.451 63.125 0.892 -26.822 0.892 -26.822 0.451 63.125
20590.708 0.452 63.097 0.892 -26.851 0.892 -26.851 0.452 63.097
20615.667 0.452 63.069 0.892 -26.879 0.892 -26.879 0.452 63.069
20640.625 0.453 63.04 0.891 -26.908 0.891 -26.908 0.453 63.04
20665.583 0.453 63.012 0.891 -26.936 0.891 -26.936 0.453 63.012
20690.542 0.453 62.983 0.891 -26.965 0.891 -26.965 0.453 62.983
20715.5 0.454 62.955 0.891 -26.993 0.891 -26.993 0.454 62.955
20740.458 0.454 62.927 0.89 -27.022 0.89 -27.022 0.454 62.927
20765.417 0.455 62.898 0.89 -27.05 0.89 -27.05 0.455 62.898
20790.375 0.455 62.87 0.89 -27.078 0.89 -27.078 0.455 62.87
20815.333 0.456 62.842 0.89 -27.107 0.89 -27.107 0.456 62.842
20840.292 0.456 62.813 0.89 -27.135 0.89 -27.135 0.456 62.813
20865.25 0.457 62.785 0.889 -27.163 0.889 -27.163 0.457 62.785
20890.208 0.457 62.757 0.889 -27.192 0.889 -27.192 0.457 62.757
20915.167 0.457 62.729 0.889 -27.22 0.889 -27.22 0.457 62.729
20940.125 0.458 62.7 0.889 -27.248 0.889 -27.248 0.458 62.7
20965.083 0.458 62.672 0.888 -27.277 0.888 -27.277 0.458 62.672
20990.042 0.459 62.644 0.888 -27.305 0.888 -27.305 0.459 62.644
21015 0.459 62.616 0.888 -27.333 0.888 -27.333 0.459 62.616
21039.958 0.46 62.588 0.888 -27.361 0.888 -27.361 0.46 62.588
21064.917 0.46 62.56 0.887 -27.39 0.887 -27.39 0.46 62.56
21089.875 0.46 62.531 0.887 -27.418 0.887 -27.418 0.46 62.531
21114.833 0.461 62.503 0.887 -27.446 0.887 -27.446 0.461 62.503
21139.792 0.461 62.475 0.887 -27.474 0.887 -27.474 0.461 62.475
21164.75 0.462 62.447 0.887 -27.502 0.887 -27.502 0.462 62.447
21189.708 0.462 62.419 0.886 -27.53 0.886 -27.53 0.462 62.419
21214.667 0.463 62.391 0.886 -27.558 0.886 -27.558 0.463 62.391
21239.625 0.463 62.363 0.886 -27.587 0.886 -27.587 0.463 62.363
21264.583 0.464 62.335 0.886 -27.615 0.886 -27.615 0.464 62.335
21289.542 0.464 62.307 0.885 -27.643 0.885 -27.643 0.464 62.307
21314.5 0.464 62.279 0.885 -27.671 0.885 -27.671 0.464 62.279
21339.458 0.465 62.251 0.885 -27.699 0.885 -27.699 0.465 62.251
21364.417 0.465 62.223 0.885 -27.727 0.885 -27.727 0.465 62.223
21389.375 0.466 62.195 0.885 -27.755 0.885 -27.755 0.466 62.195
21414.333 0.466 62.167 0.884 -27.783 0.884 -27.783 0.466 62.167
21439.292 0.467 62.139 0.884 -27.811 0.884 -27.811 0.467 62.139
21464.25 0.467 62.111 0.884 -27.839 0.884 -27.839 0.467 62.111
21489.208 0.467 62.083 0.884 -27.867 0.884 -27.867 0.467 62.083
21514.167 0.468 62.055 0.883 -27.895 0.883 -27.895 0.468 62.055
21539.125 0.468 62.028 0.883 -27.923 0.883 -27.923 0.468 62.028
21564.083 0.469 62 0.883 -27.951 0.883 -27.951 0.469 62
21589.042 0.469 61.972 0.883 -27.979 0.883 -27.979 0.469 61.972
21614 0.47 61.944 0.882 -28.006 0.882 -28.006 0.47 61.944
21638.958 0.47 61.916 0.882 -28.034 0.882 -28.034 0.47 61.916
21663.917 0.47 61.888 0.882 -28.062 0.882 -28.062 0.47 61.888
21688.875 0.471 61.861 0.882 -28.09 0.882 -28.09 0.471 61.861
21713.833 0.471 61.833 0.882 -28.118 0.882 -28.118 0.471 61.833
21738.792 0.472 61.805 0.881 -28.146 0.881 -28.146 0.472 61.805
21763.75 0.472 61.777 0.881 -28.173 0.881 -28.173 0.472 61.777
21788.708 0.473 61.75 0.881 -28.201 0.881 -28.201 0.473 61.75
21813.667 0.473 61.722 0.881 -28.229 0.881 -28.229 0.473 61.722
21838.625 0.473 61.694 0.88 -28.257 0.88 -28.257 0.473 61.694
21863.583 0.474 61.667 0.88 -28.284 0.88 -28.284 0.474 61.667
21888.542 0.474 61.639 0.88 -28.312 0.88 -28.312 0.474 61.639
21913.5 0.475 61.611 0.88 -28.34 0.88 -28.34 0.475 61.611
21938.458 0.475 61.584 0.88 -28.368 0.88 -28.368 0.475 61.584
21963.417 0.476 61.556 0.879 -28.395 0.879 -28.395 0.476 61.556
21988.375 0.476 61.528 0.879 -28.423 0.879 -28.423 0.476 61.528
22013.333 0.476 61.501 0.879 -28.45 0.879 -28.45 0.476 61.501
22038.292 0.477 61.473 0.879 -28.478 0.879 -28.478 0.477 61.473
22063.25 0.477 61.446 0.878 -28.506 0.878 -28.506 0.477 61.446
22088.208 0.478 61.418 0.878 -28.533 0.878 -28.533 0.478 61.418
22113.167 0.478 61.391 0.878 -28.561 0.878 -28.561 0.478 61.391
22138.125 0.479 61.363 0.878 -28.588 0.878 -28.588 0.479 61.363
22163.083 0.479 61.336 0.877 -28.616 0.877 -28.616 0.479 61.336
22188.042 0.479 61.308 0.877 -28.644 0.877 -28.644 0.479 61.308
22213 0.48 61.281 0.877 -28.671 0.877 -28.671 0.48 61.281
22237.958 0.48 61.253 0.877 -28.699 0.877 -28.699 0.48 61.253
22262.917 0.481 61.226 0.877 -28.726 0.877 -28.726 0.481 61.226
22287.875 0.481 61.198 0.876 -28.754 0.876 -28.754 0.481 61.198
22312.833 0.481 61.171 0.876 -28.781 0.876 -28.781 0.481 61.171
22337.792 0.482 61.144 0.876 -28.809 0.876 -28.809 0.482 61.144
22362.75 0.482 61.116 0.876 -28.836 0.876 -28.836 0.482 61.116
22387.708 0.483 61.089 0.875 -28.863 0.875 -28.863 0.483 61.089
22412.667 0.483 61.061 0.875 -28.891 0.875 -28.891 0.483 61.061
22437.625 0.484 61.034 0.875 -28.918 0.875 -28.918 0.484 61.034
22462.583 0.484 61.007 0.875 -28.946 0.875 -28.946 0.484 61.007
22487.542 0.484 60.979 0.874 -28.973 0.874 -28.973 0.484 60.979
22512.5 0.485 60.952 0.874 -29 0.874 -29 0.485 60.952
22537.458 0.485 60.925 0.874 -29.028 0.874 -29.028 0.485 60.925
22562.417 0.486 60.898 0.874 -29.055 0.874 -29.055 0.486 60.898
22587.375 0.486 60.87 0.874 -29.082 0.874 -29.082 0.486 60.87
22612.333 0.486 60.843 0.873 -29.109 0.873 -29.109 0.486 60.843
22637.292 0.487 60.816 0.873 -29.137 0.873 -29.137 0.487 60.816
22662.25 0.487 60.789 0.873 -29.164 0.873 -29.164 0.487 60.789
22687.208 0.488 60.762 0.873 -29.191 0.873 -29.191 0.488 60.762
22712.167 0.488 60.734 0.872 -29.218 0.872 -29.218 0.488 60.734
22737.125 0.489 60.707 0.872 -29.246 0.872 -29.246 0.489 60.707
22762.083 0.489 60.68 0.872 -29.273 0.872 -29.273 0.489 60.68
22787.042 0.489 60.653 0.872 -29.3 0.872 -29.3 0.489 60.653
22812 0.49 60.626 0.871 -29.327 0.871 -29.327 0.49 60.626
22836.958 0.49 60.599 0.871 -29.354 0.871 -29.354 0.49 60.599
22861.917 0.491 60.572 0.871 -29.382 0.871 -29.382 0.491 60.572
22886.875 0.491 60.545 0.871 -29.409 0.871 -29.409 0.491 60.545
22911.833 0.491 60.518 0.871 -29.436 0.871 -29.436 0.491 60.518
22936.792 0.492 60.49 0.87 -29.463 0.87 -29.463 0.492 60.49
22961.75 0.492 60.463 0.87 -29.49 0.87 -29.49 0.492 60.463
22986.708 0.493 60.436 0.87 -29.517 0.87 -29.517 0.493 60.436
23011.667 0.493 60.409 0.87 -29.544 0.87 -29.544 0.493 60.409
23036.625 0.494 60.382 0.869 -29.571 0.869 -29.571 0.494 60.382
23061.583 0.494 60.355 0.869 -29.598 0.869 -29.598 0.494 60.355
23086.542 0.494 60.329 0.869 -29.625 0.869 -29.625 0.494 60.329
23111.5 0.495 60.302 0.869 -29.652 0.869 -29.652 0.495 60.302
23136.458 0.495 60.275 0.868 -29.679 0.868 -29.679 0.495 60.275
23161.417 0.496 60.248 0.868 -29.706 0.868 -29.706 0.496 60.248
23186.375 0.496 60.221 0.868 -29.733 0.868 -29.733 0.496 60.221
23211.333 0.496 60.194 0.868 -29.76 0.868 -29.76 0.496 60.194
23236.292 0.497 60.167 0.867 -29.787 0.867 -29.787 0.497 60.167
23261.25 0.497 60.14 0.867 -29.814 0.867 -29.814 0.497 60.14
23286.208 0.498 60.113 0.867 -29.841 0.867 -29.841 0.498 60.113
23311.167 0.498 60.087 0.867 -29.867 0.867 -29.867 0.498 60.087
23336.125 0.498 60.06 0.867 -29.894 0.867 -29.894 0.498 60.06
23361.083 0.499 60.033 0.866 -29.921 0.866 -29.921 0.499 60.033
23386.042 0.499 60.006 0.866 -29.948 0.866 -29.948 0.499 60.006
23411 0.5 59.98 0.866 -29.975 0.866 -29.975 0.5 59.98
23435.958 0.5 59.953 0.866 -30.002 0.866 -30.002 0.5 59.953
23460.917 0.5 59.926 0.865 -30.028 0.865 -30.028 0.5 59.926
23485.875 0.501 59.899 0.865 -30.055 0.865 -30.055 0.501 59.899
23510.833 0.501 59.873 0.865 -30.082 0.865 -30.082 0.501 59.873
23535.792 0.502 59.846 0.865 -30.109 0.865 -30.109 0.502 59.846
23560.75 0.502 59.819 0.864 -30.135 0.864 -30.135 0.502 59.819
23585.708 0.502 59.793 0.864 -30.162 0.864 -30.162 0.502 59.793
23610.667 0.503 59.766 0.864 -30.189 0.864 -30.189 0.503 59.766
23635.625 0.503 59.739 0.864 -30.215 0.864 -30.215 0.503 59.739
23660.583 0.504 59.713 0.864 -30.242 0.864 -30.242 0.504 59.713
23685.542 0.504 59.686 0.863 -30.269 0.863 -30.269 0.504 59.686
23710.5 0.504 59.66 0.863 -30.295 0.863 -30.295 0.504 59.66
23735.458 0.505 59.633 0.863 -30.322 0.863 -30.322 0.505 59.633
23760.417 0.505 59.606 0.863 -30.349 0.863 -30.349 0.505 59.606
23785.375 0.506 59.58 0.862 -30.375 0.862 -30.375 0.506 59.58
23810.333 0.506 59.553 0.862 -30.402 0.862 -30.402 0.506 59.553
23835.292 0.506 59.527 0.862 -30.428 0.862 -30.428 0.506 59.527
23860.25 0.507 59.5 0.862 -30.455 0.862 -30.455 0.507 59.5
23885.208 0.507 59.474 0.861 -30.481 0.861 -30.481 0.507 59.474
23910.167 0.508 59.447 0.861 -30.508 0.861 -30.508 0.508 59.447
23935.125 0.508 59.421 0.861 -30.534 0.861 -30.534 0.508 59.421
23960.083 0.508 59.394 0.861 -30.561 0.861 -30.561 0.508 59.394
23985.042 0.509 59.368 0.86 -30.587 0.86 -30.587 0.509 59.368
24010 0.509 59.342 0.86 -30.614 0.86 -30.614 0.509 59.342
24034.958 0.51 59.315 0.86 -30.64 0.86 -30.64 0.51 59.315
24059.917 0.51 59.289 0.86 -30.667 0.86 -30.667 0.51 59.289
24084.875 0.51 59.263 0.86 -30.693 0.86 -30.693 0.51 59.263
24109.833 0.511 59.236 0.859 -30.719 0.859 -30.719 0.511 59.236
24134.792 0.511 59.21 0.859 -30.746 0.859 -30.746 0.511 59.21
24159.75 0.512 59.184 0.859 -30.772 0.859 -30.772 0.512 59.184
24184.708 0.512 59.157 0.859 -30.799 0.859 -30.799 0.512 59.157
24209.667 0.512 59.131 0.858 -30.825 0.858 -30.825 0.512 59.131
24234.625 0.513 59.105 0.858 -30.851 0.858 -30.851 0.513 59.105
24259.583 0.513 59.078 0.858 -30.877 0.858 -30.877 0.513 59.078
24284.542 0.514 59.052 0.858 -30.904 0.858 -30.904 0.514 59.052
24309.5 0.514 59.026 0.857 -30.93 0.857 -30.93 0.514 59.026
24334.458 0.514 59 0.857 -30.956 0.857 -30.956 0.514 59
24359.417 0.515 58.974 0.857 -30.983 0.857 -30.983 0.515 58.974
24384.375 0.515 58.947 0.857 -31.009 0.857 -31.009 0.515 58.947
24409.333 0.516 58.921 0.856 -31.035 0.856 -31.035 0.516 58.921
24434.292 0.516 58.895 0.856 -31.061 0.856 -31.061 0.516 58.895
24459.25 0.516 58.869 0.856 -31.087 0.856 -31.087 0.516 58.869
24484.208 0.517 58.843 0.856 -31.114 0.856 -31.114 0.517 58.843
24509.167 0.517 58.817 0.856 -31.14 0.856 -31.14 0.517 58.817
24534.125 0.518 58.791 0.855 -31.166 0.855 -31.166 0.518 58.791
24559.083 0.518 58.764 0.855 -31.192 0.855 -31.192 0.518 58.764
24584.042 0.518 58.738 0.855 -31.218 0.855 -31.218 0.518 58.738
24609 0.519 58.712 0.855 -31.244 0.855 -31.244 0.519 58.712
24633.958 0.519 58.686 0.854 -31.27 0.854 -31.27 0.519 58.686
24658.917 0.519 58.66 0.854 -31.296 0.854 -31.296 0.519 58.66
24683.875 0.52 58.634 0.854 -31.322 0.854 -31.322 0.52 58.634
24708.833 0.52 58.608 0.854 -31.348 0.854 -31.348 0.52 58.608
24733.792 0.521 58.582 0.853 -31.374 0.853 -31.374 0.521 58.582
24758.75 0.521 58.556 0.853 -31.401 0.853 -31.401 0.521 58.556
24783.708 0.521 58.53 0.853 -31.426 0.853 -31.426 0.521 58.53
24808.667 0.522 58.504 0.853 -31.452 0.853 -31.452 0.522 58.504
24833.625 0.522 58.478 0.852 -31.478 0.852 -31.478 0.522 58.478
24858.583 0.523 58.453 0.852 -31.504 0.852 -31.504 0.523 58.453
24883.542 0.523 58.427 0.852 -31.53 0.852 -31.53 0.523 58.427
24908.5 0.523 58.401 0.852 -31.556 0.852 -31.556 0.523 58.401
24933.458 0.524 58.375 0.851 -31.582 0.851 -31.582 0.524 58.375
24958.417 0.524 58.349 0.851 -31.608 0.851 -31.608 0.524 58.349
24983.375 0.524 58.323 0.851 -31.634 0.851 -31.634 0.524 58.323
25008.333 0.525 58.297 0.851 -31.66 0.851 -31.66 0.525 58.297
25033.292 0.525 58.272 0.851 -31.686 0.851 -31.686 0.525 58.272
25058.25 0.526 58.246 0.85 -31.711 0.85 -31.711 0.526 58.246
25083.208 0.526 58.22 0.85 -31.737 0.85 -31.737 0.526 58.22
25108.167 0.526 58.194 0.85 -31.763 0.85 -31.763 0.526 58.194
25133.125 0.527 58.169 0.85 -31.789 0.85 -31.789 0.527 58.169
25158.083 0.527 58.143 0.849 -31.815 0.849 -31.815 0.527 58.143
25183.042 0.528 58.117 0.849 -31.84 0.849 -31.84 0.528 58.117
25208 0.528 58.091 0.849 -31.866 0.849 -31.866 0.528 58.091
25232.958 0.528 58.066 0.849 -31.892 0.849 -31.892 0.528 58.066
25257.917 0.529 58.04 0.848 -31.918 0.848 -31.918 0.529 58.04
25282.875 0.529 58.014 0.848 -31.943 0.848 -31.943 0.529 58.014
25307.833 0.529 57.989 0.848 -31.969 0.848 -31.969 0.529 57.989
25332.792 0.53 57.963 0.848 -31.995 0.848 -31.995 0.53 57.963
25357.75 0.53 57.937 0.847 -32.02 0.847 -32.02 0.53 57.937
25382.708 0.531 57.912 0.847 -32.046 0.847 -32.046 0.531 57.912
25407.667 0.531 57.886 0.847 -32.072 0.847 -32.072 0.531 57.886
25432.625 0.531 57.861 0.847 -32.097 0.847 -32.097 0.531 57.861
25457.583 0.532 57.835 0.847 -32.123 0.847 -32.123 0.532 57.835
25482.542 0.532 57.81 0.846 -32.148 0.846 -32.148 0.532 57.81
25507.5 0.532 57.784 0.846 -32.174 0.846 -32.174 0.532 57.784
25532.458 0.533 57.759 0.846 -32.2 0.846 -32.2 0.533 57.759
25557.417 0.533 57.733 0.846 -32.225 0.846 -32.225 0.533 57.733
25582.375 0.534 57.708 0.845 -32.251 0.845 -32.251 0.534 57.708
25607.333 0.534 57.682 0.845 -32.276 0.845 -32.276 0.534 57.682
25632.292 0.534 57.657 0.845 -32.302 0.845 -32.302 0.534 57.657
25657.25 0.535 57.631 0.845 -32.327 0.845 -32.327 0.535 57.631
25682.208 0.535 57.606 0.844 -32.353 0.844 -32.353 0.535 57.606
25707.167 0.536 57.58 0.844 -32.378 0.844 -32.378 0.536 57.58
25732.125 0.536 57.555 0.844 -32.403 0.844 -32.403 0.536 57.555
25757.083 0.536 57.53 0.844 -32.429 0.844 -32.429 0.536 57.53
25782.042 0.537 57.504 0.843 -32.454 0.843 -32.454 0.537 57.504
25807 0.537 57.479 0.843 -32.48 0.843 -32.48 0.537 57.479
25831.958 0.537 57.454 0.843 -32.505 0.843 -32.505 0.537 57.454
25856.917 0.538 57.428 0.843 -32.53 0.843 -32.53 0.538 57.428
25881.875 0.538 57.403 0.842 -32.556 0.842 -32.556 0.538 57.403
25906.833 0.538 57.378 0.842 -32.581 0.842 -32.581 0.538 57.378
25931.792 0.539 57.352 0.842 -32.606 0.842 -32.606 0.539 57.352
25956.75 0.539 57.327 0.842 -32.632 0.842 -32.632 0.539 57.327
25981.708 0.54 57.302 0.842 -32.657 0.842 -32.657 0.54 57.302
26006.667 0.54 57.277 0.841 -32.682 0.841 -32.682 0.54 57.277
26031.625 0.54 57.251 0.841 -32.708 0.841 -32.708 0.54 57.251
26056.583 0.541 57.226 0.841 -32.733 0.841 -32.733 0.541 57.226
26081.542 0.541 57.201 0.841 -32.758 0.841 -32.758 0.541 57.201
26106.5 0.541 57.176 0.84 -32.783 0.84 -32.783 0.541 57.176
26131.458 0.542 57.151 0.84 -32.809 0.84 -32.809 0.542 57.151
26156.417 0.542 57.125 0.84 -32.834 0.84 -32.834 0.542 57.125
26181.375 0.543 57.1 0.84 -32.859 0.84 -32.859 0.543 57.1
26206.333 0.543 57.075 0.839 -32.884 0.839 -32.884 0.543 57.075
26231.292 0.543 57.05 0.839 -32.909 0.839 -32.909 0.543 57.05
26256.25 0.544 57.025 0.839 -32.934 0.839 -32.934 0.544 57.025
26281.208 0.544 57 0.839 -32.959 0.839 -32.959 0.544 57
26306.167 0.544 56.975 0.838 -32.985 0.838 -32.985 0.544 56.975
26331.125 0.545 56.95 0.838 -33.01 0.838 -33.01 0.545 56.95
26356.083 0.545 56.925 0.838 -33.035 0.838 -33.035 0.545 56.925
26381.042 0.546 56.9 0.838 -33.06 0.838 -33.06 0.546 56.9
26406 0.546 56.875 0.837 -33.085 0.837 -33.085 0.546 56.875
26430.958 0.546 56.85 0.837 -33.11 0.837 -33.11 0.546 56.85
26455.917 0.547 56.825 0.837 -33.135 0.837 -33.135 0.547 56.825
26480.875 0.547 56.8 0.837 -33.16 0.837 -33.16 0.547 56.8
26505.833 0.547 56.775 0.837 -33.185 0.837 -33.185 0.547 56.775
26530.792 0.548 56.75 0.836 -33.21 0.836 -33.21 0.548 56.75
26555.75 0.548 56.725 0.836 -33.235 0.836 -33.235 0.548 56.725
26580.708 0.548 56.7 0.836 -33.26 0.836 -33.26 0.548 56.7
26605.667 0.549 56.675 0.836 -33.285 0.836 -33.285 0.549 56.675
26630.625 0.549 56.65 0.835 -33.31 0.835 -33.31 0.549 56.65
26655.583 0.55 56.625 0.835 -33.334 0.835 -33.334 0.55 56.625
26680.542 0.55 56.601 0.835 -33.359 0.835 -33.359 0.55 56.601
26705.5 0.55 56.576 0.835 -33.384 0.835 -33.384 0.55 56.576
26730.458 0.551 56.551 0.834 -33.409 0.834 -33.409 0.551 56.551
26755.417 0.551 56.526 0.834 -33.434 0.834 -33.434 0.551 56.526
26780.375 0.551 56.501 0.834 -33.459 0.834 -33.459 0.551 56.501
26805.333 0.552 56.477 0.834 -33.484 0.834 -33.484 0.552 56.477
26830.292 0.552 56.452 0.833 -33.508 0.833 -33.508 0.552 56.452
26855.25 0.552 56.427 0.833 -33.533 0.833 -33.533 0.552 56.427
26880.208 0.553 56.402 0.833 -33.558 0.833 -33.558 0.553 56.402
26905.167 0.553 56.378 0.833 -33.583 0.833 -33.583 0.553 56.378
26930.125 0.553 56.353 0.832 -33.607 0.832 -33.607 0.553 56.353
26955.083 0.554 56.328 0.832 -33.632 0.832 -33.632 0.554 56.328
26980.042 0.554 56.304 0.832 -33.657 0.832 -33.657 0.554 56.304
27005 0.555 56.279 0.832 -33.682 0.832 -33.682 0.555 56.279
27029.958 0.555 56.254 0.832 -33.706 0.832 -33.706 0.555 56.254
27054.917 0.555 56.23 0.831 -33.731 0.831 -33.731 0.555 56.23
27079.875 0.556 56.205 0.831 -33.756 0.831 -33.756 0.556 56.205
27104.833 0.556 56.18 0.831 -33.78 0.831 -33.78 0.556 56.18
27129.792 0.556 56.156 0.831 -33.805 0.831 -33.805 0.556 56.156
27154.75 0.557 56.131 0.83 -33.829 0.83 -33.829 0.557 56.131
27179.708 0.557 56.107 0.83 -33.854 0.83 -33.854 0.557 56.107
27204.667 0.557 56.082 0.83 -33.879 0.83 -33.879 0.557 56.082
27229.625 0.558 56.058 0.83 -33.903 0.83 -33.903 0.558 56.058
27254.583 0.558 56.033 0.829 -33.928 0.829 -33.928 0.558 56.033
27279.542 0.559 56.009 0.829 -33.952 0.829 -33.952 0.559 56.009
27304.5 0.559 55.984 0.829 -33.977 0.829 -33.977 0.559 55.984
27329.458 0.559 55.96 0.829 -34.001 0.829 -34.001 0.559 55.96
27354.417 0.56 55.935 0.828 -34.026 0.828 -34.026 0.56 55.935
27379.375 0.56 55.911 0.828 -34.05 0.828 -34.05 0.56 55.911
27404.333 0.56 55.886 0.828 -34.075 0.828 -34.075 0.56 55.886
27429.292 0.561 55.862 0.828 -34.099 0.828 -34.099 0.561 55.862
27454.25 0.561 55.837 0.827 -34.124 0.827 -34.124 0.561 55.837
27479.208 0.561 55.813 0.827 -34.148 0.827 -34.148 0.561 55.813
27504.167 0.562 55.789 0.827 -34.172 0.827 -34.172 0.562 55.789
27529.125 0.562 55.764 0.827 -34.197 0.827 -34.197 0.562 55.764
27554.083 0.562 55.74 0.826 -34.221 0.826 -34.221 0.562 55.74
27579.042 0.563 55.716 0.826 -34.246 0.826 -34.246 0.563 55.716
27604 0.563 55.691 0.826 -34.27 0.826 -34.27 0.563 55.691
27628.958 0.563 55.667 0.826 -34.294 0.826 -34.294 0.563 55.667
27653.917 0.564 55.643 0.826 -34.319 0.826 -34.319 0.564 55.643
27678.875 0.564 55.618 0.825 -34.343 0.825 -34.343 0.564 55.618
27703.833 0.564 55.594 0.825 -34.367 0.825 -34.367 0.564 55.594
27728.792 0.565 55.57 0.825 -34.392 0.825 -34.392 0.565 55.57
27753.75 0.565 55.546 0.825 -34.416 0.825 -34.416 0.565 55.546
27778.708 0.566 55.521 0.824 -34.44 0.824 -34.44 0.566 55.521
27803.667 0.566 55.497 0.824 -34.464 0.824 -34.464 0.566 55.497
27828.625 0.566 55.473 0.824 -34.489 0.824 -34.489 0.566 55.473
27853.583 0.567 55.449 0.824 -34.513 0.824 -34.513 0.567 55.449
27878.542 0.567 55.425 0.823 -34.537 0.823 -34.537 0.567 55.425
27903.5 0.567 55.401 0.823 -34.561 0.823 -34.561 0.567 55.401
27928.458 0.568 55.376 0.823 -34.585 0.823 -34.585 0.568 55.376
27953.417 0.568 55.352 0.823 -34.609 0.823 -34.609 0.568 55.352
27978.375 0.568 55.328 0.822 -34.634 0.822 -34.634 0.568 55.328
28003.333 0.569 55.304 0.822 -34.658 0.822 -34.658 0.569 55.304
28028.292 0.569 55.28 0.822 -34.682 0.822 -34.682 0.569 55.28
28053.25 0.569 55.256 0.822 -34.706 0.822 -34.706 0.569 55.256
28078.208 0.57 55.232 0.821 -34.73 0.821 -34.73 0.57 55.232
28103.167 0.57 55.208 0.821 -34.754 0.821 -34.754 0.57 55.208
28128.125 0.57 55.184 0.821 -34.778 0.821 -34.778 0.57 55.184
28153.083 0.571 55.16 0.821 -34.802 0.821 -34.802 0.571 55.16
28178.042 0.571 55.136 0.821 -34.826 0.821 -34.826 0.571 55.136
28203 0.571 55.112 0.82 -34.85 0.82 -34.85 0.571 55.112
28227.958 0.572 55.088 0.82 -34.874 0.82 -34.874 0.572 55.088
28252.917 0.572 55.064 0.82 -34.898 0.82 -34.898 0.572 55.064
28277.875 0.572 55.04 0.82 -34.922 0.82 -34.922 0.572 55.04
28302.833 0.573 55.016 0.819 -34.946 0.819 -34.946 0.573 55.016
28327.792 0.573 54.992 0.819 -34.97 0.819 -34.97 0.573 54.992
28352.75 0.573 54.968 0.819 -34.994 0.819 -34.994 0.573 54.968
28377.708 0.574 54.944 0.819 -35.018 0.819 -35.018 0.574 54.944
28402.667 0.574 54.921 0.818 -35.042 0.818 -35.042 0.574 54.921
28427.625 0.575 54.897 0.818 -35.066 0.818 -35.066 0.575 54.897
28452.583 0.575 54.873 0.818 -35.09 0.818 -35.09 0.575 54.873
28477.542 0.575 54.849 0.818 -35.113 0.818 -35.113 0.575 54.849
28502.5 0.576 54.825 0.817 -35.137 0.817 -35.137 0.576 54.825
28527.458 0.576 54.801 0.817 -35.161 0.817 -35.161 0.576 54.801
28552.417 0.576 54.778 0.817 -35.185 0.817 -35.185 0.576 54.778
28577.375 0.577 54.754 0.817 -35.209 0.817 -35.209 0.577 54.754
28602.333 0.577 54.73 0.816 -35.232 0.816 -35.232 0.577 54.73
28627.292 0.577 54.706 0.816 -35.256 0.816 -35.256 0.577 54.706
28652.25 0.578 54.683 0.816 -35.28 0.816 -35.28 0.578 54.683
28677.208 0.578 54.659 0.816 -35.304 0.816 -35.304 0.578 54.659
28702.167 0.578 54.635 0.815 -35.327 0.815 -35.327 0.578 54.635
28727.125 0.579 54.612 0.815 -35.351 0.815 -35.351 0.579 54.612
28752.083 0.579 54.588 0.815 -35.375 0.815 -35.375 0.579 54.588
28777.042 0.579 54.564 0.815 -35.399 0.815 -35.399 0.579 54.564
28802 0.58 54.541 0.815 -35.422 0.815 -35.422 0.58 54.541
28826.958 0.58 54.517 0.814 -35.446 0.814 -35.446 0.58 54.517
28851.917 0.58 54.493 0.814 -35.47 0.814 -35.47 0.58 54.493
28876.875 0.581 54.47 0.814 -35.493 0.814 -35.493 0.581 54.47
28901.833 0.581 54.446 0.814 -35.517 0.814 -35.517 0.581 54.446
28926.792 0.581 54.423 0.813 -35.54 0.813 -35.54 0.581 54.423
28951.75 0.582 54.399 0.813 -35.564 0.813 -35.564 0.582 54.399
28976.708 0.582 54.376 0.813 -35.588 0.813 -35.588 0.582 54.376
29001.667 0.582 54.352 0.813 -35.611 0.813 -35.611 0.582 54.352
29026.625 0.583 54.329 0.812 -35.635 0.812 -35.635 0.583 54.329
29051.583 0.583 54.305 0.812 -35.658 0.812 -35.658 0.583 54.305
29076.542 0.583 54.282 0.812 -35.682 0.812 -35.682 0.583 54.282
29101.5 0.584 54.258 0.812 -35.705 0.812 -35.705 0.584 54.258
29126.458 0.584 54.235 0.811 -35.729 0.811 -35.729 0.584 54.235
29151.417 0.584 54.211 0.811 -35.752 0.811 -35.752 0.584 54.211
29176.375 0.585 54.188 0.811 -35.776 0.811 -35.776 0.585 54.188
29201.333 0.585 54.164 0.811 -35.799 0.811 -35.799 0.585 54.164
29226.292 0.585 54.141 0.81 -35.822 0.81 -35.822 0.585 54.141
29251.25 0.586 54.118 0.81 -35.846 0.81 -35.846 0.586 54.118
29276.208 0.586 54.094 0.81 -35.869 0.81 -35.869 0.586 54.094
29301.167 0.586 54.071 0.81 -35.893 0.81 -35.893 0.586 54.071
29326.125 0.587 54.048 0.81 -35.916 0.81 -35.916 0.587 54.048
29351.083 0.587 54.024 0.809 -35.939 0.809 -35.939 0.587 54.024
29376.042 0.587 54.001 0.809 -35.963 0.809 -35.963 0.587 54.001
29401 0.588 53.978 0.809 -35.986 0.809 -35.986 0.588 53.978
29425.958 0.588 53.954 0.809 -36.009 0.809 -36.009 0.588 53.954
29450.917 0.588 53.931 0.808 -36.033 0.808 -36.033 0.588 53.931
29475.875 0.589 53.908 0.808 -36.056 0.808 -36.056 0.589 53.908
29500.833 0.589 53.884 0.808 -36.079 0.808 -36.079 0.589 53.884
29525.792 0.589 53.861 0.808 -36.103 0.808 -36.103 0.589 53.861
29550.75 0.59 53.838 0.807 -36.126 0.807 -36.126 0.59 53.838
29575.708 0.59 53.815 0.807 -36.149 0.807 -36.149 0.59 53.815
29600.667 0.59 53.792 0.807 -36.172 0.807 -36.172 0.59 53.792
29625.625 0.591 53.768 0.807 -36.195 0.807 -36.195 0.591 53.768
29650.583 0.591 53.745 0.806 -36.219 0.806 -36.219 0.591 53.745
29675.542 0.591 53.722 0.806 -36.242 0.806 -36.242 0.591 53.722
29700.5 0.592 53.699 0.806 -36.265 0.806 -36.265 0.592 53.699
29725.458 0.592 53.676 0.806 -36.288 0.806 -36.288 0.592 53.676
29750.417 0.592 53.653 0.805 -36.311 0.805 -36.311 0.592 53.653
29775.375 0.592 53.63 0.805 -36.334 0.805 -36.334 0.592 53.63
29800.333 0.593 53.607 0.805 -36.358 0.805 -36.358 0.593 53.607
29825.292 0.593 53.584 0.805 -36.381 0.805 -36.381 0.593 53.584
29850.25 0.593 53.56 0.804 -36.404 0.804 -36.404 0.593 53.56
29875.208 0.594 53.537 0.804 -36.427 0.804 -36.427 0.594 53.537
29900.167 0.594 53.514 0.804 -36.45 0.804 -36.45 0.594 53.514
29925.125 0.594 53.491 0.804 -36.473 0.804 -36.473 0.594 53.491
29950.083 0.595 53.468 0.804 -36.496 0.804 -36.496 0.595 53.468
29975.042 0.595 53.445 0.803 -36.519 0.803 -36.519 0.595 53.445
30000 0.595 53.422 0.803 -36.542 0.803 -36.542 0.595 53.422
