!	AVX Thin Film Operation 	Date: April 2014		
!	Description: Accu-P® Series, Thin Film  SMD RF Capacitor
!	Part Number: 04023K390FBSTR					
!
# MHZ S MA R 50

50 0.632 -50.818 0.775 39.175 0.775 39.175 0.632 -50.818
74.958 0.477 -61.509 0.879 28.48 0.879 28.48 0.477 -61.509
99.917 0.376 -67.893 0.926 22.092 0.926 22.092 0.376 -67.893
124.875 0.308 -72.048 0.951 17.935 0.951 17.935 0.308 -72.048
149.833 0.259 -74.943 0.966 15.035 0.966 15.035 0.259 -74.943
174.792 0.223 -77.071 0.975 12.904 0.975 12.904 0.223 -77.071
199.75 0.195 -78.699 0.981 11.272 0.981 11.272 0.195 -78.699
224.708 0.173 -79.986 0.985 9.982 0.985 9.982 0.173 -79.986
249.667 0.155 -81.028 0.988 8.935 0.988 8.935 0.155 -81.028
274.625 0.14 -81.892 0.99 8.068 0.99 8.068 0.14 -81.892
299.583 0.128 -82.619 0.992 7.337 0.992 7.337 0.128 -82.619
324.542 0.117 -83.241 0.993 6.71 0.993 6.71 0.117 -83.241
349.5 0.107 -83.78 0.994 6.167 0.994 6.167 0.107 -83.78
374.458 0.099 -84.251 0.995 5.691 0.995 5.691 0.099 -84.251
399.417 0.092 -84.669 0.996 5.269 0.996 5.269 0.092 -84.669
424.375 0.085 -85.041 0.996 4.892 0.996 4.892 0.085 -85.041
449.333 0.079 -85.375 0.997 4.553 0.997 4.553 0.079 -85.375
474.292 0.074 -85.677 0.997 4.245 0.997 4.245 0.074 -85.677
499.25 0.069 -85.952 0.998 3.965 0.998 3.965 0.069 -85.952
524.208 0.065 -86.204 0.998 3.708 0.998 3.708 0.065 -86.204
549.167 0.061 -86.435 0.998 3.47 0.998 3.47 0.061 -86.435
574.125 0.057 -86.649 0.998 3.25 0.998 3.25 0.057 -86.649
599.083 0.053 -86.847 0.998 3.046 0.998 3.046 0.053 -86.847
624.042 0.05 -87.03 0.999 2.855 0.999 2.855 0.05 -87.03
649 0.047 -87.202 0.999 2.675 0.999 2.675 0.047 -87.202
673.958 0.044 -87.362 0.999 2.507 0.999 2.507 0.044 -87.362
698.917 0.041 -87.513 0.999 2.348 0.999 2.348 0.041 -87.513
723.875 0.038 -87.654 0.999 2.197 0.999 2.197 0.038 -87.654
748.833 0.036 -87.786 0.999 2.054 0.999 2.054 0.036 -87.786
773.792 0.033 -87.911 0.999 1.918 0.999 1.918 0.033 -87.911
798.75 0.031 -88.028 0.999 1.788 0.999 1.788 0.031 -88.028
823.708 0.029 -88.139 0.999 1.664 0.999 1.664 0.029 -88.139
848.667 0.027 -88.243 1 1.545 1 1.545 0.027 -88.243
873.625 0.025 -88.34 1 1.431 1 1.431 0.025 -88.34
898.583 0.023 -88.431 1 1.321 1 1.321 0.023 -88.431
923.542 0.021 -88.515 1 1.215 1 1.215 0.021 -88.515
948.5 0.019 -88.592 1 1.113 1 1.113 0.019 -88.592
973.458 0.018 -88.662 1 1.014 1 1.014 0.018 -88.662
998.417 0.016 -88.724 1 0.918 1 0.918 0.016 -88.724
1023.375 0.014 -88.777 1 0.826 1 0.826 0.014 -88.777
1048.333 0.013 -88.818 1 0.736 1 0.736 0.013 -88.818
1073.292 0.011 -88.845 1 0.648 1 0.648 0.011 -88.845
1098.25 9.831e-3 -88.854 1 0.563 1 0.563 9.831e-3 -88.854
1123.208 8.385e-3 -88.836 1 0.48 1 0.48 8.385e-3 -88.836
1148.167 6.975e-3 -88.778 1 0.4 1 0.4 6.975e-3 -88.778
1173.125 5.598e-3 -88.655 1 0.321 1 0.321 5.598e-3 -88.655
1198.083 4.253e-3 -88.408 1 0.244 1 0.244 4.253e-3 -88.408
1223.042 2.937e-3 -87.88 1 0.168 1 0.168 2.937e-3 -87.88
1248 1.65e-3 -86.43 1 0.094 1 0.094 1.65e-3 -86.43
1272.958 398.1e-6 -75.422 1 0.022 1 0.022 398.1e-6 -75.422
1297.917 857.9e-6 83.254 1 -0.049 1 -0.049 857.9e-6 83.254
1322.875 2.069e-3 87.109 1 -0.118 1 -0.118 2.069e-3 87.109
1347.833 3.26e-3 88.054 1 -0.187 1 -0.187 3.26e-3 88.054
1372.792 4.431e-3 88.452 1 -0.254 1 -0.254 4.431e-3 88.452
1397.75 5.582e-3 88.653 1 -0.32 1 -0.32 5.582e-3 88.653
1422.708 6.715e-3 88.762 1 -0.385 1 -0.385 6.715e-3 88.762
1447.667 7.83e-3 88.819 1 -0.449 1 -0.449 7.83e-3 88.819
1472.625 8.929e-3 88.846 1 -0.512 1 -0.512 8.929e-3 88.846
1497.583 0.01 88.854 1 -0.574 1 -0.574 0.01 88.854
1522.542 0.011 88.848 1 -0.635 1 -0.635 0.011 88.848
1547.5 0.012 88.832 1 -0.695 1 -0.695 0.012 88.832
1572.458 0.013 88.81 1 -0.755 1 -0.755 0.013 88.81
1597.417 0.014 88.783 1 -0.813 1 -0.813 0.014 88.783
1622.375 0.015 88.752 1 -0.871 1 -0.871 0.015 88.752
1647.333 0.016 88.718 1 -0.929 1 -0.929 0.016 88.718
1672.292 0.017 88.681 1 -0.986 1 -0.986 0.017 88.681
1697.25 0.018 88.643 1 -1.042 1 -1.042 0.018 88.643
1722.208 0.019 88.603 1 -1.097 1 -1.097 0.019 88.603
1747.167 0.02 88.563 1 -1.152 1 -1.152 0.02 88.563
1772.125 0.021 88.521 1 -1.207 1 -1.207 0.021 88.521
1797.083 0.022 88.479 1 -1.26 1 -1.26 0.022 88.479
1822.042 0.023 88.436 1 -1.314 1 -1.314 0.023 88.436
1847 0.024 88.393 1 -1.367 1 -1.367 0.024 88.393
1871.958 0.025 88.349 1 -1.419 1 -1.419 0.025 88.349
1896.917 0.026 88.306 1 -1.471 1 -1.471 0.026 88.306
1921.875 0.027 88.262 1 -1.523 1 -1.523 0.027 88.262
1946.833 0.027 88.218 1 -1.574 1 -1.574 0.027 88.218
1971.792 0.028 88.173 0.999 -1.625 0.999 -1.625 0.028 88.173
1996.75 0.029 88.129 0.999 -1.675 0.999 -1.675 0.029 88.129
2021.708 0.03 88.085 0.999 -1.725 0.999 -1.725 0.03 88.085
2046.667 0.031 88.04 0.999 -1.775 0.999 -1.775 0.031 88.04
2071.625 0.032 87.996 0.999 -1.824 0.999 -1.824 0.032 87.996
2096.583 0.033 87.952 0.999 -1.873 0.999 -1.873 0.033 87.952
2121.542 0.034 87.908 0.999 -1.921 0.999 -1.921 0.034 87.908
2146.5 0.034 87.864 0.999 -1.97 0.999 -1.97 0.034 87.864
2171.458 0.035 87.819 0.999 -2.018 0.999 -2.018 0.035 87.819
2196.417 0.036 87.775 0.999 -2.066 0.999 -2.066 0.036 87.775
2221.375 0.037 87.732 0.999 -2.113 0.999 -2.113 0.037 87.732
2246.333 0.038 87.688 0.999 -2.16 0.999 -2.16 0.038 87.688
2271.292 0.039 87.644 0.999 -2.207 0.999 -2.207 0.039 87.644
2296.25 0.039 87.6 0.999 -2.254 0.999 -2.254 0.039 87.6
2321.208 0.04 87.557 0.999 -2.3 0.999 -2.3 0.04 87.557
2346.167 0.041 87.514 0.999 -2.347 0.999 -2.347 0.041 87.514
2371.125 0.042 87.47 0.999 -2.393 0.999 -2.393 0.042 87.47
2396.083 0.043 87.427 0.999 -2.438 0.999 -2.438 0.043 87.427
2421.042 0.043 87.384 0.999 -2.484 0.999 -2.484 0.043 87.384
2446 0.044 87.341 0.999 -2.529 0.999 -2.529 0.044 87.341
2470.958 0.045 87.298 0.999 -2.574 0.999 -2.574 0.045 87.298
2495.917 0.046 87.255 0.999 -2.619 0.999 -2.619 0.046 87.255
2520.875 0.046 87.213 0.999 -2.664 0.999 -2.664 0.046 87.213
2545.833 0.047 87.17 0.999 -2.709 0.999 -2.709 0.047 87.17
2570.792 0.048 87.128 0.999 -2.753 0.999 -2.753 0.048 87.128
2595.75 0.049 87.085 0.999 -2.797 0.999 -2.797 0.049 87.085
2620.708 0.05 87.043 0.999 -2.841 0.999 -2.841 0.05 87.043
2645.667 0.05 87.001 0.999 -2.885 0.999 -2.885 0.05 87.001
2670.625 0.051 86.959 0.999 -2.929 0.999 -2.929 0.051 86.959
2695.583 0.052 86.917 0.999 -2.972 0.999 -2.972 0.052 86.917
2720.542 0.053 86.875 0.999 -3.016 0.999 -3.016 0.053 86.875
2745.5 0.053 86.834 0.998 -3.059 0.998 -3.059 0.053 86.834
2770.458 0.054 86.792 0.998 -3.102 0.998 -3.102 0.054 86.792
2795.417 0.055 86.75 0.998 -3.145 0.998 -3.145 0.055 86.75
2820.375 0.056 86.709 0.998 -3.188 0.998 -3.188 0.056 86.709
2845.333 0.056 86.668 0.998 -3.231 0.998 -3.231 0.056 86.668
2870.292 0.057 86.626 0.998 -3.273 0.998 -3.273 0.057 86.626
2895.25 0.058 86.585 0.998 -3.316 0.998 -3.316 0.058 86.585
2920.208 0.059 86.544 0.998 -3.358 0.998 -3.358 0.059 86.544
2945.167 0.059 86.503 0.998 -3.4 0.998 -3.4 0.059 86.503
2970.125 0.06 86.462 0.998 -3.442 0.998 -3.442 0.06 86.462
2995.083 0.061 86.421 0.998 -3.484 0.998 -3.484 0.061 86.421
3020.042 0.062 86.381 0.998 -3.526 0.998 -3.526 0.062 86.381
3045 0.062 86.34 0.998 -3.568 0.998 -3.568 0.062 86.34
3069.958 0.063 86.299 0.998 -3.61 0.998 -3.61 0.063 86.299
3094.917 0.064 86.259 0.998 -3.651 0.998 -3.651 0.064 86.259
3119.875 0.064 86.218 0.998 -3.693 0.998 -3.693 0.064 86.218
3144.833 0.065 86.178 0.998 -3.734 0.998 -3.734 0.065 86.178
3169.792 0.066 86.138 0.998 -3.775 0.998 -3.775 0.066 86.138
3194.75 0.067 86.098 0.998 -3.817 0.998 -3.817 0.067 86.098
3219.708 0.067 86.057 0.998 -3.858 0.998 -3.858 0.067 86.057
3244.667 0.068 86.017 0.998 -3.899 0.998 -3.899 0.068 86.017
3269.625 0.069 85.977 0.998 -3.939 0.998 -3.939 0.069 85.977
3294.583 0.069 85.937 0.997 -3.98 0.997 -3.98 0.069 85.937
3319.542 0.07 85.897 0.997 -4.021 0.997 -4.021 0.07 85.897
3344.5 0.071 85.858 0.997 -4.062 0.997 -4.062 0.071 85.858
3369.458 0.072 85.818 0.997 -4.102 0.997 -4.102 0.072 85.818
3394.417 0.072 85.778 0.997 -4.143 0.997 -4.143 0.072 85.778
3419.375 0.073 85.739 0.997 -4.183 0.997 -4.183 0.073 85.739
3444.333 0.074 85.699 0.997 -4.223 0.997 -4.223 0.074 85.699
3469.292 0.074 85.66 0.997 -4.264 0.997 -4.264 0.074 85.66
3494.25 0.075 85.62 0.997 -4.304 0.997 -4.304 0.075 85.62
3519.208 0.076 85.581 0.997 -4.344 0.997 -4.344 0.076 85.581
3544.167 0.076 85.541 0.997 -4.384 0.997 -4.384 0.076 85.541
3569.125 0.077 85.502 0.997 -4.424 0.997 -4.424 0.077 85.502
3594.083 0.078 85.463 0.997 -4.464 0.997 -4.464 0.078 85.463
3619.042 0.079 85.424 0.997 -4.503 0.997 -4.503 0.079 85.424
3644 0.079 85.385 0.997 -4.543 0.997 -4.543 0.079 85.385
3668.958 0.08 85.346 0.997 -4.583 0.997 -4.583 0.08 85.346
3693.917 0.081 85.307 0.997 -4.623 0.997 -4.623 0.081 85.307
3718.875 0.081 85.268 0.997 -4.662 0.997 -4.662 0.081 85.268
3743.833 0.082 85.229 0.997 -4.702 0.997 -4.702 0.082 85.229
3768.792 0.083 85.19 0.996 -4.741 0.996 -4.741 0.083 85.19
3793.75 0.083 85.151 0.996 -4.78 0.996 -4.78 0.083 85.151
3818.708 0.084 85.112 0.996 -4.82 0.996 -4.82 0.084 85.112
3843.667 0.085 85.073 0.996 -4.859 0.996 -4.859 0.085 85.073
3868.625 0.085 85.035 0.996 -4.898 0.996 -4.898 0.085 85.035
3893.583 0.086 84.996 0.996 -4.937 0.996 -4.937 0.086 84.996
3918.542 0.087 84.958 0.996 -4.977 0.996 -4.977 0.087 84.958
3943.5 0.087 84.919 0.996 -5.016 0.996 -5.016 0.087 84.919
3968.458 0.088 84.881 0.996 -5.055 0.996 -5.055 0.088 84.881
3993.417 0.089 84.842 0.996 -5.094 0.996 -5.094 0.089 84.842
4018.375 0.089 84.804 0.996 -5.132 0.996 -5.132 0.089 84.804
4043.333 0.09 84.765 0.996 -5.171 0.996 -5.171 0.09 84.765
4068.292 0.091 84.727 0.996 -5.21 0.996 -5.21 0.091 84.727
4093.25 0.091 84.689 0.996 -5.249 0.996 -5.249 0.091 84.689
4118.208 0.092 84.65 0.996 -5.288 0.996 -5.288 0.092 84.65
4143.167 0.093 84.612 0.996 -5.326 0.996 -5.326 0.093 84.612
4168.125 0.093 84.574 0.996 -5.365 0.996 -5.365 0.093 84.574
4193.083 0.094 84.536 0.995 -5.403 0.995 -5.403 0.094 84.536
4218.042 0.095 84.498 0.995 -5.442 0.995 -5.442 0.095 84.498
4243 0.096 84.46 0.995 -5.48 0.995 -5.48 0.096 84.46
4267.958 0.096 84.422 0.995 -5.519 0.995 -5.519 0.096 84.422
4292.917 0.097 84.384 0.995 -5.557 0.995 -5.557 0.097 84.384
4317.875 0.098 84.346 0.995 -5.596 0.995 -5.596 0.098 84.346
4342.833 0.098 84.308 0.995 -5.634 0.995 -5.634 0.098 84.308
4367.792 0.099 84.27 0.995 -5.672 0.995 -5.672 0.099 84.27
4392.75 0.1 84.232 0.995 -5.71 0.995 -5.71 0.1 84.232
4417.708 0.1 84.194 0.995 -5.749 0.995 -5.749 0.1 84.194
4442.667 0.101 84.157 0.995 -5.787 0.995 -5.787 0.101 84.157
4467.625 0.101 84.119 0.995 -5.825 0.995 -5.825 0.101 84.119
4492.583 0.102 84.081 0.995 -5.863 0.995 -5.863 0.102 84.081
4517.542 0.103 84.043 0.995 -5.901 0.995 -5.901 0.103 84.043
4542.5 0.103 84.006 0.995 -5.939 0.995 -5.939 0.103 84.006
4567.458 0.104 83.968 0.994 -5.977 0.994 -5.977 0.104 83.968
4592.417 0.105 83.931 0.994 -6.015 0.994 -6.015 0.105 83.931
4617.375 0.105 83.893 0.994 -6.053 0.994 -6.053 0.105 83.893
4642.333 0.106 83.855 0.994 -6.091 0.994 -6.091 0.106 83.855
4667.292 0.107 83.818 0.994 -6.129 0.994 -6.129 0.107 83.818
4692.25 0.107 83.78 0.994 -6.166 0.994 -6.166 0.107 83.78
4717.208 0.108 83.743 0.994 -6.204 0.994 -6.204 0.108 83.743
4742.167 0.109 83.706 0.994 -6.242 0.994 -6.242 0.109 83.706
4767.125 0.109 83.668 0.994 -6.28 0.994 -6.28 0.109 83.668
4792.083 0.11 83.631 0.994 -6.317 0.994 -6.317 0.11 83.631
4817.042 0.111 83.594 0.994 -6.355 0.994 -6.355 0.111 83.594
4842 0.111 83.556 0.994 -6.393 0.994 -6.393 0.111 83.556
4866.958 0.112 83.519 0.994 -6.43 0.994 -6.43 0.112 83.519
4891.917 0.113 83.482 0.994 -6.468 0.994 -6.468 0.113 83.482
4916.875 0.113 83.444 0.993 -6.505 0.993 -6.505 0.113 83.444
4941.833 0.114 83.407 0.993 -6.543 0.993 -6.543 0.114 83.407
4966.792 0.115 83.37 0.993 -6.58 0.993 -6.58 0.115 83.37
4991.75 0.115 83.333 0.993 -6.618 0.993 -6.618 0.115 83.333
5016.708 0.116 83.296 0.993 -6.655 0.993 -6.655 0.116 83.296
5041.667 0.117 83.259 0.993 -6.692 0.993 -6.692 0.117 83.259
5066.625 0.117 83.222 0.993 -6.73 0.993 -6.73 0.117 83.222
5091.583 0.118 83.185 0.993 -6.767 0.993 -6.767 0.118 83.185
5116.542 0.118 83.148 0.993 -6.804 0.993 -6.804 0.118 83.148
5141.5 0.119 83.111 0.993 -6.842 0.993 -6.842 0.119 83.111
5166.458 0.12 83.074 0.993 -6.879 0.993 -6.879 0.12 83.074
5191.417 0.12 83.037 0.993 -6.916 0.993 -6.916 0.12 83.037
5216.375 0.121 83 0.993 -6.953 0.993 -6.953 0.121 83
5241.333 0.122 82.963 0.992 -6.99 0.992 -6.99 0.122 82.963
5266.292 0.122 82.926 0.992 -7.027 0.992 -7.027 0.122 82.926
5291.25 0.123 82.889 0.992 -7.065 0.992 -7.065 0.123 82.889
5316.208 0.124 82.852 0.992 -7.102 0.992 -7.102 0.124 82.852
5341.167 0.124 82.815 0.992 -7.139 0.992 -7.139 0.124 82.815
5366.125 0.125 82.779 0.992 -7.176 0.992 -7.176 0.125 82.779
5391.083 0.126 82.742 0.992 -7.213 0.992 -7.213 0.126 82.742
5416.042 0.126 82.705 0.992 -7.25 0.992 -7.25 0.126 82.705
5441 0.127 82.668 0.992 -7.287 0.992 -7.287 0.127 82.668
5465.958 0.127 82.632 0.992 -7.324 0.992 -7.324 0.127 82.632
5490.917 0.128 82.595 0.992 -7.361 0.992 -7.361 0.128 82.595
5515.875 0.129 82.558 0.992 -7.397 0.992 -7.397 0.129 82.558
5540.833 0.129 82.522 0.991 -7.434 0.991 -7.434 0.129 82.522
5565.792 0.13 82.485 0.991 -7.471 0.991 -7.471 0.13 82.485
5590.75 0.131 82.449 0.991 -7.508 0.991 -7.508 0.131 82.449
5615.708 0.131 82.412 0.991 -7.545 0.991 -7.545 0.131 82.412
5640.667 0.132 82.375 0.991 -7.581 0.991 -7.581 0.132 82.375
5665.625 0.133 82.339 0.991 -7.618 0.991 -7.618 0.133 82.339
5690.583 0.133 82.302 0.991 -7.655 0.991 -7.655 0.133 82.302
5715.542 0.134 82.266 0.991 -7.692 0.991 -7.692 0.134 82.266
5740.5 0.134 82.229 0.991 -7.728 0.991 -7.728 0.134 82.229
5765.458 0.135 82.193 0.991 -7.765 0.991 -7.765 0.135 82.193
5790.417 0.136 82.156 0.991 -7.802 0.991 -7.802 0.136 82.156
5815.375 0.136 82.12 0.991 -7.838 0.991 -7.838 0.136 82.12
5840.333 0.137 82.084 0.99 -7.875 0.99 -7.875 0.137 82.084
5865.292 0.138 82.047 0.99 -7.911 0.99 -7.911 0.138 82.047
5890.25 0.138 82.011 0.99 -7.948 0.99 -7.948 0.138 82.011
5915.208 0.139 81.975 0.99 -7.985 0.99 -7.985 0.139 81.975
5940.167 0.14 81.938 0.99 -8.021 0.99 -8.021 0.14 81.938
5965.125 0.14 81.902 0.99 -8.058 0.99 -8.058 0.14 81.902
5990.083 0.141 81.866 0.99 -8.094 0.99 -8.094 0.141 81.866
6015.042 0.141 81.829 0.99 -8.13 0.99 -8.13 0.141 81.829
6040 0.142 81.793 0.99 -8.167 0.99 -8.167 0.142 81.793
6064.958 0.143 81.757 0.99 -8.203 0.99 -8.203 0.143 81.757
6089.917 0.143 81.721 0.99 -8.24 0.99 -8.24 0.143 81.721
6114.875 0.144 81.684 0.989 -8.276 0.989 -8.276 0.144 81.684
6139.833 0.145 81.648 0.989 -8.312 0.989 -8.312 0.145 81.648
6164.792 0.145 81.612 0.989 -8.349 0.989 -8.349 0.145 81.612
6189.75 0.146 81.576 0.989 -8.385 0.989 -8.385 0.146 81.576
6214.708 0.146 81.54 0.989 -8.421 0.989 -8.421 0.146 81.54
6239.667 0.147 81.504 0.989 -8.458 0.989 -8.458 0.147 81.504
6264.625 0.148 81.468 0.989 -8.494 0.989 -8.494 0.148 81.468
6289.583 0.148 81.432 0.989 -8.53 0.989 -8.53 0.148 81.432
6314.542 0.149 81.395 0.989 -8.566 0.989 -8.566 0.149 81.395
6339.5 0.15 81.359 0.989 -8.603 0.989 -8.603 0.15 81.359
6364.458 0.15 81.323 0.989 -8.639 0.989 -8.639 0.15 81.323
6389.417 0.151 81.287 0.988 -8.675 0.988 -8.675 0.151 81.287
6414.375 0.151 81.251 0.988 -8.711 0.988 -8.711 0.151 81.251
6439.333 0.152 81.215 0.988 -8.747 0.988 -8.747 0.152 81.215
6464.292 0.153 81.179 0.988 -8.783 0.988 -8.783 0.153 81.179
6489.25 0.153 81.143 0.988 -8.82 0.988 -8.82 0.153 81.143
6514.208 0.154 81.108 0.988 -8.856 0.988 -8.856 0.154 81.108
6539.167 0.155 81.072 0.988 -8.892 0.988 -8.892 0.155 81.072
6564.125 0.155 81.036 0.988 -8.928 0.988 -8.928 0.155 81.036
6589.083 0.156 81 0.988 -8.964 0.988 -8.964 0.156 81
6614.042 0.156 80.964 0.988 -9 0.988 -9 0.156 80.964
6639 0.157 80.928 0.987 -9.036 0.987 -9.036 0.157 80.928
6663.958 0.158 80.892 0.987 -9.072 0.987 -9.072 0.158 80.892
6688.917 0.158 80.856 0.987 -9.108 0.987 -9.108 0.158 80.856
6713.875 0.159 80.821 0.987 -9.144 0.987 -9.144 0.159 80.821
6738.833 0.16 80.785 0.987 -9.18 0.987 -9.18 0.16 80.785
6763.792 0.16 80.749 0.987 -9.216 0.987 -9.216 0.16 80.749
6788.75 0.161 80.713 0.987 -9.251 0.987 -9.251 0.161 80.713
6813.708 0.161 80.678 0.987 -9.287 0.987 -9.287 0.161 80.678
6838.667 0.162 80.642 0.987 -9.323 0.987 -9.323 0.162 80.642
6863.625 0.163 80.606 0.987 -9.359 0.987 -9.359 0.163 80.606
6888.583 0.163 80.57 0.986 -9.395 0.986 -9.395 0.163 80.57
6913.542 0.164 80.535 0.986 -9.431 0.986 -9.431 0.164 80.535
6938.5 0.164 80.499 0.986 -9.466 0.986 -9.466 0.164 80.499
6963.458 0.165 80.463 0.986 -9.502 0.986 -9.502 0.165 80.463
6988.417 0.166 80.428 0.986 -9.538 0.986 -9.538 0.166 80.428
7013.375 0.166 80.392 0.986 -9.574 0.986 -9.574 0.166 80.392
7038.333 0.167 80.357 0.986 -9.61 0.986 -9.61 0.167 80.357
7063.292 0.168 80.321 0.986 -9.645 0.986 -9.645 0.168 80.321
7088.25 0.168 80.285 0.986 -9.681 0.986 -9.681 0.168 80.285
7113.208 0.169 80.25 0.986 -9.717 0.986 -9.717 0.169 80.25
7138.167 0.169 80.214 0.985 -9.752 0.985 -9.752 0.169 80.214
7163.125 0.17 80.179 0.985 -9.788 0.985 -9.788 0.17 80.179
7188.083 0.171 80.143 0.985 -9.824 0.985 -9.824 0.171 80.143
7213.042 0.171 80.108 0.985 -9.859 0.985 -9.859 0.171 80.108
7238 0.172 80.072 0.985 -9.895 0.985 -9.895 0.172 80.072
7262.958 0.172 80.037 0.985 -9.93 0.985 -9.93 0.172 80.037
7287.917 0.173 80.001 0.985 -9.966 0.985 -9.966 0.173 80.001
7312.875 0.174 79.966 0.985 -10.002 0.985 -10.002 0.174 79.966
7337.833 0.174 79.93 0.985 -10.037 0.985 -10.037 0.174 79.93
7362.792 0.175 79.895 0.984 -10.073 0.984 -10.073 0.175 79.895
7387.75 0.176 79.86 0.984 -10.108 0.984 -10.108 0.176 79.86
7412.708 0.176 79.824 0.984 -10.144 0.984 -10.144 0.176 79.824
7437.667 0.177 79.789 0.984 -10.179 0.984 -10.179 0.177 79.789
7462.625 0.177 79.753 0.984 -10.215 0.984 -10.215 0.177 79.753
7487.583 0.178 79.718 0.984 -10.25 0.984 -10.25 0.178 79.718
7512.542 0.179 79.683 0.984 -10.286 0.984 -10.286 0.179 79.683
7537.5 0.179 79.647 0.984 -10.321 0.984 -10.321 0.179 79.647
7562.458 0.18 79.612 0.984 -10.357 0.984 -10.357 0.18 79.612
7587.417 0.18 79.577 0.983 -10.392 0.983 -10.392 0.18 79.577
7612.375 0.181 79.541 0.983 -10.427 0.983 -10.427 0.181 79.541
7637.333 0.182 79.506 0.983 -10.463 0.983 -10.463 0.182 79.506
7662.292 0.182 79.471 0.983 -10.498 0.983 -10.498 0.182 79.471
7687.25 0.183 79.436 0.983 -10.533 0.983 -10.533 0.183 79.436
7712.208 0.183 79.4 0.983 -10.569 0.983 -10.569 0.183 79.4
7737.167 0.184 79.365 0.983 -10.604 0.983 -10.604 0.184 79.365
7762.125 0.185 79.33 0.983 -10.639 0.983 -10.639 0.185 79.33
7787.083 0.185 79.295 0.983 -10.675 0.983 -10.675 0.185 79.295
7812.042 0.186 79.26 0.982 -10.71 0.982 -10.71 0.186 79.26
7837 0.186 79.225 0.982 -10.745 0.982 -10.745 0.186 79.225
7861.958 0.187 79.189 0.982 -10.78 0.982 -10.78 0.187 79.189
7886.917 0.188 79.154 0.982 -10.816 0.982 -10.816 0.188 79.154
7911.875 0.188 79.119 0.982 -10.851 0.982 -10.851 0.188 79.119
7936.833 0.189 79.084 0.982 -10.886 0.982 -10.886 0.189 79.084
7961.792 0.189 79.049 0.982 -10.921 0.982 -10.921 0.189 79.049
7986.75 0.19 79.014 0.982 -10.957 0.982 -10.957 0.19 79.014
8011.708 0.191 78.979 0.982 -10.992 0.982 -10.992 0.191 78.979
8036.667 0.191 78.944 0.981 -11.027 0.981 -11.027 0.191 78.944
8061.625 0.192 78.909 0.981 -11.062 0.981 -11.062 0.192 78.909
8086.583 0.192 78.874 0.981 -11.097 0.981 -11.097 0.192 78.874
8111.542 0.193 78.839 0.981 -11.132 0.981 -11.132 0.193 78.839
8136.5 0.194 78.804 0.981 -11.167 0.981 -11.167 0.194 78.804
8161.458 0.194 78.769 0.981 -11.202 0.981 -11.202 0.194 78.769
8186.417 0.195 78.734 0.981 -11.237 0.981 -11.237 0.195 78.734
8211.375 0.195 78.699 0.981 -11.273 0.981 -11.273 0.195 78.699
8236.333 0.196 78.664 0.98 -11.308 0.98 -11.308 0.196 78.664
8261.292 0.197 78.629 0.98 -11.343 0.98 -11.343 0.197 78.629
8286.25 0.197 78.594 0.98 -11.378 0.98 -11.378 0.197 78.594
8311.208 0.198 78.559 0.98 -11.413 0.98 -11.413 0.198 78.559
8336.167 0.198 78.524 0.98 -11.448 0.98 -11.448 0.198 78.524
8361.125 0.199 78.489 0.98 -11.483 0.98 -11.483 0.199 78.489
8386.083 0.2 78.454 0.98 -11.518 0.98 -11.518 0.2 78.454
8411.042 0.2 78.419 0.98 -11.552 0.98 -11.552 0.2 78.419
8436 0.201 78.385 0.98 -11.587 0.98 -11.587 0.201 78.385
8460.958 0.201 78.35 0.979 -11.622 0.979 -11.622 0.201 78.35
8485.917 0.202 78.315 0.979 -11.657 0.979 -11.657 0.202 78.315
8510.875 0.203 78.28 0.979 -11.692 0.979 -11.692 0.203 78.28
8535.833 0.203 78.245 0.979 -11.727 0.979 -11.727 0.203 78.245
8560.792 0.204 78.211 0.979 -11.762 0.979 -11.762 0.204 78.211
8585.75 0.204 78.176 0.979 -11.797 0.979 -11.797 0.204 78.176
8610.708 0.205 78.141 0.979 -11.832 0.979 -11.832 0.205 78.141
8635.667 0.206 78.106 0.979 -11.866 0.979 -11.866 0.206 78.106
8660.625 0.206 78.072 0.978 -11.901 0.978 -11.901 0.206 78.072
8685.583 0.207 78.037 0.978 -11.936 0.978 -11.936 0.207 78.037
8710.542 0.207 78.002 0.978 -11.971 0.978 -11.971 0.207 78.002
8735.5 0.208 77.967 0.978 -12.006 0.978 -12.006 0.208 77.967
8760.458 0.209 77.933 0.978 -12.04 0.978 -12.04 0.209 77.933
8785.417 0.209 77.898 0.978 -12.075 0.978 -12.075 0.209 77.898
8810.375 0.21 77.863 0.978 -12.11 0.978 -12.11 0.21 77.863
8835.333 0.21 77.829 0.978 -12.145 0.978 -12.145 0.21 77.829
8860.292 0.211 77.794 0.977 -12.179 0.977 -12.179 0.211 77.794
8885.25 0.212 77.759 0.977 -12.214 0.977 -12.214 0.212 77.759
8910.208 0.212 77.725 0.977 -12.249 0.977 -12.249 0.212 77.725
8935.167 0.213 77.69 0.977 -12.283 0.977 -12.283 0.213 77.69
8960.125 0.213 77.656 0.977 -12.318 0.977 -12.318 0.213 77.656
8985.083 0.214 77.621 0.977 -12.353 0.977 -12.353 0.214 77.621
9010.042 0.215 77.587 0.977 -12.387 0.977 -12.387 0.215 77.587
9035 0.215 77.552 0.976 -12.422 0.976 -12.422 0.215 77.552
9059.958 0.216 77.518 0.976 -12.456 0.976 -12.456 0.216 77.518
9084.917 0.216 77.483 0.976 -12.491 0.976 -12.491 0.216 77.483
9109.875 0.217 77.448 0.976 -12.526 0.976 -12.526 0.217 77.448
9134.833 0.217 77.414 0.976 -12.56 0.976 -12.56 0.217 77.414
9159.792 0.218 77.38 0.976 -12.595 0.976 -12.595 0.218 77.38
9184.75 0.219 77.345 0.976 -12.629 0.976 -12.629 0.219 77.345
9209.708 0.219 77.311 0.976 -12.664 0.976 -12.664 0.219 77.311
9234.667 0.22 77.276 0.975 -12.698 0.975 -12.698 0.22 77.276
9259.625 0.22 77.242 0.975 -12.733 0.975 -12.733 0.22 77.242
9284.583 0.221 77.207 0.975 -12.767 0.975 -12.767 0.221 77.207
9309.542 0.222 77.173 0.975 -12.802 0.975 -12.802 0.222 77.173
9334.5 0.222 77.138 0.975 -12.836 0.975 -12.836 0.222 77.138
9359.458 0.223 77.104 0.975 -12.871 0.975 -12.871 0.223 77.104
9384.417 0.223 77.07 0.975 -12.905 0.975 -12.905 0.223 77.07
9409.375 0.224 77.035 0.975 -12.94 0.975 -12.94 0.224 77.035
9434.333 0.225 77.001 0.974 -12.974 0.974 -12.974 0.225 77.001
9459.292 0.225 76.967 0.974 -13.008 0.974 -13.008 0.225 76.967
9484.25 0.226 76.932 0.974 -13.043 0.974 -13.043 0.226 76.932
9509.208 0.226 76.898 0.974 -13.077 0.974 -13.077 0.226 76.898
9534.167 0.227 76.864 0.974 -13.112 0.974 -13.112 0.227 76.864
9559.125 0.227 76.83 0.974 -13.146 0.974 -13.146 0.227 76.83
9584.083 0.228 76.795 0.974 -13.18 0.974 -13.18 0.228 76.795
9609.042 0.229 76.761 0.973 -13.215 0.973 -13.215 0.229 76.761
9634 0.229 76.727 0.973 -13.249 0.973 -13.249 0.229 76.727
9658.958 0.23 76.693 0.973 -13.283 0.973 -13.283 0.23 76.693
9683.917 0.23 76.658 0.973 -13.317 0.973 -13.317 0.23 76.658
9708.875 0.231 76.624 0.973 -13.352 0.973 -13.352 0.231 76.624
9733.833 0.232 76.59 0.973 -13.386 0.973 -13.386 0.232 76.59
9758.792 0.232 76.556 0.973 -13.42 0.973 -13.42 0.232 76.556
9783.75 0.233 76.522 0.972 -13.454 0.972 -13.454 0.233 76.522
9808.708 0.233 76.487 0.972 -13.489 0.972 -13.489 0.233 76.487
9833.667 0.234 76.453 0.972 -13.523 0.972 -13.523 0.234 76.453
9858.625 0.234 76.419 0.972 -13.557 0.972 -13.557 0.234 76.419
9883.583 0.235 76.385 0.972 -13.591 0.972 -13.591 0.235 76.385
9908.542 0.236 76.351 0.972 -13.625 0.972 -13.625 0.236 76.351
9933.5 0.236 76.317 0.972 -13.66 0.972 -13.66 0.236 76.317
9958.458 0.237 76.283 0.971 -13.694 0.971 -13.694 0.237 76.283
9983.417 0.237 76.249 0.971 -13.728 0.971 -13.728 0.237 76.249
10008.375 0.238 76.215 0.971 -13.762 0.971 -13.762 0.238 76.215
10033.333 0.238 76.181 0.971 -13.796 0.971 -13.796 0.238 76.181
10058.292 0.239 76.146 0.971 -13.83 0.971 -13.83 0.239 76.146
10083.25 0.24 76.112 0.971 -13.864 0.971 -13.864 0.24 76.112
10108.208 0.24 76.078 0.971 -13.898 0.971 -13.898 0.24 76.078
10133.167 0.241 76.044 0.97 -13.932 0.97 -13.932 0.241 76.044
10158.125 0.241 76.01 0.97 -13.966 0.97 -13.966 0.241 76.01
10183.083 0.242 75.976 0.97 -14 0.97 -14 0.242 75.976
10208.042 0.243 75.943 0.97 -14.035 0.97 -14.035 0.243 75.943
10233 0.243 75.909 0.97 -14.069 0.97 -14.069 0.243 75.909
10257.958 0.244 75.875 0.97 -14.103 0.97 -14.103 0.244 75.875
10282.917 0.244 75.841 0.97 -14.136 0.97 -14.136 0.244 75.841
10307.875 0.245 75.807 0.969 -14.17 0.969 -14.17 0.245 75.807
10332.833 0.245 75.773 0.969 -14.204 0.969 -14.204 0.245 75.773
10357.792 0.246 75.739 0.969 -14.238 0.969 -14.238 0.246 75.739
10382.75 0.247 75.705 0.969 -14.272 0.969 -14.272 0.247 75.705
10407.708 0.247 75.671 0.969 -14.306 0.969 -14.306 0.247 75.671
10432.667 0.248 75.637 0.969 -14.34 0.969 -14.34 0.248 75.637
10457.625 0.248 75.604 0.969 -14.374 0.969 -14.374 0.248 75.604
10482.583 0.249 75.57 0.968 -14.408 0.968 -14.408 0.249 75.57
10507.542 0.249 75.536 0.968 -14.442 0.968 -14.442 0.249 75.536
10532.5 0.25 75.502 0.968 -14.476 0.968 -14.476 0.25 75.502
10557.458 0.251 75.468 0.968 -14.509 0.968 -14.509 0.251 75.468
10582.417 0.251 75.435 0.968 -14.543 0.968 -14.543 0.251 75.435
10607.375 0.252 75.401 0.968 -14.577 0.968 -14.577 0.252 75.401
10632.333 0.252 75.367 0.968 -14.611 0.968 -14.611 0.252 75.367
10657.292 0.253 75.333 0.967 -14.645 0.967 -14.645 0.253 75.333
10682.25 0.253 75.3 0.967 -14.678 0.967 -14.678 0.253 75.3
10707.208 0.254 75.266 0.967 -14.712 0.967 -14.712 0.254 75.266
10732.167 0.255 75.232 0.967 -14.746 0.967 -14.746 0.255 75.232
10757.125 0.255 75.199 0.967 -14.78 0.967 -14.78 0.255 75.199
10782.083 0.256 75.165 0.967 -14.813 0.967 -14.813 0.256 75.165
10807.042 0.256 75.131 0.967 -14.847 0.967 -14.847 0.256 75.131
10832 0.257 75.098 0.966 -14.881 0.966 -14.881 0.257 75.098
10856.958 0.257 75.064 0.966 -14.915 0.966 -14.915 0.257 75.064
10881.917 0.258 75.03 0.966 -14.948 0.966 -14.948 0.258 75.03
10906.875 0.259 74.997 0.966 -14.982 0.966 -14.982 0.259 74.997
10931.833 0.259 74.963 0.966 -15.016 0.966 -15.016 0.259 74.963
10956.792 0.26 74.929 0.966 -15.049 0.966 -15.049 0.26 74.929
10981.75 0.26 74.896 0.965 -15.083 0.965 -15.083 0.26 74.896
11006.708 0.261 74.862 0.965 -15.116 0.965 -15.116 0.261 74.862
11031.667 0.261 74.829 0.965 -15.15 0.965 -15.15 0.261 74.829
11056.625 0.262 74.795 0.965 -15.184 0.965 -15.184 0.262 74.795
11081.583 0.262 74.762 0.965 -15.217 0.965 -15.217 0.262 74.762
11106.542 0.263 74.728 0.965 -15.251 0.965 -15.251 0.263 74.728
11131.5 0.264 74.695 0.965 -15.284 0.965 -15.284 0.264 74.695
11156.458 0.264 74.661 0.964 -15.318 0.964 -15.318 0.264 74.661
11181.417 0.265 74.628 0.964 -15.351 0.964 -15.351 0.265 74.628
11206.375 0.265 74.594 0.964 -15.385 0.964 -15.385 0.265 74.594
11231.333 0.266 74.561 0.964 -15.418 0.964 -15.418 0.266 74.561
11256.292 0.266 74.527 0.964 -15.452 0.964 -15.452 0.266 74.527
11281.25 0.267 74.494 0.964 -15.485 0.964 -15.485 0.267 74.494
11306.208 0.268 74.461 0.963 -15.519 0.963 -15.519 0.268 74.461
11331.167 0.268 74.427 0.963 -15.552 0.963 -15.552 0.268 74.427
11356.125 0.269 74.394 0.963 -15.586 0.963 -15.586 0.269 74.394
11381.083 0.269 74.36 0.963 -15.619 0.963 -15.619 0.269 74.36
11406.042 0.27 74.327 0.963 -15.652 0.963 -15.652 0.27 74.327
11431 0.27 74.294 0.963 -15.686 0.963 -15.686 0.27 74.294
11455.958 0.271 74.26 0.963 -15.719 0.963 -15.719 0.271 74.26
11480.917 0.271 74.227 0.962 -15.753 0.962 -15.753 0.271 74.227
11505.875 0.272 74.194 0.962 -15.786 0.962 -15.786 0.272 74.194
11530.833 0.273 74.16 0.962 -15.819 0.962 -15.819 0.273 74.16
11555.792 0.273 74.127 0.962 -15.853 0.962 -15.853 0.273 74.127
11580.75 0.274 74.094 0.962 -15.886 0.962 -15.886 0.274 74.094
11605.708 0.274 74.061 0.962 -15.919 0.962 -15.919 0.274 74.061
11630.667 0.275 74.027 0.961 -15.953 0.961 -15.953 0.275 74.027
11655.625 0.275 73.994 0.961 -15.986 0.961 -15.986 0.275 73.994
11680.583 0.276 73.961 0.961 -16.019 0.961 -16.019 0.276 73.961
11705.542 0.277 73.928 0.961 -16.052 0.961 -16.052 0.277 73.928
11730.5 0.277 73.894 0.961 -16.086 0.961 -16.086 0.277 73.894
11755.458 0.278 73.861 0.961 -16.119 0.961 -16.119 0.278 73.861
11780.417 0.278 73.828 0.96 -16.152 0.96 -16.152 0.278 73.828
11805.375 0.279 73.795 0.96 -16.185 0.96 -16.185 0.279 73.795
11830.333 0.279 73.762 0.96 -16.218 0.96 -16.218 0.279 73.762
11855.292 0.28 73.729 0.96 -16.252 0.96 -16.252 0.28 73.729
11880.25 0.28 73.695 0.96 -16.285 0.96 -16.285 0.28 73.695
11905.208 0.281 73.662 0.96 -16.318 0.96 -16.318 0.281 73.662
11930.167 0.282 73.629 0.959 -16.351 0.959 -16.351 0.282 73.629
11955.125 0.282 73.596 0.959 -16.384 0.959 -16.384 0.282 73.596
11980.083 0.283 73.563 0.959 -16.417 0.959 -16.417 0.283 73.563
12005.042 0.283 73.53 0.959 -16.45 0.959 -16.45 0.283 73.53
12030 0.284 73.497 0.959 -16.484 0.959 -16.484 0.284 73.497
12054.958 0.284 73.464 0.959 -16.517 0.959 -16.517 0.284 73.464
12079.917 0.285 73.431 0.958 -16.55 0.958 -16.55 0.285 73.431
12104.875 0.285 73.398 0.958 -16.583 0.958 -16.583 0.285 73.398
12129.833 0.286 73.365 0.958 -16.616 0.958 -16.616 0.286 73.365
12154.792 0.287 73.332 0.958 -16.649 0.958 -16.649 0.287 73.332
12179.75 0.287 73.299 0.958 -16.682 0.958 -16.682 0.287 73.299
12204.708 0.288 73.266 0.958 -16.715 0.958 -16.715 0.288 73.266
12229.667 0.288 73.233 0.957 -16.748 0.957 -16.748 0.288 73.233
12254.625 0.289 73.2 0.957 -16.781 0.957 -16.781 0.289 73.2
12279.583 0.289 73.167 0.957 -16.814 0.957 -16.814 0.289 73.167
12304.542 0.29 73.134 0.957 -16.847 0.957 -16.847 0.29 73.134
12329.5 0.29 73.101 0.957 -16.88 0.957 -16.88 0.29 73.101
12354.458 0.291 73.069 0.957 -16.913 0.957 -16.913 0.291 73.069
12379.417 0.291 73.036 0.956 -16.945 0.956 -16.945 0.291 73.036
12404.375 0.292 73.003 0.956 -16.978 0.956 -16.978 0.292 73.003
12429.333 0.293 72.97 0.956 -17.011 0.956 -17.011 0.293 72.97
12454.292 0.293 72.937 0.956 -17.044 0.956 -17.044 0.293 72.937
12479.25 0.294 72.904 0.956 -17.077 0.956 -17.077 0.294 72.904
12504.208 0.294 72.872 0.956 -17.11 0.956 -17.11 0.294 72.872
12529.167 0.295 72.839 0.955 -17.143 0.955 -17.143 0.295 72.839
12554.125 0.295 72.806 0.955 -17.175 0.955 -17.175 0.295 72.806
12579.083 0.296 72.773 0.955 -17.208 0.955 -17.208 0.296 72.773
12604.042 0.296 72.74 0.955 -17.241 0.955 -17.241 0.296 72.74
12629 0.297 72.708 0.955 -17.274 0.955 -17.274 0.297 72.708
12653.958 0.297 72.675 0.955 -17.307 0.955 -17.307 0.297 72.675
12678.917 0.298 72.642 0.954 -17.339 0.954 -17.339 0.298 72.642
12703.875 0.299 72.61 0.954 -17.372 0.954 -17.372 0.299 72.61
12728.833 0.299 72.577 0.954 -17.405 0.954 -17.405 0.299 72.577
12753.792 0.3 72.544 0.954 -17.438 0.954 -17.438 0.3 72.544
12778.75 0.3 72.511 0.954 -17.47 0.954 -17.47 0.3 72.511
12803.708 0.301 72.479 0.954 -17.503 0.954 -17.503 0.301 72.479
12828.667 0.301 72.446 0.953 -17.536 0.953 -17.536 0.301 72.446
12853.625 0.302 72.414 0.953 -17.568 0.953 -17.568 0.302 72.414
12878.583 0.302 72.381 0.953 -17.601 0.953 -17.601 0.302 72.381
12903.542 0.303 72.348 0.953 -17.634 0.953 -17.634 0.303 72.348
12928.5 0.303 72.316 0.953 -17.666 0.953 -17.666 0.303 72.316
12953.458 0.304 72.283 0.953 -17.699 0.953 -17.699 0.304 72.283
12978.417 0.305 72.251 0.952 -17.731 0.952 -17.731 0.305 72.251
13003.375 0.305 72.218 0.952 -17.764 0.952 -17.764 0.305 72.218
13028.333 0.306 72.186 0.952 -17.797 0.952 -17.797 0.306 72.186
13053.292 0.306 72.153 0.952 -17.829 0.952 -17.829 0.306 72.153
13078.25 0.307 72.12 0.952 -17.862 0.952 -17.862 0.307 72.12
13103.208 0.307 72.088 0.952 -17.894 0.952 -17.894 0.307 72.088
13128.167 0.308 72.056 0.951 -17.927 0.951 -17.927 0.308 72.056
13153.125 0.308 72.023 0.951 -17.959 0.951 -17.959 0.308 72.023
13178.083 0.309 71.991 0.951 -17.992 0.951 -17.992 0.309 71.991
13203.042 0.309 71.958 0.951 -18.024 0.951 -18.024 0.309 71.958
13228 0.31 71.926 0.951 -18.057 0.951 -18.057 0.31 71.926
13252.958 0.31 71.893 0.95 -18.089 0.95 -18.089 0.31 71.893
13277.917 0.311 71.861 0.95 -18.122 0.95 -18.122 0.311 71.861
13302.875 0.312 71.828 0.95 -18.154 0.95 -18.154 0.312 71.828
13327.833 0.312 71.796 0.95 -18.186 0.95 -18.186 0.312 71.796
13352.792 0.313 71.764 0.95 -18.219 0.95 -18.219 0.313 71.764
13377.75 0.313 71.731 0.95 -18.251 0.95 -18.251 0.313 71.731
13402.708 0.314 71.699 0.949 -18.284 0.949 -18.284 0.314 71.699
13427.667 0.314 71.667 0.949 -18.316 0.949 -18.316 0.314 71.667
13452.625 0.315 71.634 0.949 -18.348 0.949 -18.348 0.315 71.634
13477.583 0.315 71.602 0.949 -18.381 0.949 -18.381 0.315 71.602
13502.542 0.316 71.57 0.949 -18.413 0.949 -18.413 0.316 71.57
13527.5 0.316 71.538 0.949 -18.445 0.949 -18.445 0.316 71.538
13552.458 0.317 71.505 0.948 -18.478 0.948 -18.478 0.317 71.505
13577.417 0.317 71.473 0.948 -18.51 0.948 -18.51 0.317 71.473
13602.375 0.318 71.441 0.948 -18.542 0.948 -18.542 0.318 71.441
13627.333 0.319 71.409 0.948 -18.574 0.948 -18.574 0.319 71.409
13652.292 0.319 71.376 0.948 -18.607 0.948 -18.607 0.319 71.376
13677.25 0.32 71.344 0.947 -18.639 0.947 -18.639 0.32 71.344
13702.208 0.32 71.312 0.947 -18.671 0.947 -18.671 0.32 71.312
13727.167 0.321 71.28 0.947 -18.703 0.947 -18.703 0.321 71.28
13752.125 0.321 71.248 0.947 -18.735 0.947 -18.735 0.321 71.248
13777.083 0.322 71.215 0.947 -18.768 0.947 -18.768 0.322 71.215
13802.042 0.322 71.183 0.947 -18.8 0.947 -18.8 0.322 71.183
13827 0.323 71.151 0.946 -18.832 0.946 -18.832 0.323 71.151
13851.958 0.323 71.119 0.946 -18.864 0.946 -18.864 0.323 71.119
13876.917 0.324 71.087 0.946 -18.896 0.946 -18.896 0.324 71.087
13901.875 0.324 71.055 0.946 -18.928 0.946 -18.928 0.324 71.055
13926.833 0.325 71.023 0.946 -18.96 0.946 -18.96 0.325 71.023
13951.792 0.325 70.991 0.945 -18.992 0.945 -18.992 0.325 70.991
13976.75 0.326 70.959 0.945 -19.025 0.945 -19.025 0.326 70.959
14001.708 0.327 70.927 0.945 -19.057 0.945 -19.057 0.327 70.927
14026.667 0.327 70.895 0.945 -19.089 0.945 -19.089 0.327 70.895
14051.625 0.328 70.863 0.945 -19.121 0.945 -19.121 0.328 70.863
14076.583 0.328 70.831 0.945 -19.153 0.945 -19.153 0.328 70.831
14101.542 0.329 70.799 0.944 -19.185 0.944 -19.185 0.329 70.799
14126.5 0.329 70.767 0.944 -19.217 0.944 -19.217 0.329 70.767
14151.458 0.33 70.735 0.944 -19.249 0.944 -19.249 0.33 70.735
14176.417 0.33 70.703 0.944 -19.281 0.944 -19.281 0.33 70.703
14201.375 0.331 70.671 0.944 -19.313 0.944 -19.313 0.331 70.671
14226.333 0.331 70.639 0.943 -19.345 0.943 -19.345 0.331 70.639
14251.292 0.332 70.607 0.943 -19.376 0.943 -19.376 0.332 70.607
14276.25 0.332 70.575 0.943 -19.408 0.943 -19.408 0.332 70.575
14301.208 0.333 70.543 0.943 -19.44 0.943 -19.44 0.333 70.543
14326.167 0.333 70.512 0.943 -19.472 0.943 -19.472 0.333 70.512
14351.125 0.334 70.48 0.943 -19.504 0.943 -19.504 0.334 70.48
14376.083 0.334 70.448 0.942 -19.536 0.942 -19.536 0.334 70.448
14401.042 0.335 70.416 0.942 -19.568 0.942 -19.568 0.335 70.416
14426 0.335 70.384 0.942 -19.6 0.942 -19.6 0.335 70.384
14450.958 0.336 70.353 0.942 -19.631 0.942 -19.631 0.336 70.353
14475.917 0.336 70.321 0.942 -19.663 0.942 -19.663 0.336 70.321
14500.875 0.337 70.289 0.941 -19.695 0.941 -19.695 0.337 70.289
14525.833 0.338 70.257 0.941 -19.727 0.941 -19.727 0.338 70.257
14550.792 0.338 70.226 0.941 -19.758 0.941 -19.758 0.338 70.226
14575.75 0.339 70.194 0.941 -19.79 0.941 -19.79 0.339 70.194
14600.708 0.339 70.162 0.941 -19.822 0.941 -19.822 0.339 70.162
14625.667 0.34 70.13 0.94 -19.854 0.94 -19.854 0.34 70.13
14650.625 0.34 70.099 0.94 -19.885 0.94 -19.885 0.34 70.099
14675.583 0.341 70.067 0.94 -19.917 0.94 -19.917 0.341 70.067
14700.542 0.341 70.035 0.94 -19.949 0.94 -19.949 0.341 70.035
14725.5 0.342 70.004 0.94 -19.98 0.94 -19.98 0.342 70.004
14750.458 0.342 69.972 0.94 -20.012 0.94 -20.012 0.342 69.972
14775.417 0.343 69.941 0.939 -20.044 0.939 -20.044 0.343 69.941
14800.375 0.343 69.909 0.939 -20.075 0.939 -20.075 0.343 69.909
14825.333 0.344 69.877 0.939 -20.107 0.939 -20.107 0.344 69.877
14850.292 0.344 69.846 0.939 -20.139 0.939 -20.139 0.344 69.846
14875.25 0.345 69.814 0.939 -20.17 0.939 -20.17 0.345 69.814
14900.208 0.345 69.783 0.938 -20.202 0.938 -20.202 0.345 69.783
14925.167 0.346 69.751 0.938 -20.233 0.938 -20.233 0.346 69.751
14950.125 0.346 69.72 0.938 -20.265 0.938 -20.265 0.346 69.72
14975.083 0.347 69.688 0.938 -20.296 0.938 -20.296 0.347 69.688
15000.042 0.347 69.657 0.938 -20.328 0.938 -20.328 0.347 69.657
15025 0.348 69.625 0.937 -20.359 0.937 -20.359 0.348 69.625
15049.958 0.348 69.594 0.937 -20.391 0.937 -20.391 0.348 69.594
15074.917 0.349 69.562 0.937 -20.422 0.937 -20.422 0.349 69.562
15099.875 0.349 69.531 0.937 -20.454 0.937 -20.454 0.349 69.531
15124.833 0.35 69.499 0.937 -20.485 0.937 -20.485 0.35 69.499
15149.792 0.35 69.468 0.936 -20.517 0.936 -20.517 0.35 69.468
15174.75 0.351 69.437 0.936 -20.548 0.936 -20.548 0.351 69.437
15199.708 0.352 69.405 0.936 -20.58 0.936 -20.58 0.352 69.405
15224.667 0.352 69.374 0.936 -20.611 0.936 -20.611 0.352 69.374
15249.625 0.353 69.342 0.936 -20.642 0.936 -20.642 0.353 69.342
15274.583 0.353 69.311 0.936 -20.674 0.936 -20.674 0.353 69.311
15299.542 0.354 69.28 0.935 -20.705 0.935 -20.705 0.354 69.28
15324.5 0.354 69.248 0.935 -20.736 0.935 -20.736 0.354 69.248
15349.458 0.355 69.217 0.935 -20.768 0.935 -20.768 0.355 69.217
15374.417 0.355 69.186 0.935 -20.799 0.935 -20.799 0.355 69.186
15399.375 0.356 69.155 0.935 -20.83 0.935 -20.83 0.356 69.155
15424.333 0.356 69.123 0.934 -20.862 0.934 -20.862 0.356 69.123
15449.292 0.357 69.092 0.934 -20.893 0.934 -20.893 0.357 69.092
15474.25 0.357 69.061 0.934 -20.924 0.934 -20.924 0.357 69.061
15499.208 0.358 69.03 0.934 -20.955 0.934 -20.955 0.358 69.03
15524.167 0.358 68.998 0.934 -20.987 0.934 -20.987 0.358 68.998
15549.125 0.359 68.967 0.933 -21.018 0.933 -21.018 0.359 68.967
15574.083 0.359 68.936 0.933 -21.049 0.933 -21.049 0.359 68.936
15599.042 0.36 68.905 0.933 -21.08 0.933 -21.08 0.36 68.905
15624 0.36 68.874 0.933 -21.111 0.933 -21.111 0.36 68.874
15648.958 0.361 68.843 0.933 -21.143 0.933 -21.143 0.361 68.843
15673.917 0.361 68.811 0.932 -21.174 0.932 -21.174 0.361 68.811
15698.875 0.362 68.78 0.932 -21.205 0.932 -21.205 0.362 68.78
15723.833 0.362 68.749 0.932 -21.236 0.932 -21.236 0.362 68.749
15748.792 0.363 68.718 0.932 -21.267 0.932 -21.267 0.363 68.718
15773.75 0.363 68.687 0.932 -21.298 0.932 -21.298 0.363 68.687
15798.708 0.364 68.656 0.931 -21.329 0.931 -21.329 0.364 68.656
15823.667 0.364 68.625 0.931 -21.36 0.931 -21.36 0.364 68.625
15848.625 0.365 68.594 0.931 -21.391 0.931 -21.391 0.365 68.594
15873.583 0.365 68.563 0.931 -21.422 0.931 -21.422 0.365 68.563
15898.542 0.366 68.532 0.931 -21.453 0.931 -21.453 0.366 68.532
15923.5 0.366 68.501 0.93 -21.484 0.93 -21.484 0.366 68.501
15948.458 0.367 68.47 0.93 -21.515 0.93 -21.515 0.367 68.47
15973.417 0.367 68.439 0.93 -21.546 0.93 -21.546 0.367 68.439
15998.375 0.368 68.408 0.93 -21.577 0.93 -21.577 0.368 68.408
16023.333 0.368 68.377 0.93 -21.608 0.93 -21.608 0.368 68.377
16048.292 0.369 68.346 0.929 -21.639 0.929 -21.639 0.369 68.346
16073.25 0.369 68.315 0.929 -21.67 0.929 -21.67 0.369 68.315
16098.208 0.37 68.284 0.929 -21.701 0.929 -21.701 0.37 68.284
16123.167 0.37 68.254 0.929 -21.732 0.929 -21.732 0.37 68.254
16148.125 0.371 68.223 0.929 -21.763 0.929 -21.763 0.371 68.223
16173.083 0.371 68.192 0.928 -21.794 0.928 -21.794 0.371 68.192
16198.042 0.372 68.161 0.928 -21.825 0.928 -21.825 0.372 68.161
16223 0.372 68.13 0.928 -21.855 0.928 -21.855 0.372 68.13
16247.958 0.373 68.099 0.928 -21.886 0.928 -21.886 0.373 68.099
16272.917 0.373 68.069 0.928 -21.917 0.928 -21.917 0.373 68.069
16297.875 0.374 68.038 0.927 -21.948 0.927 -21.948 0.374 68.038
16322.833 0.374 68.007 0.927 -21.979 0.927 -21.979 0.374 68.007
16347.792 0.375 67.976 0.927 -22.01 0.927 -22.01 0.375 67.976
16372.75 0.375 67.946 0.927 -22.04 0.927 -22.04 0.375 67.946
16397.708 0.376 67.915 0.927 -22.071 0.927 -22.071 0.376 67.915
16422.667 0.376 67.884 0.926 -22.102 0.926 -22.102 0.376 67.884
16447.625 0.377 67.853 0.926 -22.132 0.926 -22.132 0.377 67.853
16472.583 0.377 67.823 0.926 -22.163 0.926 -22.163 0.377 67.823
16497.542 0.378 67.792 0.926 -22.194 0.926 -22.194 0.378 67.792
16522.5 0.378 67.761 0.926 -22.225 0.926 -22.225 0.378 67.761
16547.458 0.379 67.731 0.925 -22.255 0.925 -22.255 0.379 67.731
16572.417 0.379 67.7 0.925 -22.286 0.925 -22.286 0.379 67.7
16597.375 0.38 67.669 0.925 -22.316 0.925 -22.316 0.38 67.669
16622.333 0.38 67.639 0.925 -22.347 0.925 -22.347 0.38 67.639
16647.292 0.381 67.608 0.925 -22.378 0.925 -22.378 0.381 67.608
16672.25 0.381 67.578 0.924 -22.408 0.924 -22.408 0.381 67.578
16697.208 0.382 67.547 0.924 -22.439 0.924 -22.439 0.382 67.547
16722.167 0.382 67.517 0.924 -22.469 0.924 -22.469 0.382 67.517
16747.125 0.383 67.486 0.924 -22.5 0.924 -22.5 0.383 67.486
16772.083 0.383 67.456 0.924 -22.531 0.924 -22.531 0.383 67.456
16797.042 0.384 67.425 0.923 -22.561 0.923 -22.561 0.384 67.425
16822 0.384 67.395 0.923 -22.592 0.923 -22.592 0.384 67.395
16846.958 0.385 67.364 0.923 -22.622 0.923 -22.622 0.385 67.364
16871.917 0.385 67.334 0.923 -22.653 0.923 -22.653 0.385 67.334
16896.875 0.386 67.303 0.923 -22.683 0.923 -22.683 0.386 67.303
16921.833 0.386 67.273 0.922 -22.713 0.922 -22.713 0.386 67.273
16946.792 0.387 67.242 0.922 -22.744 0.922 -22.744 0.387 67.242
16971.75 0.387 67.212 0.922 -22.774 0.922 -22.774 0.387 67.212
16996.708 0.388 67.182 0.922 -22.805 0.922 -22.805 0.388 67.182
17021.667 0.388 67.151 0.922 -22.835 0.922 -22.835 0.388 67.151
17046.625 0.389 67.121 0.921 -22.866 0.921 -22.866 0.389 67.121
17071.583 0.389 67.09 0.921 -22.896 0.921 -22.896 0.389 67.09
17096.542 0.39 67.06 0.921 -22.926 0.921 -22.926 0.39 67.06
17121.5 0.39 67.03 0.921 -22.957 0.921 -22.957 0.39 67.03
17146.458 0.391 67 0.921 -22.987 0.921 -22.987 0.391 67
17171.417 0.391 66.969 0.92 -23.017 0.92 -23.017 0.391 66.969
17196.375 0.391 66.939 0.92 -23.048 0.92 -23.048 0.391 66.939
17221.333 0.392 66.909 0.92 -23.078 0.92 -23.078 0.392 66.909
17246.292 0.392 66.878 0.92 -23.108 0.92 -23.108 0.392 66.878
17271.25 0.393 66.848 0.919 -23.138 0.919 -23.138 0.393 66.848
17296.208 0.393 66.818 0.919 -23.169 0.919 -23.169 0.393 66.818
17321.167 0.394 66.788 0.919 -23.199 0.919 -23.199 0.394 66.788
17346.125 0.394 66.758 0.919 -23.229 0.919 -23.229 0.394 66.758
17371.083 0.395 66.727 0.919 -23.259 0.919 -23.259 0.395 66.727
17396.042 0.395 66.697 0.918 -23.289 0.918 -23.289 0.395 66.697
17421 0.396 66.667 0.918 -23.32 0.918 -23.32 0.396 66.667
17445.958 0.396 66.637 0.918 -23.35 0.918 -23.35 0.396 66.637
17470.917 0.397 66.607 0.918 -23.38 0.918 -23.38 0.397 66.607
17495.875 0.397 66.577 0.918 -23.41 0.918 -23.41 0.397 66.577
17520.833 0.398 66.547 0.917 -23.44 0.917 -23.44 0.398 66.547
17545.792 0.398 66.517 0.917 -23.47 0.917 -23.47 0.398 66.517
17570.75 0.399 66.486 0.917 -23.5 0.917 -23.5 0.399 66.486
17595.708 0.399 66.456 0.917 -23.53 0.917 -23.53 0.399 66.456
17620.667 0.4 66.426 0.917 -23.56 0.917 -23.56 0.4 66.426
17645.625 0.4 66.396 0.916 -23.59 0.916 -23.59 0.4 66.396
17670.583 0.401 66.366 0.916 -23.621 0.916 -23.621 0.401 66.366
17695.542 0.401 66.336 0.916 -23.651 0.916 -23.651 0.401 66.336
17720.5 0.402 66.306 0.916 -23.681 0.916 -23.681 0.402 66.306
17745.458 0.402 66.276 0.915 -23.711 0.915 -23.711 0.402 66.276
17770.417 0.403 66.246 0.915 -23.74 0.915 -23.74 0.403 66.246
17795.375 0.403 66.216 0.915 -23.77 0.915 -23.77 0.403 66.216
17820.333 0.404 66.187 0.915 -23.8 0.915 -23.8 0.404 66.187
17845.292 0.404 66.157 0.915 -23.83 0.915 -23.83 0.404 66.157
17870.25 0.405 66.127 0.914 -23.86 0.914 -23.86 0.405 66.127
17895.208 0.405 66.097 0.914 -23.89 0.914 -23.89 0.405 66.097
17920.167 0.405 66.067 0.914 -23.92 0.914 -23.92 0.405 66.067
17945.125 0.406 66.037 0.914 -23.95 0.914 -23.95 0.406 66.037
17970.083 0.406 66.007 0.914 -23.98 0.914 -23.98 0.406 66.007
17995.042 0.407 65.977 0.913 -24.01 0.913 -24.01 0.407 65.977
18020 0.407 65.948 0.913 -24.039 0.913 -24.039 0.407 65.948
18044.958 0.408 65.918 0.913 -24.069 0.913 -24.069 0.408 65.918
18069.917 0.408 65.888 0.913 -24.099 0.913 -24.099 0.408 65.888
18094.875 0.409 65.858 0.913 -24.129 0.913 -24.129 0.409 65.858
18119.833 0.409 65.829 0.912 -24.159 0.912 -24.159 0.409 65.829
18144.792 0.41 65.799 0.912 -24.188 0.912 -24.188 0.41 65.799
18169.75 0.41 65.769 0.912 -24.218 0.912 -24.218 0.41 65.769
18194.708 0.411 65.739 0.912 -24.248 0.912 -24.248 0.411 65.739
18219.667 0.411 65.71 0.911 -24.278 0.911 -24.278 0.411 65.71
18244.625 0.412 65.68 0.911 -24.307 0.911 -24.307 0.412 65.68
18269.583 0.412 65.65 0.911 -24.337 0.911 -24.337 0.412 65.65
18294.542 0.413 65.621 0.911 -24.367 0.911 -24.367 0.413 65.621
18319.5 0.413 65.591 0.911 -24.396 0.911 -24.396 0.413 65.591
18344.458 0.414 65.561 0.91 -24.426 0.91 -24.426 0.414 65.561
18369.417 0.414 65.532 0.91 -24.456 0.91 -24.456 0.414 65.532
18394.375 0.414 65.502 0.91 -24.485 0.91 -24.485 0.414 65.502
18419.333 0.415 65.473 0.91 -24.515 0.91 -24.515 0.415 65.473
18444.292 0.415 65.443 0.91 -24.544 0.91 -24.544 0.415 65.443
18469.25 0.416 65.413 0.909 -24.574 0.909 -24.574 0.416 65.413
18494.208 0.416 65.384 0.909 -24.603 0.909 -24.603 0.416 65.384
18519.167 0.417 65.354 0.909 -24.633 0.909 -24.633 0.417 65.354
18544.125 0.417 65.325 0.909 -24.663 0.909 -24.663 0.417 65.325
18569.083 0.418 65.295 0.908 -24.692 0.908 -24.692 0.418 65.295
18594.042 0.418 65.266 0.908 -24.722 0.908 -24.722 0.418 65.266
18619 0.419 65.236 0.908 -24.751 0.908 -24.751 0.419 65.236
18643.958 0.419 65.207 0.908 -24.781 0.908 -24.781 0.419 65.207
18668.917 0.42 65.178 0.908 -24.81 0.908 -24.81 0.42 65.178
18693.875 0.42 65.148 0.907 -24.839 0.907 -24.839 0.42 65.148
18718.833 0.421 65.119 0.907 -24.869 0.907 -24.869 0.421 65.119
18743.792 0.421 65.089 0.907 -24.898 0.907 -24.898 0.421 65.089
18768.75 0.421 65.06 0.907 -24.928 0.907 -24.928 0.421 65.06
18793.708 0.422 65.031 0.907 -24.957 0.907 -24.957 0.422 65.031
18818.667 0.422 65.001 0.906 -24.986 0.906 -24.986 0.422 65.001
18843.625 0.423 64.972 0.906 -25.016 0.906 -25.016 0.423 64.972
18868.583 0.423 64.943 0.906 -25.045 0.906 -25.045 0.423 64.943
18893.542 0.424 64.913 0.906 -25.074 0.906 -25.074 0.424 64.913
18918.5 0.424 64.884 0.905 -25.104 0.905 -25.104 0.424 64.884
18943.458 0.425 64.855 0.905 -25.133 0.905 -25.133 0.425 64.855
18968.417 0.425 64.825 0.905 -25.162 0.905 -25.162 0.425 64.825
18993.375 0.426 64.796 0.905 -25.192 0.905 -25.192 0.426 64.796
19018.333 0.426 64.767 0.905 -25.221 0.905 -25.221 0.426 64.767
19043.292 0.427 64.738 0.904 -25.25 0.904 -25.25 0.427 64.738
19068.25 0.427 64.708 0.904 -25.279 0.904 -25.279 0.427 64.708
19093.208 0.427 64.679 0.904 -25.309 0.904 -25.309 0.427 64.679
19118.167 0.428 64.65 0.904 -25.338 0.904 -25.338 0.428 64.65
19143.125 0.428 64.621 0.903 -25.367 0.903 -25.367 0.428 64.621
19168.083 0.429 64.592 0.903 -25.396 0.903 -25.396 0.429 64.592
19193.042 0.429 64.563 0.903 -25.425 0.903 -25.425 0.429 64.563
19218 0.43 64.533 0.903 -25.454 0.903 -25.454 0.43 64.533
19242.958 0.43 64.504 0.903 -25.484 0.903 -25.484 0.43 64.504
19267.917 0.431 64.475 0.902 -25.513 0.902 -25.513 0.431 64.475
19292.875 0.431 64.446 0.902 -25.542 0.902 -25.542 0.431 64.446
19317.833 0.432 64.417 0.902 -25.571 0.902 -25.571 0.432 64.417
19342.792 0.432 64.388 0.902 -25.6 0.902 -25.6 0.432 64.388
19367.75 0.433 64.359 0.902 -25.629 0.902 -25.629 0.433 64.359
19392.708 0.433 64.33 0.901 -25.658 0.901 -25.658 0.433 64.33
19417.667 0.433 64.301 0.901 -25.687 0.901 -25.687 0.433 64.301
19442.625 0.434 64.272 0.901 -25.716 0.901 -25.716 0.434 64.272
19467.583 0.434 64.243 0.901 -25.745 0.901 -25.745 0.434 64.243
19492.542 0.435 64.214 0.9 -25.774 0.9 -25.774 0.435 64.214
19517.5 0.435 64.185 0.9 -25.803 0.9 -25.803 0.435 64.185
19542.458 0.436 64.156 0.9 -25.832 0.9 -25.832 0.436 64.156
19567.417 0.436 64.127 0.9 -25.861 0.9 -25.861 0.436 64.127
19592.375 0.437 64.098 0.9 -25.89 0.9 -25.89 0.437 64.098
19617.333 0.437 64.069 0.899 -25.919 0.899 -25.919 0.437 64.069
19642.292 0.438 64.041 0.899 -25.948 0.899 -25.948 0.438 64.041
19667.25 0.438 64.012 0.899 -25.977 0.899 -25.977 0.438 64.012
19692.208 0.438 63.983 0.899 -26.005 0.899 -26.005 0.438 63.983
19717.167 0.439 63.954 0.898 -26.034 0.898 -26.034 0.439 63.954
19742.125 0.439 63.925 0.898 -26.063 0.898 -26.063 0.439 63.925
19767.083 0.44 63.896 0.898 -26.092 0.898 -26.092 0.44 63.896
19792.042 0.44 63.868 0.898 -26.121 0.898 -26.121 0.44 63.868
19817 0.441 63.839 0.898 -26.149 0.898 -26.149 0.441 63.839
19841.958 0.441 63.81 0.897 -26.178 0.897 -26.178 0.441 63.81
19866.917 0.442 63.781 0.897 -26.207 0.897 -26.207 0.442 63.781
19891.875 0.442 63.753 0.897 -26.236 0.897 -26.236 0.442 63.753
19916.833 0.443 63.724 0.897 -26.265 0.897 -26.265 0.443 63.724
19941.792 0.443 63.695 0.896 -26.293 0.896 -26.293 0.443 63.695
19966.75 0.443 63.666 0.896 -26.322 0.896 -26.322 0.443 63.666
19991.708 0.444 63.638 0.896 -26.351 0.896 -26.351 0.444 63.638
20016.667 0.444 63.609 0.896 -26.379 0.896 -26.379 0.444 63.609
20041.625 0.445 63.58 0.896 -26.408 0.896 -26.408 0.445 63.58
20066.583 0.445 63.552 0.895 -26.437 0.895 -26.437 0.445 63.552
20091.542 0.446 63.523 0.895 -26.465 0.895 -26.465 0.446 63.523
20116.5 0.446 63.495 0.895 -26.494 0.895 -26.494 0.446 63.495
20141.458 0.447 63.466 0.895 -26.522 0.895 -26.522 0.447 63.466
20166.417 0.447 63.437 0.894 -26.551 0.894 -26.551 0.447 63.437
20191.375 0.447 63.409 0.894 -26.58 0.894 -26.58 0.447 63.409
20216.333 0.448 63.38 0.894 -26.608 0.894 -26.608 0.448 63.38
20241.292 0.448 63.352 0.894 -26.637 0.894 -26.637 0.448 63.352
20266.25 0.449 63.323 0.894 -26.665 0.894 -26.665 0.449 63.323
20291.208 0.449 63.295 0.893 -26.694 0.893 -26.694 0.449 63.295
20316.167 0.45 63.266 0.893 -26.722 0.893 -26.722 0.45 63.266
20341.125 0.45 63.238 0.893 -26.751 0.893 -26.751 0.45 63.238
20366.083 0.451 63.209 0.893 -26.779 0.893 -26.779 0.451 63.209
20391.042 0.451 63.181 0.892 -26.808 0.892 -26.808 0.451 63.181
20416 0.451 63.152 0.892 -26.836 0.892 -26.836 0.451 63.152
20440.958 0.452 63.124 0.892 -26.865 0.892 -26.865 0.452 63.124
20465.917 0.452 63.096 0.892 -26.893 0.892 -26.893 0.452 63.096
20490.875 0.453 63.067 0.892 -26.921 0.892 -26.921 0.453 63.067
20515.833 0.453 63.039 0.891 -26.95 0.891 -26.95 0.453 63.039
20540.792 0.454 63.01 0.891 -26.978 0.891 -26.978 0.454 63.01
20565.75 0.454 62.982 0.891 -27.007 0.891 -27.007 0.454 62.982
20590.708 0.455 62.954 0.891 -27.035 0.891 -27.035 0.455 62.954
20615.667 0.455 62.926 0.89 -27.063 0.89 -27.063 0.455 62.926
20640.625 0.455 62.897 0.89 -27.092 0.89 -27.092 0.455 62.897
20665.583 0.456 62.869 0.89 -27.12 0.89 -27.12 0.456 62.869
20690.542 0.456 62.841 0.89 -27.148 0.89 -27.148 0.456 62.841
20715.5 0.457 62.812 0.89 -27.176 0.89 -27.176 0.457 62.812
20740.458 0.457 62.784 0.889 -27.205 0.889 -27.205 0.457 62.784
20765.417 0.458 62.756 0.889 -27.233 0.889 -27.233 0.458 62.756
20790.375 0.458 62.728 0.889 -27.261 0.889 -27.261 0.458 62.728
20815.333 0.458 62.7 0.889 -27.289 0.889 -27.289 0.458 62.7
20840.292 0.459 62.671 0.888 -27.318 0.888 -27.318 0.459 62.671
20865.25 0.459 62.643 0.888 -27.346 0.888 -27.346 0.459 62.643
20890.208 0.46 62.615 0.888 -27.374 0.888 -27.374 0.46 62.615
20915.167 0.46 62.587 0.888 -27.402 0.888 -27.402 0.46 62.587
20940.125 0.461 62.559 0.887 -27.43 0.887 -27.43 0.461 62.559
20965.083 0.461 62.531 0.887 -27.458 0.887 -27.458 0.461 62.531
20990.042 0.462 62.503 0.887 -27.486 0.887 -27.486 0.462 62.503
21015 0.462 62.474 0.887 -27.514 0.887 -27.514 0.462 62.474
21039.958 0.462 62.446 0.887 -27.543 0.887 -27.543 0.462 62.446
21064.917 0.463 62.418 0.886 -27.571 0.886 -27.571 0.463 62.418
21089.875 0.463 62.39 0.886 -27.599 0.886 -27.599 0.463 62.39
21114.833 0.464 62.362 0.886 -27.627 0.886 -27.627 0.464 62.362
21139.792 0.464 62.334 0.886 -27.655 0.886 -27.655 0.464 62.334
21164.75 0.465 62.306 0.885 -27.683 0.885 -27.683 0.465 62.306
21189.708 0.465 62.278 0.885 -27.711 0.885 -27.711 0.465 62.278
21214.667 0.465 62.25 0.885 -27.739 0.885 -27.739 0.465 62.25
21239.625 0.466 62.222 0.885 -27.767 0.885 -27.767 0.466 62.222
21264.583 0.466 62.194 0.885 -27.795 0.885 -27.795 0.466 62.194
21289.542 0.467 62.167 0.884 -27.823 0.884 -27.823 0.467 62.167
21314.5 0.467 62.139 0.884 -27.851 0.884 -27.851 0.467 62.139
21339.458 0.468 62.111 0.884 -27.878 0.884 -27.878 0.468 62.111
21364.417 0.468 62.083 0.884 -27.906 0.884 -27.906 0.468 62.083
21389.375 0.468 62.055 0.883 -27.934 0.883 -27.934 0.468 62.055
21414.333 0.469 62.027 0.883 -27.962 0.883 -27.962 0.469 62.027
21439.292 0.469 61.999 0.883 -27.99 0.883 -27.99 0.469 61.999
21464.25 0.47 61.971 0.883 -28.018 0.883 -28.018 0.47 61.971
21489.208 0.47 61.944 0.882 -28.046 0.882 -28.046 0.47 61.944
21514.167 0.471 61.916 0.882 -28.073 0.882 -28.073 0.471 61.916
21539.125 0.471 61.888 0.882 -28.101 0.882 -28.101 0.471 61.888
21564.083 0.471 61.86 0.882 -28.129 0.882 -28.129 0.471 61.86
21589.042 0.472 61.833 0.882 -28.157 0.882 -28.157 0.472 61.833
21614 0.472 61.805 0.881 -28.184 0.881 -28.184 0.472 61.805
21638.958 0.473 61.777 0.881 -28.212 0.881 -28.212 0.473 61.777
21663.917 0.473 61.749 0.881 -28.24 0.881 -28.24 0.473 61.749
21688.875 0.474 61.722 0.881 -28.268 0.881 -28.268 0.474 61.722
21713.833 0.474 61.694 0.88 -28.295 0.88 -28.295 0.474 61.694
21738.792 0.474 61.666 0.88 -28.323 0.88 -28.323 0.474 61.666
21763.75 0.475 61.639 0.88 -28.351 0.88 -28.351 0.475 61.639
21788.708 0.475 61.611 0.88 -28.378 0.88 -28.378 0.475 61.611
21813.667 0.476 61.584 0.88 -28.406 0.88 -28.406 0.476 61.584
21838.625 0.476 61.556 0.879 -28.433 0.879 -28.433 0.476 61.556
21863.583 0.477 61.528 0.879 -28.461 0.879 -28.461 0.477 61.528
21888.542 0.477 61.501 0.879 -28.489 0.879 -28.489 0.477 61.501
21913.5 0.477 61.473 0.879 -28.516 0.879 -28.516 0.477 61.473
21938.458 0.478 61.446 0.878 -28.544 0.878 -28.544 0.478 61.446
21963.417 0.478 61.418 0.878 -28.571 0.878 -28.571 0.478 61.418
21988.375 0.479 61.391 0.878 -28.599 0.878 -28.599 0.479 61.391
22013.333 0.479 61.363 0.878 -28.626 0.878 -28.626 0.479 61.363
22038.292 0.48 61.336 0.877 -28.654 0.877 -28.654 0.48 61.336
22063.25 0.48 61.308 0.877 -28.681 0.877 -28.681 0.48 61.308
22088.208 0.48 61.281 0.877 -28.709 0.877 -28.709 0.48 61.281
22113.167 0.481 61.253 0.877 -28.736 0.877 -28.736 0.481 61.253
22138.125 0.481 61.226 0.877 -28.764 0.877 -28.764 0.481 61.226
22163.083 0.482 61.198 0.876 -28.791 0.876 -28.791 0.482 61.198
22188.042 0.482 61.171 0.876 -28.819 0.876 -28.819 0.482 61.171
22213 0.482 61.144 0.876 -28.846 0.876 -28.846 0.482 61.144
22237.958 0.483 61.116 0.876 -28.873 0.876 -28.873 0.483 61.116
22262.917 0.483 61.089 0.875 -28.901 0.875 -28.901 0.483 61.089
22287.875 0.484 61.062 0.875 -28.928 0.875 -28.928 0.484 61.062
22312.833 0.484 61.034 0.875 -28.955 0.875 -28.955 0.484 61.034
22337.792 0.485 61.007 0.875 -28.983 0.875 -28.983 0.485 61.007
22362.75 0.485 60.98 0.874 -29.01 0.874 -29.01 0.485 60.98
22387.708 0.485 60.952 0.874 -29.037 0.874 -29.037 0.485 60.952
22412.667 0.486 60.925 0.874 -29.065 0.874 -29.065 0.486 60.925
22437.625 0.486 60.898 0.874 -29.092 0.874 -29.092 0.486 60.898
22462.583 0.487 60.871 0.874 -29.119 0.874 -29.119 0.487 60.871
22487.542 0.487 60.843 0.873 -29.146 0.873 -29.146 0.487 60.843
22512.5 0.487 60.816 0.873 -29.173 0.873 -29.173 0.487 60.816
22537.458 0.488 60.789 0.873 -29.201 0.873 -29.201 0.488 60.789
22562.417 0.488 60.762 0.873 -29.228 0.873 -29.228 0.488 60.762
22587.375 0.489 60.735 0.872 -29.255 0.872 -29.255 0.489 60.735
22612.333 0.489 60.708 0.872 -29.282 0.872 -29.282 0.489 60.708
22637.292 0.49 60.68 0.872 -29.309 0.872 -29.309 0.49 60.68
22662.25 0.49 60.653 0.872 -29.336 0.872 -29.336 0.49 60.653
22687.208 0.49 60.626 0.871 -29.364 0.871 -29.364 0.49 60.626
22712.167 0.491 60.599 0.871 -29.391 0.871 -29.391 0.491 60.599
22737.125 0.491 60.572 0.871 -29.418 0.871 -29.418 0.491 60.572
22762.083 0.492 60.545 0.871 -29.445 0.871 -29.445 0.492 60.545
22787.042 0.492 60.518 0.871 -29.472 0.871 -29.472 0.492 60.518
22812 0.492 60.491 0.87 -29.499 0.87 -29.499 0.492 60.491
22836.958 0.493 60.464 0.87 -29.526 0.87 -29.526 0.493 60.464
22861.917 0.493 60.437 0.87 -29.553 0.87 -29.553 0.493 60.437
22886.875 0.494 60.41 0.87 -29.58 0.87 -29.58 0.494 60.41
22911.833 0.494 60.383 0.869 -29.607 0.869 -29.607 0.494 60.383
22936.792 0.494 60.356 0.869 -29.634 0.869 -29.634 0.494 60.356
22961.75 0.495 60.329 0.869 -29.661 0.869 -29.661 0.495 60.329
22986.708 0.495 60.302 0.869 -29.688 0.869 -29.688 0.495 60.302
23011.667 0.496 60.275 0.868 -29.715 0.868 -29.715 0.496 60.275
23036.625 0.496 60.248 0.868 -29.742 0.868 -29.742 0.496 60.248
23061.583 0.496 60.221 0.868 -29.769 0.868 -29.769 0.496 60.221
23086.542 0.497 60.194 0.868 -29.795 0.868 -29.795 0.497 60.194
23111.5 0.497 60.168 0.867 -29.822 0.867 -29.822 0.497 60.168
23136.458 0.498 60.141 0.867 -29.849 0.867 -29.849 0.498 60.141
23161.417 0.498 60.114 0.867 -29.876 0.867 -29.876 0.498 60.114
23186.375 0.499 60.087 0.867 -29.903 0.867 -29.903 0.499 60.087
23211.333 0.499 60.06 0.867 -29.93 0.867 -29.93 0.499 60.06
23236.292 0.499 60.034 0.866 -29.956 0.866 -29.956 0.499 60.034
23261.25 0.5 60.007 0.866 -29.983 0.866 -29.983 0.5 60.007
23286.208 0.5 59.98 0.866 -30.01 0.866 -30.01 0.5 59.98
23311.167 0.501 59.953 0.866 -30.037 0.866 -30.037 0.501 59.953
23336.125 0.501 59.927 0.865 -30.063 0.865 -30.063 0.501 59.927
23361.083 0.501 59.9 0.865 -30.09 0.865 -30.09 0.501 59.9
23386.042 0.502 59.873 0.865 -30.117 0.865 -30.117 0.502 59.873
23411 0.502 59.846 0.865 -30.144 0.865 -30.144 0.502 59.846
23435.958 0.503 59.82 0.864 -30.17 0.864 -30.17 0.503 59.82
23460.917 0.503 59.793 0.864 -30.197 0.864 -30.197 0.503 59.793
23485.875 0.503 59.767 0.864 -30.224 0.864 -30.224 0.503 59.767
23510.833 0.504 59.74 0.864 -30.25 0.864 -30.25 0.504 59.74
23535.792 0.504 59.713 0.864 -30.277 0.864 -30.277 0.504 59.713
23560.75 0.505 59.687 0.863 -30.303 0.863 -30.303 0.505 59.687
23585.708 0.505 59.66 0.863 -30.33 0.863 -30.33 0.505 59.66
23610.667 0.505 59.634 0.863 -30.357 0.863 -30.357 0.505 59.634
23635.625 0.506 59.607 0.863 -30.383 0.863 -30.383 0.506 59.607
23660.583 0.506 59.58 0.862 -30.41 0.862 -30.41 0.506 59.58
23685.542 0.507 59.554 0.862 -30.436 0.862 -30.436 0.507 59.554
23710.5 0.507 59.527 0.862 -30.463 0.862 -30.463 0.507 59.527
23735.458 0.507 59.501 0.862 -30.489 0.862 -30.489 0.507 59.501
23760.417 0.508 59.474 0.861 -30.516 0.861 -30.516 0.508 59.474
23785.375 0.508 59.448 0.861 -30.542 0.861 -30.542 0.508 59.448
23810.333 0.509 59.422 0.861 -30.569 0.861 -30.569 0.509 59.422
23835.292 0.509 59.395 0.861 -30.595 0.861 -30.595 0.509 59.395
23860.25 0.509 59.369 0.86 -30.622 0.86 -30.622 0.509 59.369
23885.208 0.51 59.342 0.86 -30.648 0.86 -30.648 0.51 59.342
23910.167 0.51 59.316 0.86 -30.674 0.86 -30.674 0.51 59.316
23935.125 0.511 59.29 0.86 -30.701 0.86 -30.701 0.511 59.29
23960.083 0.511 59.263 0.86 -30.727 0.86 -30.727 0.511 59.263
23985.042 0.511 59.237 0.859 -30.754 0.859 -30.754 0.511 59.237
24010 0.512 59.21 0.859 -30.78 0.859 -30.78 0.512 59.21
24034.958 0.512 59.184 0.859 -30.806 0.859 -30.806 0.512 59.184
24059.917 0.513 59.158 0.859 -30.832 0.859 -30.832 0.513 59.158
24084.875 0.513 59.132 0.858 -30.859 0.858 -30.859 0.513 59.132
24109.833 0.513 59.105 0.858 -30.885 0.858 -30.885 0.513 59.105
24134.792 0.514 59.079 0.858 -30.911 0.858 -30.911 0.514 59.079
24159.75 0.514 59.053 0.858 -30.938 0.858 -30.938 0.514 59.053
24184.708 0.514 59.027 0.857 -30.964 0.857 -30.964 0.514 59.027
24209.667 0.515 59 0.857 -30.99 0.857 -30.99 0.515 59
24234.625 0.515 58.974 0.857 -31.016 0.857 -31.016 0.515 58.974
24259.583 0.516 58.948 0.857 -31.042 0.857 -31.042 0.516 58.948
24284.542 0.516 58.922 0.856 -31.069 0.856 -31.069 0.516 58.922
24309.5 0.516 58.896 0.856 -31.095 0.856 -31.095 0.516 58.896
24334.458 0.517 58.869 0.856 -31.121 0.856 -31.121 0.517 58.869
24359.417 0.517 58.843 0.856 -31.147 0.856 -31.147 0.517 58.843
24384.375 0.518 58.817 0.856 -31.173 0.856 -31.173 0.518 58.817
24409.333 0.518 58.791 0.855 -31.199 0.855 -31.199 0.518 58.791
24434.292 0.518 58.765 0.855 -31.225 0.855 -31.225 0.518 58.765
24459.25 0.519 58.739 0.855 -31.252 0.855 -31.252 0.519 58.739
24484.208 0.519 58.713 0.855 -31.278 0.855 -31.278 0.519 58.713
24509.167 0.52 58.687 0.854 -31.304 0.854 -31.304 0.52 58.687
24534.125 0.52 58.661 0.854 -31.33 0.854 -31.33 0.52 58.661
24559.083 0.52 58.635 0.854 -31.356 0.854 -31.356 0.52 58.635
24584.042 0.521 58.609 0.854 -31.382 0.854 -31.382 0.521 58.609
24609 0.521 58.583 0.853 -31.408 0.853 -31.408 0.521 58.583
24633.958 0.522 58.557 0.853 -31.434 0.853 -31.434 0.522 58.557
24658.917 0.522 58.531 0.853 -31.46 0.853 -31.46 0.522 58.531
24683.875 0.522 58.505 0.853 -31.486 0.853 -31.486 0.522 58.505
24708.833 0.523 58.479 0.852 -31.512 0.852 -31.512 0.523 58.479
24733.792 0.523 58.453 0.852 -31.537 0.852 -31.537 0.523 58.453
24758.75 0.523 58.427 0.852 -31.563 0.852 -31.563 0.523 58.427
24783.708 0.524 58.401 0.852 -31.589 0.852 -31.589 0.524 58.401
24808.667 0.524 58.376 0.852 -31.615 0.852 -31.615 0.524 58.376
24833.625 0.525 58.35 0.851 -31.641 0.851 -31.641 0.525 58.35
24858.583 0.525 58.324 0.851 -31.667 0.851 -31.667 0.525 58.324
24883.542 0.525 58.298 0.851 -31.693 0.851 -31.693 0.525 58.298
24908.5 0.526 58.272 0.851 -31.718 0.851 -31.718 0.526 58.272
24933.458 0.526 58.246 0.85 -31.744 0.85 -31.744 0.526 58.246
24958.417 0.527 58.221 0.85 -31.77 0.85 -31.77 0.527 58.221
24983.375 0.527 58.195 0.85 -31.796 0.85 -31.796 0.527 58.195
25008.333 0.527 58.169 0.85 -31.822 0.85 -31.822 0.527 58.169
25033.292 0.528 58.143 0.849 -31.847 0.849 -31.847 0.528 58.143
25058.25 0.528 58.118 0.849 -31.873 0.849 -31.873 0.528 58.118
25083.208 0.528 58.092 0.849 -31.899 0.849 -31.899 0.528 58.092
25108.167 0.529 58.066 0.849 -31.925 0.849 -31.925 0.529 58.066
25133.125 0.529 58.041 0.848 -31.95 0.848 -31.95 0.529 58.041
25158.083 0.53 58.015 0.848 -31.976 0.848 -31.976 0.53 58.015
25183.042 0.53 57.989 0.848 -32.002 0.848 -32.002 0.53 57.989
25208 0.53 57.964 0.848 -32.027 0.848 -32.027 0.53 57.964
25232.958 0.531 57.938 0.847 -32.053 0.847 -32.053 0.531 57.938
25257.917 0.531 57.912 0.847 -32.078 0.847 -32.078 0.531 57.912
25282.875 0.531 57.887 0.847 -32.104 0.847 -32.104 0.531 57.887
25307.833 0.532 57.861 0.847 -32.13 0.847 -32.13 0.532 57.861
25332.792 0.532 57.836 0.847 -32.155 0.847 -32.155 0.532 57.836
25357.75 0.533 57.81 0.846 -32.181 0.846 -32.181 0.533 57.81
25382.708 0.533 57.785 0.846 -32.206 0.846 -32.206 0.533 57.785
25407.667 0.533 57.759 0.846 -32.232 0.846 -32.232 0.533 57.759
25432.625 0.534 57.734 0.846 -32.257 0.846 -32.257 0.534 57.734
25457.583 0.534 57.708 0.845 -32.283 0.845 -32.283 0.534 57.708
25482.542 0.534 57.683 0.845 -32.308 0.845 -32.308 0.534 57.683
25507.5 0.535 57.657 0.845 -32.334 0.845 -32.334 0.535 57.657
25532.458 0.535 57.632 0.845 -32.359 0.845 -32.359 0.535 57.632
25557.417 0.536 57.606 0.844 -32.385 0.844 -32.385 0.536 57.606
25582.375 0.536 57.581 0.844 -32.41 0.844 -32.41 0.536 57.581
25607.333 0.536 57.555 0.844 -32.436 0.844 -32.436 0.536 57.555
25632.292 0.537 57.53 0.844 -32.461 0.844 -32.461 0.537 57.53
25657.25 0.537 57.505 0.843 -32.486 0.843 -32.486 0.537 57.505
25682.208 0.537 57.479 0.843 -32.512 0.843 -32.512 0.537 57.479
25707.167 0.538 57.454 0.843 -32.537 0.843 -32.537 0.538 57.454
25732.125 0.538 57.429 0.843 -32.562 0.843 -32.562 0.538 57.429
25757.083 0.539 57.403 0.842 -32.588 0.842 -32.588 0.539 57.403
25782.042 0.539 57.378 0.842 -32.613 0.842 -32.613 0.539 57.378
25807 0.539 57.353 0.842 -32.638 0.842 -32.638 0.539 57.353
25831.958 0.54 57.327 0.842 -32.664 0.842 -32.664 0.54 57.327
25856.917 0.54 57.302 0.842 -32.689 0.842 -32.689 0.54 57.302
25881.875 0.54 57.277 0.841 -32.714 0.841 -32.714 0.54 57.277
25906.833 0.541 57.252 0.841 -32.739 0.841 -32.739 0.541 57.252
25931.792 0.541 57.226 0.841 -32.765 0.841 -32.765 0.541 57.226
25956.75 0.542 57.201 0.841 -32.79 0.841 -32.79 0.542 57.201
25981.708 0.542 57.176 0.84 -32.815 0.84 -32.815 0.542 57.176
26006.667 0.542 57.151 0.84 -32.84 0.84 -32.84 0.542 57.151
26031.625 0.543 57.126 0.84 -32.865 0.84 -32.865 0.543 57.126
26056.583 0.543 57.101 0.84 -32.89 0.84 -32.89 0.543 57.101
26081.542 0.543 57.075 0.839 -32.916 0.839 -32.916 0.543 57.075
26106.5 0.544 57.05 0.839 -32.941 0.839 -32.941 0.544 57.05
26131.458 0.544 57.025 0.839 -32.966 0.839 -32.966 0.544 57.025
26156.417 0.545 57 0.839 -32.991 0.839 -32.991 0.545 57
26181.375 0.545 56.975 0.838 -33.016 0.838 -33.016 0.545 56.975
26206.333 0.545 56.95 0.838 -33.041 0.838 -33.041 0.545 56.95
26231.292 0.546 56.925 0.838 -33.066 0.838 -33.066 0.546 56.925
26256.25 0.546 56.9 0.838 -33.091 0.838 -33.091 0.546 56.9
26281.208 0.546 56.875 0.837 -33.116 0.837 -33.116 0.546 56.875
26306.167 0.547 56.85 0.837 -33.141 0.837 -33.141 0.547 56.85
26331.125 0.547 56.825 0.837 -33.166 0.837 -33.166 0.547 56.825
26356.083 0.547 56.8 0.837 -33.191 0.837 -33.191 0.547 56.8
26381.042 0.548 56.775 0.837 -33.216 0.837 -33.216 0.548 56.775
26406 0.548 56.75 0.836 -33.241 0.836 -33.241 0.548 56.75
26430.958 0.549 56.725 0.836 -33.266 0.836 -33.266 0.549 56.725
26455.917 0.549 56.7 0.836 -33.291 0.836 -33.291 0.549 56.7
26480.875 0.549 56.675 0.836 -33.316 0.836 -33.316 0.549 56.675
26505.833 0.55 56.65 0.835 -33.341 0.835 -33.341 0.55 56.65
26530.792 0.55 56.626 0.835 -33.366 0.835 -33.366 0.55 56.626
26555.75 0.55 56.601 0.835 -33.391 0.835 -33.391 0.55 56.601
26580.708 0.551 56.576 0.835 -33.415 0.835 -33.415 0.551 56.576
26605.667 0.551 56.551 0.834 -33.44 0.834 -33.44 0.551 56.551
26630.625 0.551 56.526 0.834 -33.465 0.834 -33.465 0.551 56.526
26655.583 0.552 56.501 0.834 -33.49 0.834 -33.49 0.552 56.501
26680.542 0.552 56.477 0.834 -33.515 0.834 -33.515 0.552 56.477
26705.5 0.553 56.452 0.833 -33.539 0.833 -33.539 0.553 56.452
26730.458 0.553 56.427 0.833 -33.564 0.833 -33.564 0.553 56.427
26755.417 0.553 56.402 0.833 -33.589 0.833 -33.589 0.553 56.402
26780.375 0.554 56.378 0.833 -33.614 0.833 -33.614 0.554 56.378
26805.333 0.554 56.353 0.832 -33.638 0.832 -33.638 0.554 56.353
26830.292 0.554 56.328 0.832 -33.663 0.832 -33.663 0.554 56.328
26855.25 0.555 56.304 0.832 -33.688 0.832 -33.688 0.555 56.304
26880.208 0.555 56.279 0.832 -33.712 0.832 -33.712 0.555 56.279
26905.167 0.555 56.254 0.832 -33.737 0.832 -33.737 0.555 56.254
26930.125 0.556 56.23 0.831 -33.762 0.831 -33.762 0.556 56.23
26955.083 0.556 56.205 0.831 -33.786 0.831 -33.786 0.556 56.205
26980.042 0.556 56.18 0.831 -33.811 0.831 -33.811 0.556 56.18
27005 0.557 56.156 0.831 -33.836 0.831 -33.836 0.557 56.156
27029.958 0.557 56.131 0.83 -33.86 0.83 -33.86 0.557 56.131
27054.917 0.558 56.107 0.83 -33.885 0.83 -33.885 0.558 56.107
27079.875 0.558 56.082 0.83 -33.909 0.83 -33.909 0.558 56.082
27104.833 0.558 56.057 0.83 -33.934 0.83 -33.934 0.558 56.057
27129.792 0.559 56.033 0.829 -33.959 0.829 -33.959 0.559 56.033
27154.75 0.559 56.008 0.829 -33.983 0.829 -33.983 0.559 56.008
27179.708 0.559 55.984 0.829 -34.008 0.829 -34.008 0.559 55.984
27204.667 0.56 55.959 0.829 -34.032 0.829 -34.032 0.56 55.959
27229.625 0.56 55.935 0.828 -34.057 0.828 -34.057 0.56 55.935
27254.583 0.56 55.91 0.828 -34.081 0.828 -34.081 0.56 55.91
27279.542 0.561 55.886 0.828 -34.105 0.828 -34.105 0.561 55.886
27304.5 0.561 55.862 0.828 -34.13 0.828 -34.13 0.561 55.862
27329.458 0.561 55.837 0.827 -34.154 0.827 -34.154 0.561 55.837
27354.417 0.562 55.813 0.827 -34.179 0.827 -34.179 0.562 55.813
27379.375 0.562 55.788 0.827 -34.203 0.827 -34.203 0.562 55.788
27404.333 0.562 55.764 0.827 -34.227 0.827 -34.227 0.562 55.764
27429.292 0.563 55.74 0.826 -34.252 0.826 -34.252 0.563 55.74
27454.25 0.563 55.715 0.826 -34.276 0.826 -34.276 0.563 55.715
27479.208 0.564 55.691 0.826 -34.301 0.826 -34.301 0.564 55.691
27504.167 0.564 55.667 0.826 -34.325 0.826 -34.325 0.564 55.667
27529.125 0.564 55.642 0.826 -34.349 0.826 -34.349 0.564 55.642
27554.083 0.565 55.618 0.825 -34.373 0.825 -34.373 0.565 55.618
27579.042 0.565 55.594 0.825 -34.398 0.825 -34.398 0.565 55.594
27604 0.565 55.57 0.825 -34.422 0.825 -34.422 0.565 55.57
27628.958 0.566 55.545 0.825 -34.446 0.825 -34.446 0.566 55.545
27653.917 0.566 55.521 0.824 -34.471 0.824 -34.471 0.566 55.521
27678.875 0.566 55.497 0.824 -34.495 0.824 -34.495 0.566 55.497
27703.833 0.567 55.473 0.824 -34.519 0.824 -34.519 0.567 55.473
27728.792 0.567 55.448 0.824 -34.543 0.824 -34.543 0.567 55.448
27753.75 0.567 55.424 0.823 -34.567 0.823 -34.567 0.567 55.424
27778.708 0.568 55.4 0.823 -34.592 0.823 -34.592 0.568 55.4
27803.667 0.568 55.376 0.823 -34.616 0.823 -34.616 0.568 55.376
27828.625 0.568 55.352 0.823 -34.64 0.823 -34.64 0.568 55.352
27853.583 0.569 55.328 0.822 -34.664 0.822 -34.664 0.569 55.328
27878.542 0.569 55.304 0.822 -34.688 0.822 -34.688 0.569 55.304
27903.5 0.569 55.28 0.822 -34.712 0.822 -34.712 0.569 55.28
27928.458 0.57 55.255 0.822 -34.736 0.822 -34.736 0.57 55.255
27953.417 0.57 55.231 0.821 -34.76 0.821 -34.76 0.57 55.231
27978.375 0.57 55.207 0.821 -34.784 0.821 -34.784 0.57 55.207
28003.333 0.571 55.183 0.821 -34.808 0.821 -34.808 0.571 55.183
28028.292 0.571 55.159 0.821 -34.832 0.821 -34.832 0.571 55.159
28053.25 0.572 55.135 0.821 -34.856 0.821 -34.856 0.572 55.135
28078.208 0.572 55.111 0.82 -34.88 0.82 -34.88 0.572 55.111
28103.167 0.572 55.087 0.82 -34.904 0.82 -34.904 0.572 55.087
28128.125 0.573 55.063 0.82 -34.928 0.82 -34.928 0.573 55.063
28153.083 0.573 55.039 0.82 -34.952 0.82 -34.952 0.573 55.039
28178.042 0.573 55.015 0.819 -34.976 0.819 -34.976 0.573 55.015
28203 0.574 54.992 0.819 -35 0.819 -35 0.574 54.992
28227.958 0.574 54.968 0.819 -35.024 0.819 -35.024 0.574 54.968
28252.917 0.574 54.944 0.819 -35.048 0.819 -35.048 0.574 54.944
28277.875 0.575 54.92 0.818 -35.072 0.818 -35.072 0.575 54.92
28302.833 0.575 54.896 0.818 -35.096 0.818 -35.096 0.575 54.896
28327.792 0.575 54.872 0.818 -35.12 0.818 -35.12 0.575 54.872
28352.75 0.576 54.848 0.818 -35.143 0.818 -35.143 0.576 54.848
28377.708 0.576 54.824 0.817 -35.167 0.817 -35.167 0.576 54.824
28402.667 0.576 54.801 0.817 -35.191 0.817 -35.191 0.576 54.801
28427.625 0.577 54.777 0.817 -35.215 0.817 -35.215 0.577 54.777
28452.583 0.577 54.753 0.817 -35.239 0.817 -35.239 0.577 54.753
28477.542 0.577 54.729 0.816 -35.262 0.816 -35.262 0.577 54.729
28502.5 0.578 54.706 0.816 -35.286 0.816 -35.286 0.578 54.706
28527.458 0.578 54.682 0.816 -35.31 0.816 -35.31 0.578 54.682
28552.417 0.578 54.658 0.816 -35.334 0.816 -35.334 0.578 54.658
28577.375 0.579 54.634 0.815 -35.357 0.815 -35.357 0.579 54.634
28602.333 0.579 54.611 0.815 -35.381 0.815 -35.381 0.579 54.611
28627.292 0.579 54.587 0.815 -35.405 0.815 -35.405 0.579 54.587
28652.25 0.58 54.563 0.815 -35.429 0.815 -35.429 0.58 54.563
28677.208 0.58 54.54 0.815 -35.452 0.815 -35.452 0.58 54.54
28702.167 0.58 54.516 0.814 -35.476 0.814 -35.476 0.58 54.516
28727.125 0.581 54.492 0.814 -35.499 0.814 -35.499 0.581 54.492
28752.083 0.581 54.469 0.814 -35.523 0.814 -35.523 0.581 54.469
28777.042 0.581 54.445 0.814 -35.547 0.814 -35.547 0.581 54.445
28802 0.582 54.422 0.813 -35.57 0.813 -35.57 0.582 54.422
28826.958 0.582 54.398 0.813 -35.594 0.813 -35.594 0.582 54.398
28851.917 0.582 54.375 0.813 -35.617 0.813 -35.617 0.582 54.375
28876.875 0.583 54.351 0.813 -35.641 0.813 -35.641 0.583 54.351
28901.833 0.583 54.327 0.812 -35.665 0.812 -35.665 0.583 54.327
28926.792 0.583 54.304 0.812 -35.688 0.812 -35.688 0.583 54.304
28951.75 0.584 54.28 0.812 -35.712 0.812 -35.712 0.584 54.28
28976.708 0.584 54.257 0.812 -35.735 0.812 -35.735 0.584 54.257
29001.667 0.584 54.233 0.811 -35.759 0.811 -35.759 0.584 54.233
29026.625 0.585 54.21 0.811 -35.782 0.811 -35.782 0.585 54.21
29051.583 0.585 54.187 0.811 -35.805 0.811 -35.805 0.585 54.187
29076.542 0.585 54.163 0.811 -35.829 0.811 -35.829 0.585 54.163
29101.5 0.586 54.14 0.81 -35.852 0.81 -35.852 0.586 54.14
29126.458 0.586 54.116 0.81 -35.876 0.81 -35.876 0.586 54.116
29151.417 0.586 54.093 0.81 -35.899 0.81 -35.899 0.586 54.093
29176.375 0.587 54.07 0.81 -35.922 0.81 -35.922 0.587 54.07
29201.333 0.587 54.046 0.809 -35.946 0.809 -35.946 0.587 54.046
29226.292 0.587 54.023 0.809 -35.969 0.809 -35.969 0.587 54.023
29251.25 0.588 53.999 0.809 -35.993 0.809 -35.993 0.588 53.999
29276.208 0.588 53.976 0.809 -36.016 0.809 -36.016 0.588 53.976
29301.167 0.588 53.953 0.809 -36.039 0.809 -36.039 0.588 53.953
29326.125 0.589 53.93 0.808 -36.063 0.808 -36.063 0.589 53.93
29351.083 0.589 53.906 0.808 -36.086 0.808 -36.086 0.589 53.906
29376.042 0.589 53.883 0.808 -36.109 0.808 -36.109 0.589 53.883
29401 0.59 53.86 0.808 -36.132 0.808 -36.132 0.59 53.86
29425.958 0.59 53.837 0.807 -36.156 0.807 -36.156 0.59 53.837
29450.917 0.59 53.813 0.807 -36.179 0.807 -36.179 0.59 53.813
29475.875 0.591 53.79 0.807 -36.202 0.807 -36.202 0.591 53.79
29500.833 0.591 53.767 0.807 -36.225 0.807 -36.225 0.591 53.767
29525.792 0.591 53.744 0.806 -36.248 0.806 -36.248 0.591 53.744
29550.75 0.592 53.721 0.806 -36.272 0.806 -36.272 0.592 53.721
29575.708 0.592 53.697 0.806 -36.295 0.806 -36.295 0.592 53.697
29600.667 0.592 53.674 0.806 -36.318 0.806 -36.318 0.592 53.674
29625.625 0.593 53.651 0.805 -36.341 0.805 -36.341 0.593 53.651
29650.583 0.593 53.628 0.805 -36.364 0.805 -36.364 0.593 53.628
29675.542 0.593 53.605 0.805 -36.387 0.805 -36.387 0.593 53.605
29700.5 0.594 53.582 0.805 -36.41 0.805 -36.41 0.594 53.582
29725.458 0.594 53.559 0.804 -36.433 0.804 -36.433 0.594 53.559
29750.417 0.594 53.536 0.804 -36.456 0.804 -36.456 0.594 53.536
29775.375 0.595 53.513 0.804 -36.48 0.804 -36.48 0.595 53.513
29800.333 0.595 53.49 0.804 -36.503 0.804 -36.503 0.595 53.49
29825.292 0.595 53.467 0.804 -36.526 0.804 -36.526 0.595 53.467
29850.25 0.596 53.444 0.803 -36.549 0.803 -36.549 0.596 53.444
29875.208 0.596 53.421 0.803 -36.572 0.803 -36.572 0.596 53.421
29900.167 0.596 53.398 0.803 -36.595 0.803 -36.595 0.596 53.398
29925.125 0.596 53.375 0.803 -36.618 0.803 -36.618 0.596 53.375
29950.083 0.597 53.352 0.802 -36.641 0.802 -36.641 0.597 53.352
29975.042 0.597 53.329 0.802 -36.663 0.802 -36.663 0.597 53.329
30000 0.597 53.306 0.802 -36.686 0.802 -36.686 0.597 53.306
