!	AVX Thin Film Operation 	Date: April 2014		
!	Description: Accu-P® Series, Thin Film  SMD RF Capacitor
!	Part Number: 04021JA65ZBSTR					
!								
# MHZ S MA R 50

50 0.999 -2.968 0.052 87.028 0.052 87.028 0.999 -2.968
74.958 0.997 -4.444 0.077 85.549 0.077 85.549 0.997 -4.444
99.917 0.995 -5.915 0.103 84.076 0.103 84.076 0.995 -5.915
124.875 0.992 -7.379 0.128 82.61 0.128 82.61 0.992 -7.379
149.833 0.988 -8.834 0.154 81.153 0.154 81.153 0.988 -8.834
174.792 0.984 -10.278 0.178 79.707 0.178 79.707 0.984 -10.278
199.75 0.979 -11.711 0.203 78.272 0.203 78.272 0.979 -11.711
224.708 0.974 -13.129 0.227 76.852 0.227 76.852 0.974 -13.129
249.667 0.968 -14.532 0.251 75.446 0.251 75.446 0.968 -14.532
274.625 0.962 -15.919 0.274 74.057 0.274 74.057 0.962 -15.919
299.583 0.955 -17.289 0.297 72.686 0.297 72.686 0.955 -17.289
324.542 0.947 -18.639 0.32 71.333 0.32 71.333 0.947 -18.639
349.5 0.94 -19.97 0.342 70 0.342 70 0.94 -19.97
374.458 0.932 -21.281 0.363 68.687 0.363 68.687 0.932 -21.281
399.417 0.923 -22.57 0.384 67.395 0.384 67.395 0.923 -22.57
424.375 0.914 -23.838 0.404 66.126 0.404 66.126 0.914 -23.838
449.333 0.905 -25.083 0.424 64.879 0.424 64.879 0.905 -25.083
474.292 0.896 -26.305 0.443 63.654 0.443 63.654 0.896 -26.305
499.25 0.887 -27.504 0.462 62.453 0.462 62.453 0.887 -27.504
524.208 0.877 -28.679 0.48 61.276 0.48 61.276 0.877 -28.679
549.167 0.867 -29.831 0.497 60.122 0.497 60.122 0.867 -29.831
574.125 0.857 -30.959 0.514 58.992 0.514 58.992 0.857 -30.959
599.083 0.847 -32.063 0.531 57.885 0.531 57.885 0.847 -32.063
624.042 0.837 -33.144 0.547 56.803 0.547 56.803 0.837 -33.144
649 0.827 -34.2 0.562 55.744 0.562 55.744 0.827 -34.2
673.958 0.816 -35.233 0.577 54.709 0.577 54.709 0.816 -35.233
698.917 0.806 -36.243 0.591 53.696 0.591 53.696 0.806 -36.243
723.875 0.796 -37.23 0.605 52.707 0.605 52.707 0.796 -37.23
748.833 0.785 -38.194 0.618 51.741 0.618 51.741 0.785 -38.194
773.792 0.775 -39.136 0.631 50.797 0.631 50.797 0.775 -39.136
798.75 0.765 -40.056 0.644 49.875 0.644 49.875 0.765 -40.056
823.708 0.754 -40.954 0.655 48.975 0.655 48.975 0.754 -40.954
848.667 0.744 -41.831 0.667 48.096 0.667 48.096 0.744 -41.831
873.625 0.734 -42.687 0.678 47.237 0.678 47.237 0.734 -42.687
898.583 0.724 -43.522 0.689 46.4 0.689 46.4 0.724 -43.522
923.542 0.714 -44.338 0.699 45.582 0.699 45.582 0.714 -44.338
948.5 0.704 -45.134 0.709 44.783 0.709 44.783 0.704 -45.134
973.458 0.695 -45.911 0.718 44.004 0.718 44.004 0.695 -45.911
998.417 0.685 -46.67 0.727 43.243 0.727 43.243 0.685 -46.67
1023.375 0.676 -47.41 0.736 42.501 0.736 42.501 0.676 -47.41
1048.333 0.666 -48.133 0.745 41.776 0.745 41.776 0.666 -48.133
1073.292 0.657 -48.838 0.753 41.068 0.753 41.068 0.657 -48.838
1098.25 0.648 -49.527 0.761 40.377 0.761 40.377 0.648 -49.527
1123.208 0.639 -50.2 0.768 39.702 0.768 39.702 0.639 -50.2
1148.167 0.63 -50.856 0.776 39.043 0.776 39.043 0.63 -50.856
1173.125 0.621 -51.498 0.783 38.399 0.783 38.399 0.621 -51.498
1198.083 0.613 -52.124 0.789 37.771 0.789 37.771 0.613 -52.124
1223.042 0.604 -52.735 0.796 37.157 0.796 37.157 0.604 -52.735
1248 0.596 -53.333 0.802 36.557 0.802 36.557 0.596 -53.333
1272.958 0.587 -53.917 0.808 35.97 0.808 35.97 0.587 -53.917
1297.917 0.579 -54.487 0.814 35.397 0.814 35.397 0.579 -54.487
1322.875 0.571 -55.045 0.82 34.837 0.82 34.837 0.571 -55.045
1347.833 0.563 -55.59 0.825 34.29 0.825 34.29 0.563 -55.59
1372.792 0.556 -56.123 0.83 33.755 0.83 33.755 0.556 -56.123
1397.75 0.548 -56.644 0.835 33.231 0.835 33.231 0.548 -56.644
1422.708 0.541 -57.153 0.84 32.72 0.84 32.72 0.541 -57.153
1447.667 0.533 -57.651 0.845 32.219 0.845 32.219 0.533 -57.651
1472.625 0.526 -58.139 0.849 31.729 0.849 31.729 0.526 -58.139
1497.583 0.519 -58.616 0.854 31.25 0.854 31.25 0.519 -58.616
1522.542 0.512 -59.082 0.858 30.78 0.858 30.78 0.512 -59.082
1547.5 0.505 -59.539 0.862 30.321 0.862 30.321 0.505 -59.539
1572.458 0.498 -59.986 0.866 29.871 0.866 29.871 0.498 -59.986
1597.417 0.491 -60.424 0.87 29.431 0.87 29.431 0.491 -60.424
1622.375 0.485 -60.853 0.873 29 0.873 29 0.485 -60.853
1647.333 0.478 -61.273 0.877 28.577 0.877 28.577 0.478 -61.273
1672.292 0.472 -61.684 0.88 28.163 0.88 28.163 0.472 -61.684
1697.25 0.466 -62.087 0.884 27.758 0.884 27.758 0.466 -62.087
1722.208 0.46 -62.482 0.887 27.36 0.887 27.36 0.46 -62.482
1747.167 0.454 -62.869 0.89 26.97 0.89 26.97 0.454 -62.869
1772.125 0.448 -63.249 0.893 26.588 0.893 26.588 0.448 -63.249
1797.083 0.442 -63.621 0.896 26.213 0.896 26.213 0.442 -63.621
1822.042 0.436 -63.986 0.899 25.845 0.899 25.845 0.436 -63.986
1847 0.43 -64.344 0.901 25.485 0.901 25.485 0.43 -64.344
1871.958 0.425 -64.695 0.904 25.131 0.904 25.131 0.425 -64.695
1896.917 0.419 -65.039 0.907 24.783 0.907 24.783 0.419 -65.039
1921.875 0.414 -65.378 0.909 24.442 0.909 24.442 0.414 -65.378
1946.833 0.408 -65.71 0.911 24.108 0.911 24.108 0.408 -65.71
1971.792 0.403 -66.035 0.914 23.779 0.914 23.779 0.403 -66.035
1996.75 0.398 -66.355 0.916 23.456 0.916 23.456 0.398 -66.355
2021.708 0.393 -66.67 0.918 23.139 0.918 23.139 0.393 -66.67
2046.667 0.388 -66.978 0.92 22.827 0.92 22.827 0.388 -66.978
2071.625 0.383 -67.281 0.922 22.521 0.922 22.521 0.383 -67.281
2096.583 0.378 -67.579 0.924 22.22 0.924 22.22 0.378 -67.579
2121.542 0.373 -67.872 0.926 21.925 0.926 21.925 0.373 -67.872
2146.5 0.369 -68.16 0.928 21.634 0.928 21.634 0.369 -68.16
2171.458 0.364 -68.443 0.93 21.348 0.93 21.348 0.364 -68.443
2196.417 0.359 -68.721 0.932 21.067 0.932 21.067 0.359 -68.721
2221.375 0.355 -68.994 0.934 20.79 0.934 20.79 0.355 -68.994
2246.333 0.351 -69.263 0.935 20.518 0.935 20.518 0.351 -69.263
2271.292 0.346 -69.528 0.937 20.25 0.937 20.25 0.346 -69.528
2296.25 0.342 -69.788 0.938 19.987 0.938 19.987 0.342 -69.788
2321.208 0.338 -70.044 0.94 19.728 0.94 19.728 0.338 -70.044
2346.167 0.333 -70.296 0.941 19.472 0.941 19.472 0.333 -70.296
2371.125 0.329 -70.544 0.943 19.221 0.943 19.221 0.329 -70.544
2396.083 0.325 -70.789 0.944 18.973 0.944 18.973 0.325 -70.789
2421.042 0.321 -71.029 0.946 18.73 0.946 18.73 0.321 -71.029
2446 0.317 -71.266 0.947 18.49 0.947 18.49 0.317 -71.266
2470.958 0.313 -71.499 0.948 18.253 0.948 18.253 0.313 -71.499
2495.917 0.309 -71.728 0.95 18.02 0.95 18.02 0.309 -71.728
2520.875 0.306 -71.955 0.951 17.79 0.951 17.79 0.306 -71.955
2545.833 0.302 -72.177 0.952 17.564 0.952 17.564 0.302 -72.177
2570.792 0.298 -72.397 0.953 17.341 0.953 17.341 0.298 -72.397
2595.75 0.294 -72.613 0.954 17.121 0.954 17.121 0.294 -72.613
2620.708 0.291 -72.827 0.955 16.904 0.955 16.904 0.291 -72.827
2645.667 0.287 -73.037 0.957 16.69 0.957 16.69 0.287 -73.037
2670.625 0.284 -73.244 0.958 16.479 0.958 16.479 0.284 -73.244
2695.583 0.28 -73.449 0.959 16.271 0.959 16.271 0.28 -73.449
2720.542 0.277 -73.65 0.96 16.066 0.96 16.066 0.277 -73.65
2745.5 0.273 -73.849 0.961 15.863 0.961 15.863 0.273 -73.849
2770.458 0.27 -74.045 0.961 15.663 0.961 15.663 0.27 -74.045
2795.417 0.267 -74.238 0.962 15.466 0.962 15.466 0.267 -74.238
2820.375 0.263 -74.429 0.963 15.271 0.963 15.271 0.263 -74.429
2845.333 0.26 -74.617 0.964 15.079 0.964 15.079 0.26 -74.617
2870.292 0.257 -74.803 0.965 14.889 0.965 14.889 0.257 -74.803
2895.25 0.254 -74.986 0.966 14.702 0.966 14.702 0.254 -74.986
2920.208 0.251 -75.167 0.967 14.517 0.967 14.517 0.251 -75.167
2945.167 0.248 -75.346 0.967 14.334 0.967 14.334 0.248 -75.346
2970.125 0.245 -75.522 0.968 14.154 0.968 14.154 0.245 -75.522
2995.083 0.242 -75.696 0.969 13.975 0.969 13.975 0.242 -75.696
3020.042 0.239 -75.868 0.97 13.799 0.97 13.799 0.239 -75.868
3045 0.236 -76.038 0.97 13.625 0.97 13.625 0.236 -76.038
3069.958 0.233 -76.205 0.971 13.453 0.971 13.453 0.233 -76.205
3094.917 0.23 -76.371 0.972 13.283 0.972 13.283 0.23 -76.371
3119.875 0.227 -76.534 0.973 13.115 0.973 13.115 0.227 -76.534
3144.833 0.224 -76.696 0.973 12.948 0.973 12.948 0.224 -76.696
3169.792 0.221 -76.855 0.974 12.784 0.974 12.784 0.221 -76.855
3194.75 0.219 -77.013 0.974 12.622 0.974 12.622 0.219 -77.013
3219.708 0.216 -77.169 0.975 12.461 0.975 12.461 0.216 -77.169
3244.667 0.213 -77.323 0.976 12.302 0.976 12.302 0.213 -77.323
3269.625 0.21 -77.475 0.976 12.145 0.976 12.145 0.21 -77.475
3294.583 0.208 -77.625 0.977 11.989 0.977 11.989 0.208 -77.625
3319.542 0.205 -77.774 0.977 11.835 0.977 11.835 0.205 -77.774
3344.5 0.203 -77.921 0.978 11.683 0.978 11.683 0.203 -77.921
3369.458 0.2 -78.066 0.978 11.533 0.978 11.533 0.2 -78.066
3394.417 0.197 -78.21 0.979 11.384 0.979 11.384 0.197 -78.21
3419.375 0.195 -78.352 0.979 11.236 0.979 11.236 0.195 -78.352
3444.333 0.192 -78.492 0.98 11.09 0.98 11.09 0.192 -78.492
3469.292 0.19 -78.631 0.98 10.946 0.98 10.946 0.19 -78.631
3494.25 0.187 -78.768 0.981 10.803 0.981 10.803 0.187 -78.768
3519.208 0.185 -78.904 0.981 10.661 0.981 10.661 0.185 -78.904
3544.167 0.183 -79.039 0.982 10.521 0.982 10.521 0.183 -79.039
3569.125 0.18 -79.171 0.982 10.382 0.982 10.382 0.18 -79.171
3594.083 0.178 -79.303 0.983 10.244 0.983 10.244 0.178 -79.303
3619.042 0.176 -79.433 0.983 10.108 0.983 10.108 0.176 -79.433
3644 0.173 -79.561 0.983 9.973 0.983 9.973 0.173 -79.561
3668.958 0.171 -79.689 0.984 9.839 0.984 9.839 0.171 -79.689
3693.917 0.169 -79.815 0.984 9.707 0.984 9.707 0.169 -79.815
3718.875 0.166 -79.939 0.985 9.576 0.985 9.576 0.166 -79.939
3743.833 0.164 -80.062 0.985 9.446 0.985 9.446 0.164 -80.062
3768.792 0.162 -80.184 0.985 9.317 0.985 9.317 0.162 -80.184
3793.75 0.16 -80.305 0.986 9.189 0.986 9.189 0.16 -80.305
3818.708 0.158 -80.424 0.986 9.063 0.986 9.063 0.158 -80.424
3843.667 0.155 -80.542 0.986 8.937 0.986 8.937 0.155 -80.542
3868.625 0.153 -80.659 0.987 8.813 0.987 8.813 0.153 -80.659
3893.583 0.151 -80.775 0.987 8.69 0.987 8.69 0.151 -80.775
3918.542 0.149 -80.889 0.987 8.568 0.987 8.568 0.149 -80.889
3943.5 0.147 -81.002 0.988 8.447 0.988 8.447 0.147 -81.002
3968.458 0.145 -81.114 0.988 8.326 0.988 8.326 0.145 -81.114
3993.417 0.143 -81.225 0.988 8.207 0.988 8.207 0.143 -81.225
4018.375 0.141 -81.335 0.989 8.089 0.989 8.089 0.141 -81.335
4043.333 0.139 -81.444 0.989 7.972 0.989 7.972 0.139 -81.444
4068.292 0.137 -81.551 0.989 7.856 0.989 7.856 0.137 -81.551
4093.25 0.135 -81.657 0.989 7.74 0.989 7.74 0.135 -81.657
4118.208 0.133 -81.763 0.99 7.626 0.99 7.626 0.133 -81.763
4143.167 0.131 -81.867 0.99 7.513 0.99 7.513 0.131 -81.867
4168.125 0.129 -81.97 0.99 7.4 0.99 7.4 0.129 -81.97
4193.083 0.127 -82.072 0.991 7.288 0.991 7.288 0.127 -82.072
4218.042 0.125 -82.173 0.991 7.178 0.991 7.178 0.125 -82.173
4243 0.123 -82.272 0.991 7.068 0.991 7.068 0.123 -82.272
4267.958 0.121 -82.371 0.991 6.959 0.991 6.959 0.121 -82.371
4292.917 0.119 -82.469 0.991 6.85 0.991 6.85 0.119 -82.469
4317.875 0.117 -82.565 0.992 6.743 0.992 6.743 0.117 -82.565
4342.833 0.116 -82.661 0.992 6.636 0.992 6.636 0.116 -82.661
4367.792 0.114 -82.755 0.992 6.53 0.992 6.53 0.114 -82.755
4392.75 0.112 -82.848 0.992 6.425 0.992 6.425 0.112 -82.848
4417.708 0.11 -82.941 0.993 6.321 0.993 6.321 0.11 -82.941
4442.667 0.108 -83.032 0.993 6.217 0.993 6.217 0.108 -83.032
4467.625 0.107 -83.122 0.993 6.114 0.993 6.114 0.107 -83.122
4492.583 0.105 -83.211 0.993 6.012 0.993 6.012 0.105 -83.211
4517.542 0.103 -83.299 0.993 5.91 0.993 5.91 0.103 -83.299
4542.5 0.101 -83.386 0.993 5.81 0.993 5.81 0.101 -83.386
4567.458 0.099 -83.472 0.994 5.709 0.994 5.709 0.099 -83.472
4592.417 0.098 -83.557 0.994 5.61 0.994 5.61 0.098 -83.557
4617.375 0.096 -83.641 0.994 5.511 0.994 5.511 0.096 -83.641
4642.333 0.094 -83.723 0.994 5.413 0.994 5.413 0.094 -83.723
4667.292 0.093 -83.805 0.994 5.316 0.994 5.316 0.093 -83.805
4692.25 0.091 -83.885 0.994 5.219 0.994 5.219 0.091 -83.885
4717.208 0.089 -83.964 0.995 5.123 0.995 5.123 0.089 -83.964
4742.167 0.088 -84.043 0.995 5.027 0.995 5.027 0.088 -84.043
4767.125 0.086 -84.119 0.995 4.932 0.995 4.932 0.086 -84.119
4792.083 0.084 -84.195 0.995 4.838 0.995 4.838 0.084 -84.195
4817.042 0.083 -84.27 0.995 4.744 0.995 4.744 0.083 -84.27
4842 0.081 -84.343 0.995 4.651 0.995 4.651 0.081 -84.343
4866.958 0.079 -84.415 0.995 4.559 0.995 4.559 0.079 -84.415
4891.917 0.078 -84.486 0.996 4.467 0.996 4.467 0.078 -84.486
4916.875 0.076 -84.555 0.996 4.375 0.996 4.375 0.076 -84.555
4941.833 0.075 -84.624 0.996 4.284 0.996 4.284 0.075 -84.624
4966.792 0.073 -84.69 0.996 4.194 0.996 4.194 0.073 -84.69
4991.75 0.072 -84.756 0.996 4.104 0.996 4.104 0.072 -84.756
5016.708 0.07 -84.819 0.996 4.015 0.996 4.015 0.07 -84.819
5041.667 0.068 -84.882 0.996 3.926 0.996 3.926 0.068 -84.882
5066.625 0.067 -84.942 0.996 3.838 0.996 3.838 0.067 -84.942
5091.583 0.065 -85.002 0.996 3.75 0.996 3.75 0.065 -85.002
5116.542 0.064 -85.059 0.997 3.663 0.997 3.663 0.064 -85.059
5141.5 0.062 -85.115 0.997 3.576 0.997 3.576 0.062 -85.115
5166.458 0.061 -85.169 0.997 3.49 0.997 3.49 0.061 -85.169
5191.417 0.059 -85.22 0.997 3.404 0.997 3.404 0.059 -85.22
5216.375 0.058 -85.27 0.997 3.319 0.997 3.319 0.058 -85.27
5241.333 0.056 -85.318 0.997 3.234 0.997 3.234 0.056 -85.318
5266.292 0.055 -85.364 0.997 3.15 0.997 3.15 0.055 -85.364
5291.25 0.054 -85.407 0.997 3.066 0.997 3.066 0.054 -85.407
5316.208 0.052 -85.447 0.997 2.982 0.997 2.982 0.052 -85.447
5341.167 0.051 -85.485 0.997 2.899 0.997 2.899 0.051 -85.485
5366.125 0.049 -85.52 0.997 2.817 0.997 2.817 0.049 -85.52
5391.083 0.048 -85.553 0.997 2.735 0.997 2.735 0.048 -85.553
5416.042 0.046 -85.582 0.998 2.653 0.998 2.653 0.046 -85.582
5441 0.045 -85.607 0.998 2.572 0.998 2.572 0.045 -85.607
5465.958 0.043 -85.629 0.998 2.491 0.998 2.491 0.043 -85.629
5490.917 0.042 -85.646 0.998 2.41 0.998 2.41 0.042 -85.646
5515.875 0.041 -85.66 0.998 2.33 0.998 2.33 0.041 -85.66
5540.833 0.039 -85.668 0.998 2.25 0.998 2.25 0.039 -85.668
5565.792 0.038 -85.671 0.998 2.171 0.998 2.171 0.038 -85.671
5590.75 0.037 -85.669 0.998 2.092 0.998 2.092 0.037 -85.669
5615.708 0.035 -85.66 0.998 2.014 0.998 2.014 0.035 -85.66
5640.667 0.034 -85.644 0.998 1.936 0.998 1.936 0.034 -85.644
5665.625 0.032 -85.621 0.998 1.858 0.998 1.858 0.032 -85.621
5690.583 0.031 -85.589 0.998 1.781 0.998 1.781 0.031 -85.589
5715.542 0.03 -85.547 0.998 1.704 0.998 1.704 0.03 -85.547
5740.5 0.028 -85.494 0.998 1.627 0.998 1.627 0.028 -85.494
5765.458 0.027 -85.429 0.998 1.551 0.998 1.551 0.027 -85.429
5790.417 0.026 -85.35 0.998 1.475 0.998 1.475 0.026 -85.35
5815.375 0.024 -85.254 0.998 1.399 0.998 1.399 0.024 -85.254
5840.333 0.023 -85.14 0.998 1.324 0.998 1.324 0.023 -85.14
5865.292 0.022 -85.003 0.998 1.249 0.998 1.249 0.022 -85.003
5890.25 0.021 -84.84 0.998 1.174 0.998 1.174 0.021 -84.84
5915.208 0.019 -84.647 0.998 1.1 0.998 1.1 0.019 -84.647
5940.167 0.018 -84.416 0.998 1.026 0.998 1.026 0.018 -84.416
5965.125 0.017 -84.139 0.998 0.953 0.998 0.953 0.017 -84.139
5990.083 0.015 -83.805 0.998 0.88 0.998 0.88 0.015 -83.805
6015.042 0.014 -83.401 0.998 0.807 0.998 0.807 0.014 -83.401
6040 0.013 -82.905 0.998 0.734 0.998 0.734 0.013 -82.905
6064.958 0.012 -82.288 0.999 0.662 0.999 0.662 0.012 -82.288
6089.917 0.01 -81.51 0.999 0.59 0.999 0.59 0.01 -81.51
6114.875 9.152e-3 -80.505 0.999 0.518 0.999 0.518 9.152e-3 -80.505
6139.833 7.924e-3 -79.17 0.999 0.447 0.999 0.447 7.924e-3 -79.17
6164.792 6.707e-3 -77.329 0.999 0.375 0.999 0.375 6.707e-3 -77.329
6189.75 5.506e-3 -74.66 0.999 0.305 0.999 0.305 5.506e-3 -74.66
6214.708 4.329e-3 -70.5 0.999 0.234 0.999 0.234 4.329e-3 -70.5
6239.667 3.197e-3 -63.301 0.999 0.164 0.999 0.164 3.197e-3 -63.301
6264.625 2.174e-3 -48.841 0.999 0.094 0.999 0.094 2.174e-3 -48.841
6289.583 1.49e-3 -16.478 0.999 0.024 0.999 0.024 1.49e-3 -16.478
6314.542 1.631e-3 28.847 0.999 -0.045 0.999 -0.045 1.631e-3 28.847
6339.5 2.453e-3 54.282 0.999 -0.114 0.999 -0.114 2.453e-3 54.282
6364.458 3.501e-3 65.741 0.999 -0.183 0.999 -0.183 3.501e-3 65.741
6389.417 4.62e-3 71.741 0.999 -0.252 0.999 -0.252 4.62e-3 71.741
6414.375 5.766e-3 75.338 0.999 -0.32 0.999 -0.32 5.766e-3 75.338
6439.333 6.923e-3 77.706 0.999 -0.388 0.999 -0.388 6.923e-3 77.706
6464.292 8.085e-3 79.369 0.999 -0.456 0.999 -0.456 8.085e-3 79.369
6489.25 9.248e-3 80.592 0.999 -0.523 0.999 -0.523 9.248e-3 80.592
6514.208 0.01 81.523 0.999 -0.591 0.999 -0.591 0.01 81.523
6539.167 0.012 82.252 0.999 -0.658 0.999 -0.658 0.012 82.252
6564.125 0.013 82.833 0.998 -0.725 0.998 -0.725 0.013 82.833
6589.083 0.014 83.304 0.998 -0.791 0.998 -0.791 0.014 83.304
6614.042 0.015 83.692 0.998 -0.858 0.998 -0.858 0.015 83.692
6639 0.016 84.013 0.998 -0.924 0.998 -0.924 0.016 84.013
6663.958 0.017 84.283 0.998 -0.989 0.998 -0.989 0.017 84.283
6688.917 0.018 84.51 0.998 -1.055 0.998 -1.055 0.018 84.51
6713.875 0.02 84.703 0.998 -1.12 0.998 -1.12 0.02 84.703
6738.833 0.021 84.866 0.998 -1.186 0.998 -1.186 0.021 84.866
6763.792 0.022 85.006 0.998 -1.25 0.998 -1.25 0.022 85.006
6788.75 0.023 85.125 0.998 -1.315 0.998 -1.315 0.023 85.125
6813.708 0.024 85.226 0.998 -1.38 0.998 -1.38 0.024 85.226
6838.667 0.025 85.313 0.998 -1.444 0.998 -1.444 0.025 85.313
6863.625 0.026 85.386 0.998 -1.508 0.998 -1.508 0.026 85.386
6888.583 0.027 85.449 0.998 -1.572 0.998 -1.572 0.027 85.449
6913.542 0.029 85.501 0.998 -1.635 0.998 -1.635 0.029 85.501
6938.5 0.03 85.544 0.998 -1.699 0.998 -1.699 0.03 85.544
6963.458 0.031 85.58 0.998 -1.762 0.998 -1.762 0.031 85.58
6988.417 0.032 85.608 0.998 -1.825 0.998 -1.825 0.032 85.608
7013.375 0.033 85.631 0.998 -1.888 0.998 -1.888 0.033 85.631
7038.333 0.034 85.648 0.998 -1.95 0.998 -1.95 0.034 85.648
7063.292 0.035 85.66 0.998 -2.012 0.998 -2.012 0.035 85.66
7088.25 0.036 85.667 0.998 -2.075 0.998 -2.075 0.036 85.667
7113.208 0.037 85.671 0.998 -2.137 0.998 -2.137 0.037 85.671
7138.167 0.038 85.671 0.998 -2.198 0.998 -2.198 0.038 85.671
7163.125 0.039 85.667 0.998 -2.26 0.998 -2.26 0.039 85.667
7188.083 0.041 85.661 0.998 -2.321 0.998 -2.321 0.041 85.661
7213.042 0.042 85.651 0.998 -2.382 0.998 -2.382 0.042 85.651
7238 0.043 85.64 0.998 -2.443 0.998 -2.443 0.043 85.64
7262.958 0.044 85.625 0.998 -2.504 0.998 -2.504 0.044 85.625
7287.917 0.045 85.609 0.998 -2.565 0.998 -2.565 0.045 85.609
7312.875 0.046 85.591 0.998 -2.625 0.998 -2.625 0.046 85.591
7337.833 0.047 85.57 0.997 -2.686 0.997 -2.686 0.047 85.57
7362.792 0.048 85.548 0.997 -2.746 0.997 -2.746 0.048 85.548
7387.75 0.049 85.525 0.997 -2.806 0.997 -2.806 0.049 85.525
7412.708 0.05 85.5 0.997 -2.865 0.997 -2.865 0.05 85.5
7437.667 0.051 85.474 0.997 -2.925 0.997 -2.925 0.051 85.474
7462.625 0.052 85.446 0.997 -2.984 0.997 -2.984 0.052 85.446
7487.583 0.053 85.418 0.997 -3.043 0.997 -3.043 0.053 85.418
7512.542 0.054 85.388 0.997 -3.102 0.997 -3.102 0.054 85.388
7537.5 0.055 85.357 0.997 -3.161 0.997 -3.161 0.055 85.357
7562.458 0.056 85.326 0.997 -3.22 0.997 -3.22 0.056 85.326
7587.417 0.057 85.293 0.997 -3.279 0.997 -3.279 0.057 85.293
7612.375 0.058 85.26 0.997 -3.337 0.997 -3.337 0.058 85.26
7637.333 0.059 85.226 0.997 -3.395 0.997 -3.395 0.059 85.226
7662.292 0.06 85.191 0.997 -3.453 0.997 -3.453 0.06 85.191
7687.25 0.061 85.155 0.997 -3.511 0.997 -3.511 0.061 85.155
7712.208 0.062 85.119 0.997 -3.569 0.997 -3.569 0.062 85.119
7737.167 0.063 85.083 0.997 -3.626 0.997 -3.626 0.063 85.083
7762.125 0.064 85.045 0.997 -3.684 0.997 -3.684 0.064 85.045
7787.083 0.065 85.008 0.996 -3.741 0.996 -3.741 0.065 85.008
7812.042 0.066 84.969 0.996 -3.798 0.996 -3.798 0.066 84.969
7837 0.067 84.931 0.996 -3.855 0.996 -3.855 0.067 84.931
7861.958 0.068 84.891 0.996 -3.912 0.996 -3.912 0.068 84.891
7886.917 0.069 84.852 0.996 -3.969 0.996 -3.969 0.069 84.852
7911.875 0.07 84.812 0.996 -4.025 0.996 -4.025 0.07 84.812
7936.833 0.071 84.772 0.996 -4.082 0.996 -4.082 0.071 84.772
7961.792 0.072 84.731 0.996 -4.138 0.996 -4.138 0.072 84.731
7986.75 0.073 84.69 0.996 -4.194 0.996 -4.194 0.073 84.69
8011.708 0.074 84.649 0.996 -4.25 0.996 -4.25 0.074 84.649
8036.667 0.075 84.608 0.996 -4.306 0.996 -4.306 0.075 84.608
8061.625 0.076 84.566 0.996 -4.361 0.996 -4.361 0.076 84.566
8086.583 0.077 84.524 0.996 -4.417 0.996 -4.417 0.077 84.524
8111.542 0.078 84.482 0.996 -4.472 0.996 -4.472 0.078 84.482
8136.5 0.079 84.439 0.995 -4.527 0.995 -4.527 0.079 84.439
8161.458 0.08 84.397 0.995 -4.583 0.995 -4.583 0.08 84.397
8186.417 0.081 84.354 0.995 -4.638 0.995 -4.638 0.081 84.354
8211.375 0.082 84.311 0.995 -4.692 0.995 -4.692 0.082 84.311
8236.333 0.083 84.268 0.995 -4.747 0.995 -4.747 0.083 84.268
8261.292 0.084 84.224 0.995 -4.802 0.995 -4.802 0.084 84.224
8286.25 0.085 84.181 0.995 -4.856 0.995 -4.856 0.085 84.181
8311.208 0.086 84.137 0.995 -4.91 0.995 -4.91 0.086 84.137
8336.167 0.087 84.093 0.995 -4.965 0.995 -4.965 0.087 84.093
8361.125 0.087 84.049 0.995 -5.019 0.995 -5.019 0.087 84.049
8386.083 0.088 84.005 0.995 -5.073 0.995 -5.073 0.088 84.005
8411.042 0.089 83.961 0.995 -5.127 0.995 -5.127 0.089 83.961
8436 0.09 83.917 0.994 -5.18 0.994 -5.18 0.09 83.917
8460.958 0.091 83.873 0.994 -5.234 0.994 -5.234 0.091 83.873
8485.917 0.092 83.829 0.994 -5.287 0.994 -5.287 0.092 83.829
8510.875 0.093 83.784 0.994 -5.341 0.994 -5.341 0.093 83.784
8535.833 0.094 83.74 0.994 -5.394 0.994 -5.394 0.094 83.74
8560.792 0.095 83.695 0.994 -5.447 0.994 -5.447 0.095 83.695
8585.75 0.096 83.65 0.994 -5.5 0.994 -5.5 0.096 83.65
8610.708 0.097 83.606 0.994 -5.553 0.994 -5.553 0.097 83.606
8635.667 0.098 83.561 0.994 -5.605 0.994 -5.605 0.098 83.561
8660.625 0.099 83.516 0.994 -5.658 0.994 -5.658 0.099 83.516
8685.583 0.1 83.471 0.994 -5.711 0.994 -5.711 0.1 83.471
8710.542 0.1 83.426 0.994 -5.763 0.994 -5.763 0.1 83.426
8735.5 0.101 83.381 0.993 -5.815 0.993 -5.815 0.101 83.381
8760.458 0.102 83.336 0.993 -5.867 0.993 -5.867 0.102 83.336
8785.417 0.103 83.291 0.993 -5.92 0.993 -5.92 0.103 83.291
8810.375 0.104 83.246 0.993 -5.971 0.993 -5.971 0.104 83.246
8835.333 0.105 83.201 0.993 -6.023 0.993 -6.023 0.105 83.201
8860.292 0.106 83.156 0.993 -6.075 0.993 -6.075 0.106 83.156
8885.25 0.107 83.111 0.993 -6.127 0.993 -6.127 0.107 83.111
8910.208 0.108 83.066 0.993 -6.178 0.993 -6.178 0.108 83.066
8935.167 0.109 83.021 0.993 -6.23 0.993 -6.23 0.109 83.021
8960.125 0.109 82.976 0.993 -6.281 0.993 -6.281 0.109 82.976
8985.083 0.11 82.93 0.992 -6.332 0.992 -6.332 0.11 82.93
9010.042 0.111 82.885 0.992 -6.383 0.992 -6.383 0.111 82.885
9035 0.112 82.84 0.992 -6.434 0.992 -6.434 0.112 82.84
9059.958 0.113 82.795 0.992 -6.485 0.992 -6.485 0.113 82.795
9084.917 0.114 82.75 0.992 -6.536 0.992 -6.536 0.114 82.75
9109.875 0.115 82.705 0.992 -6.587 0.992 -6.587 0.115 82.705
9134.833 0.116 82.66 0.992 -6.637 0.992 -6.637 0.116 82.66
9159.792 0.116 82.614 0.992 -6.688 0.992 -6.688 0.116 82.614
9184.75 0.117 82.569 0.992 -6.738 0.992 -6.738 0.117 82.569
9209.708 0.118 82.524 0.992 -6.788 0.992 -6.788 0.118 82.524
9234.667 0.119 82.479 0.991 -6.839 0.991 -6.839 0.119 82.479
9259.625 0.12 82.434 0.991 -6.889 0.991 -6.889 0.12 82.434
9284.583 0.121 82.389 0.991 -6.939 0.991 -6.939 0.121 82.389
9309.542 0.122 82.344 0.991 -6.989 0.991 -6.989 0.122 82.344
9334.5 0.123 82.299 0.991 -7.038 0.991 -7.038 0.123 82.299
9359.458 0.123 82.254 0.991 -7.088 0.991 -7.088 0.123 82.254
9384.417 0.124 82.209 0.991 -7.138 0.991 -7.138 0.124 82.209
9409.375 0.125 82.164 0.991 -7.187 0.991 -7.187 0.125 82.164
9434.333 0.126 82.119 0.991 -7.237 0.991 -7.237 0.126 82.119
9459.292 0.127 82.074 0.991 -7.286 0.991 -7.286 0.127 82.074
9484.25 0.128 82.029 0.99 -7.335 0.99 -7.335 0.128 82.029
9509.208 0.129 81.984 0.99 -7.385 0.99 -7.385 0.129 81.984
9534.167 0.129 81.939 0.99 -7.434 0.99 -7.434 0.129 81.939
9559.125 0.13 81.894 0.99 -7.483 0.99 -7.483 0.13 81.894
9584.083 0.131 81.849 0.99 -7.532 0.99 -7.532 0.131 81.849
9609.042 0.132 81.805 0.99 -7.58 0.99 -7.58 0.132 81.805
9634 0.133 81.76 0.99 -7.629 0.99 -7.629 0.133 81.76
9658.958 0.134 81.715 0.99 -7.678 0.99 -7.678 0.134 81.715
9683.917 0.134 81.671 0.99 -7.726 0.99 -7.726 0.134 81.671
9708.875 0.135 81.626 0.989 -7.775 0.989 -7.775 0.135 81.626
9733.833 0.136 81.581 0.989 -7.823 0.989 -7.823 0.136 81.581
9758.792 0.137 81.537 0.989 -7.872 0.989 -7.872 0.137 81.537
9783.75 0.138 81.492 0.989 -7.92 0.989 -7.92 0.138 81.492
9808.708 0.139 81.447 0.989 -7.968 0.989 -7.968 0.139 81.447
9833.667 0.139 81.403 0.989 -8.016 0.989 -8.016 0.139 81.403
9858.625 0.14 81.359 0.989 -8.064 0.989 -8.064 0.14 81.359
9883.583 0.141 81.314 0.989 -8.112 0.989 -8.112 0.141 81.314
9908.542 0.142 81.27 0.988 -8.16 0.988 -8.16 0.142 81.27
9933.5 0.143 81.225 0.988 -8.207 0.988 -8.207 0.143 81.225
9958.458 0.144 81.181 0.988 -8.255 0.988 -8.255 0.144 81.181
9983.417 0.144 81.137 0.988 -8.303 0.988 -8.303 0.144 81.137
10008.375 0.145 81.092 0.988 -8.35 0.988 -8.35 0.145 81.092
10033.333 0.146 81.048 0.988 -8.397 0.988 -8.397 0.146 81.048
10058.292 0.147 81.004 0.988 -8.445 0.988 -8.445 0.147 81.004
10083.25 0.148 80.96 0.988 -8.492 0.988 -8.492 0.148 80.96
10108.208 0.148 80.916 0.988 -8.539 0.988 -8.539 0.148 80.916
10133.167 0.149 80.872 0.987 -8.586 0.987 -8.586 0.149 80.872
10158.125 0.15 80.828 0.987 -8.633 0.987 -8.633 0.15 80.828
10183.083 0.151 80.784 0.987 -8.68 0.987 -8.68 0.151 80.784
10208.042 0.152 80.74 0.987 -8.727 0.987 -8.727 0.152 80.74
10233 0.153 80.696 0.987 -8.774 0.987 -8.774 0.153 80.696
10257.958 0.153 80.652 0.987 -8.821 0.987 -8.821 0.153 80.652
10282.917 0.154 80.608 0.987 -8.867 0.987 -8.867 0.154 80.608
10307.875 0.155 80.564 0.987 -8.914 0.987 -8.914 0.155 80.564
10332.833 0.156 80.521 0.986 -8.96 0.986 -8.96 0.156 80.521
10357.792 0.157 80.477 0.986 -9.007 0.986 -9.007 0.157 80.477
10382.75 0.157 80.433 0.986 -9.053 0.986 -9.053 0.157 80.433
10407.708 0.158 80.39 0.986 -9.099 0.986 -9.099 0.158 80.39
10432.667 0.159 80.346 0.986 -9.146 0.986 -9.146 0.159 80.346
10457.625 0.16 80.302 0.986 -9.192 0.986 -9.192 0.16 80.302
10482.583 0.161 80.259 0.986 -9.238 0.986 -9.238 0.161 80.259
10507.542 0.161 80.215 0.985 -9.284 0.985 -9.284 0.161 80.215
10532.5 0.162 80.172 0.985 -9.33 0.985 -9.33 0.162 80.172
10557.458 0.163 80.129 0.985 -9.376 0.985 -9.376 0.163 80.129
10582.417 0.164 80.085 0.985 -9.422 0.985 -9.422 0.164 80.085
10607.375 0.164 80.042 0.985 -9.467 0.985 -9.467 0.164 80.042
10632.333 0.165 79.999 0.985 -9.513 0.985 -9.513 0.165 79.999
10657.292 0.166 79.956 0.985 -9.559 0.985 -9.559 0.166 79.956
10682.25 0.167 79.912 0.985 -9.604 0.985 -9.604 0.167 79.912
10707.208 0.168 79.869 0.984 -9.649 0.984 -9.649 0.168 79.869
10732.167 0.168 79.826 0.984 -9.695 0.984 -9.695 0.168 79.826
10757.125 0.169 79.783 0.984 -9.74 0.984 -9.74 0.169 79.783
10782.083 0.17 79.74 0.984 -9.785 0.984 -9.785 0.17 79.74
10807.042 0.171 79.697 0.984 -9.831 0.984 -9.831 0.171 79.697
10832 0.172 79.654 0.984 -9.876 0.984 -9.876 0.172 79.654
10856.958 0.172 79.611 0.984 -9.921 0.984 -9.921 0.172 79.611
10881.917 0.173 79.568 0.984 -9.966 0.984 -9.966 0.173 79.568
10906.875 0.174 79.526 0.983 -10.011 0.983 -10.011 0.174 79.526
10931.833 0.175 79.483 0.983 -10.056 0.983 -10.056 0.175 79.483
10956.792 0.175 79.44 0.983 -10.1 0.983 -10.1 0.175 79.44
10981.75 0.176 79.397 0.983 -10.145 0.983 -10.145 0.176 79.397
11006.708 0.177 79.355 0.983 -10.19 0.983 -10.19 0.177 79.355
11031.667 0.178 79.312 0.983 -10.234 0.983 -10.234 0.178 79.312
11056.625 0.178 79.27 0.983 -10.279 0.983 -10.279 0.178 79.27
11081.583 0.179 79.227 0.982 -10.324 0.982 -10.324 0.179 79.227
11106.542 0.18 79.185 0.982 -10.368 0.982 -10.368 0.18 79.185
11131.5 0.181 79.142 0.982 -10.412 0.982 -10.412 0.181 79.142
11156.458 0.181 79.1 0.982 -10.457 0.982 -10.457 0.181 79.1
11181.417 0.182 79.058 0.982 -10.501 0.982 -10.501 0.182 79.058
11206.375 0.183 79.015 0.982 -10.545 0.982 -10.545 0.183 79.015
11231.333 0.184 78.973 0.982 -10.589 0.982 -10.589 0.184 78.973
11256.292 0.185 78.931 0.981 -10.633 0.981 -10.633 0.185 78.931
11281.25 0.185 78.889 0.981 -10.677 0.981 -10.677 0.185 78.889
11306.208 0.186 78.847 0.981 -10.721 0.981 -10.721 0.186 78.847
11331.167 0.187 78.804 0.981 -10.765 0.981 -10.765 0.187 78.804
11356.125 0.188 78.762 0.981 -10.809 0.981 -10.809 0.188 78.762
11381.083 0.188 78.72 0.981 -10.853 0.981 -10.853 0.188 78.72
11406.042 0.189 78.678 0.981 -10.896 0.981 -10.896 0.189 78.678
11431 0.19 78.636 0.98 -10.94 0.98 -10.94 0.19 78.636
11455.958 0.191 78.595 0.98 -10.984 0.98 -10.984 0.191 78.595
11480.917 0.191 78.553 0.98 -11.027 0.98 -11.027 0.191 78.553
11505.875 0.192 78.511 0.98 -11.071 0.98 -11.071 0.192 78.511
11530.833 0.193 78.469 0.98 -11.114 0.98 -11.114 0.193 78.469
11555.792 0.194 78.427 0.98 -11.158 0.98 -11.158 0.194 78.427
11580.75 0.194 78.386 0.98 -11.201 0.98 -11.201 0.194 78.386
11605.708 0.195 78.344 0.979 -11.244 0.979 -11.244 0.195 78.344
11630.667 0.196 78.303 0.979 -11.287 0.979 -11.287 0.196 78.303
11655.625 0.196 78.261 0.979 -11.331 0.979 -11.331 0.196 78.261
11680.583 0.197 78.22 0.979 -11.374 0.979 -11.374 0.197 78.22
11705.542 0.198 78.178 0.979 -11.417 0.979 -11.417 0.198 78.178
11730.5 0.199 78.137 0.979 -11.46 0.979 -11.46 0.199 78.137
11755.458 0.199 78.095 0.979 -11.503 0.979 -11.503 0.199 78.095
11780.417 0.2 78.054 0.978 -11.546 0.978 -11.546 0.2 78.054
11805.375 0.201 78.013 0.978 -11.588 0.978 -11.588 0.201 78.013
11830.333 0.202 77.971 0.978 -11.631 0.978 -11.631 0.202 77.971
11855.292 0.202 77.93 0.978 -11.674 0.978 -11.674 0.202 77.93
11880.25 0.203 77.889 0.978 -11.717 0.978 -11.717 0.203 77.889
11905.208 0.204 77.848 0.978 -11.759 0.978 -11.759 0.204 77.848
11930.167 0.205 77.807 0.977 -11.802 0.977 -11.802 0.205 77.807
11955.125 0.205 77.766 0.977 -11.844 0.977 -11.844 0.205 77.766
11980.083 0.206 77.725 0.977 -11.887 0.977 -11.887 0.206 77.725
12005.042 0.207 77.684 0.977 -11.929 0.977 -11.929 0.207 77.684
12030 0.207 77.643 0.977 -11.971 0.977 -11.971 0.207 77.643
12054.958 0.208 77.602 0.977 -12.014 0.977 -12.014 0.208 77.602
12079.917 0.209 77.561 0.977 -12.056 0.977 -12.056 0.209 77.561
12104.875 0.21 77.52 0.976 -12.098 0.976 -12.098 0.21 77.52
12129.833 0.21 77.479 0.976 -12.14 0.976 -12.14 0.21 77.479
12154.792 0.211 77.438 0.976 -12.183 0.976 -12.183 0.211 77.438
12179.75 0.212 77.398 0.976 -12.225 0.976 -12.225 0.212 77.398
12204.708 0.212 77.357 0.976 -12.267 0.976 -12.267 0.212 77.357
12229.667 0.213 77.316 0.976 -12.309 0.976 -12.309 0.213 77.316
12254.625 0.214 77.276 0.975 -12.35 0.975 -12.35 0.214 77.276
12279.583 0.215 77.235 0.975 -12.392 0.975 -12.392 0.215 77.235
12304.542 0.215 77.195 0.975 -12.434 0.975 -12.434 0.215 77.195
12329.5 0.216 77.154 0.975 -12.476 0.975 -12.476 0.216 77.154
12354.458 0.217 77.114 0.975 -12.518 0.975 -12.518 0.217 77.114
12379.417 0.217 77.073 0.975 -12.559 0.975 -12.559 0.217 77.073
12404.375 0.218 77.033 0.975 -12.601 0.975 -12.601 0.218 77.033
12429.333 0.219 76.993 0.974 -12.642 0.974 -12.642 0.219 76.993
12454.292 0.22 76.952 0.974 -12.684 0.974 -12.684 0.22 76.952
12479.25 0.22 76.912 0.974 -12.725 0.974 -12.725 0.22 76.912
12504.208 0.221 76.872 0.974 -12.767 0.974 -12.767 0.221 76.872
12529.167 0.222 76.832 0.974 -12.808 0.974 -12.808 0.222 76.832
12554.125 0.222 76.792 0.974 -12.85 0.974 -12.85 0.222 76.792
12579.083 0.223 76.752 0.973 -12.891 0.973 -12.891 0.223 76.752
12604.042 0.224 76.711 0.973 -12.932 0.973 -12.932 0.224 76.711
12629 0.225 76.671 0.973 -12.973 0.973 -12.973 0.225 76.671
12653.958 0.225 76.631 0.973 -13.015 0.973 -13.015 0.225 76.631
12678.917 0.226 76.591 0.973 -13.056 0.973 -13.056 0.226 76.591
12703.875 0.227 76.552 0.973 -13.097 0.973 -13.097 0.227 76.552
12728.833 0.227 76.512 0.972 -13.138 0.972 -13.138 0.227 76.512
12753.792 0.228 76.472 0.972 -13.179 0.972 -13.179 0.228 76.472
12778.75 0.229 76.432 0.972 -13.22 0.972 -13.22 0.229 76.432
12803.708 0.229 76.392 0.972 -13.26 0.972 -13.26 0.229 76.392
12828.667 0.23 76.353 0.972 -13.301 0.972 -13.301 0.23 76.353
12853.625 0.231 76.313 0.972 -13.342 0.972 -13.342 0.231 76.313
12878.583 0.231 76.273 0.971 -13.383 0.971 -13.383 0.231 76.273
12903.542 0.232 76.234 0.971 -13.424 0.971 -13.424 0.232 76.234
12928.5 0.233 76.194 0.971 -13.464 0.971 -13.464 0.233 76.194
12953.458 0.234 76.154 0.971 -13.505 0.971 -13.505 0.234 76.154
12978.417 0.234 76.115 0.971 -13.545 0.971 -13.545 0.234 76.115
13003.375 0.235 76.075 0.971 -13.586 0.971 -13.586 0.235 76.075
13028.333 0.236 76.036 0.97 -13.626 0.97 -13.626 0.236 76.036
13053.292 0.236 75.997 0.97 -13.667 0.97 -13.667 0.236 75.997
13078.25 0.237 75.957 0.97 -13.707 0.97 -13.707 0.237 75.957
13103.208 0.238 75.918 0.97 -13.748 0.97 -13.748 0.238 75.918
13128.167 0.238 75.879 0.97 -13.788 0.97 -13.788 0.238 75.879
13153.125 0.239 75.839 0.97 -13.828 0.97 -13.828 0.239 75.839
13178.083 0.24 75.8 0.969 -13.868 0.969 -13.868 0.24 75.8
13203.042 0.24 75.761 0.969 -13.909 0.969 -13.909 0.24 75.761
13228 0.241 75.722 0.969 -13.949 0.969 -13.949 0.241 75.722
13252.958 0.242 75.683 0.969 -13.989 0.969 -13.989 0.242 75.683
13277.917 0.242 75.644 0.969 -14.029 0.969 -14.029 0.242 75.644
13302.875 0.243 75.605 0.969 -14.069 0.969 -14.069 0.243 75.605
13327.833 0.244 75.566 0.968 -14.109 0.968 -14.109 0.244 75.566
13352.792 0.244 75.527 0.968 -14.149 0.968 -14.149 0.244 75.527
13377.75 0.245 75.488 0.968 -14.189 0.968 -14.189 0.245 75.488
13402.708 0.246 75.449 0.968 -14.228 0.968 -14.228 0.246 75.449
13427.667 0.246 75.41 0.968 -14.268 0.968 -14.268 0.246 75.41
13452.625 0.247 75.371 0.968 -14.308 0.968 -14.308 0.247 75.371
13477.583 0.248 75.332 0.967 -14.348 0.967 -14.348 0.248 75.332
13502.542 0.248 75.294 0.967 -14.387 0.967 -14.387 0.248 75.294
13527.5 0.249 75.255 0.967 -14.427 0.967 -14.427 0.249 75.255
13552.458 0.25 75.216 0.967 -14.467 0.967 -14.467 0.25 75.216
13577.417 0.25 75.177 0.967 -14.506 0.967 -14.506 0.25 75.177
13602.375 0.251 75.139 0.967 -14.546 0.967 -14.546 0.251 75.139
13627.333 0.252 75.1 0.966 -14.585 0.966 -14.585 0.252 75.1
13652.292 0.252 75.062 0.966 -14.625 0.966 -14.625 0.252 75.062
13677.25 0.253 75.023 0.966 -14.664 0.966 -14.664 0.253 75.023
13702.208 0.254 74.985 0.966 -14.704 0.966 -14.704 0.254 74.985
13727.167 0.254 74.946 0.966 -14.743 0.966 -14.743 0.254 74.946
13752.125 0.255 74.908 0.966 -14.782 0.966 -14.782 0.255 74.908
13777.083 0.256 74.869 0.965 -14.821 0.965 -14.821 0.256 74.869
13802.042 0.256 74.831 0.965 -14.861 0.965 -14.861 0.256 74.831
13827 0.257 74.793 0.965 -14.9 0.965 -14.9 0.257 74.793
13851.958 0.258 74.754 0.965 -14.939 0.965 -14.939 0.258 74.754
13876.917 0.258 74.716 0.965 -14.978 0.965 -14.978 0.258 74.716
13901.875 0.259 74.678 0.964 -15.017 0.964 -15.017 0.259 74.678
13926.833 0.26 74.64 0.964 -15.056 0.964 -15.056 0.26 74.64
13951.792 0.26 74.602 0.964 -15.095 0.964 -15.095 0.26 74.602
13976.75 0.261 74.563 0.964 -15.134 0.964 -15.134 0.261 74.563
14001.708 0.262 74.525 0.964 -15.173 0.964 -15.173 0.262 74.525
14026.667 0.262 74.487 0.964 -15.212 0.964 -15.212 0.262 74.487
14051.625 0.263 74.449 0.963 -15.251 0.963 -15.251 0.263 74.449
14076.583 0.264 74.411 0.963 -15.289 0.963 -15.289 0.264 74.411
14101.542 0.264 74.373 0.963 -15.328 0.963 -15.328 0.264 74.373
14126.5 0.265 74.335 0.963 -15.367 0.963 -15.367 0.265 74.335
14151.458 0.266 74.297 0.963 -15.406 0.963 -15.406 0.266 74.297
14176.417 0.266 74.26 0.963 -15.444 0.963 -15.444 0.266 74.26
14201.375 0.267 74.222 0.962 -15.483 0.962 -15.483 0.267 74.222
14226.333 0.268 74.184 0.962 -15.521 0.962 -15.521 0.268 74.184
14251.292 0.268 74.146 0.962 -15.56 0.962 -15.56 0.268 74.146
14276.25 0.269 74.108 0.962 -15.598 0.962 -15.598 0.269 74.108
14301.208 0.27 74.071 0.962 -15.637 0.962 -15.637 0.27 74.071
14326.167 0.27 74.033 0.961 -15.675 0.961 -15.675 0.27 74.033
14351.125 0.271 73.995 0.961 -15.714 0.961 -15.714 0.271 73.995
14376.083 0.271 73.958 0.961 -15.752 0.961 -15.752 0.271 73.958
14401.042 0.272 73.92 0.961 -15.79 0.961 -15.79 0.272 73.92
14426 0.273 73.883 0.961 -15.829 0.961 -15.829 0.273 73.883
14450.958 0.273 73.845 0.961 -15.867 0.961 -15.867 0.273 73.845
14475.917 0.274 73.808 0.96 -15.905 0.96 -15.905 0.274 73.808
14500.875 0.275 73.77 0.96 -15.943 0.96 -15.943 0.275 73.77
14525.833 0.275 73.733 0.96 -15.981 0.96 -15.981 0.275 73.733
14550.792 0.276 73.695 0.96 -16.02 0.96 -16.02 0.276 73.695
14575.75 0.277 73.658 0.96 -16.058 0.96 -16.058 0.277 73.658
14600.708 0.277 73.621 0.959 -16.096 0.959 -16.096 0.277 73.621
14625.667 0.278 73.583 0.959 -16.134 0.959 -16.134 0.278 73.583
14650.625 0.279 73.546 0.959 -16.172 0.959 -16.172 0.279 73.546
14675.583 0.279 73.509 0.959 -16.21 0.959 -16.21 0.279 73.509
14700.542 0.28 73.472 0.959 -16.247 0.959 -16.247 0.28 73.472
14725.5 0.28 73.435 0.959 -16.285 0.959 -16.285 0.28 73.435
14750.458 0.281 73.397 0.958 -16.323 0.958 -16.323 0.281 73.397
14775.417 0.282 73.36 0.958 -16.361 0.958 -16.361 0.282 73.36
14800.375 0.282 73.323 0.958 -16.399 0.958 -16.399 0.282 73.323
14825.333 0.283 73.286 0.958 -16.436 0.958 -16.436 0.283 73.286
14850.292 0.284 73.249 0.958 -16.474 0.958 -16.474 0.284 73.249
14875.25 0.284 73.212 0.957 -16.512 0.957 -16.512 0.284 73.212
14900.208 0.285 73.175 0.957 -16.549 0.957 -16.549 0.285 73.175
14925.167 0.285 73.138 0.957 -16.587 0.957 -16.587 0.285 73.138
14950.125 0.286 73.101 0.957 -16.625 0.957 -16.625 0.286 73.101
14975.083 0.287 73.064 0.957 -16.662 0.957 -16.662 0.287 73.064
15000.042 0.287 73.028 0.956 -16.7 0.956 -16.7 0.287 73.028
15025 0.288 72.991 0.956 -16.737 0.956 -16.737 0.288 72.991
15049.958 0.289 72.954 0.956 -16.774 0.956 -16.774 0.289 72.954
15074.917 0.289 72.917 0.956 -16.812 0.956 -16.812 0.289 72.917
15099.875 0.29 72.881 0.956 -16.849 0.956 -16.849 0.29 72.881
15124.833 0.29 72.844 0.956 -16.886 0.956 -16.886 0.29 72.844
15149.792 0.291 72.807 0.955 -16.924 0.955 -16.924 0.291 72.807
15174.75 0.292 72.771 0.955 -16.961 0.955 -16.961 0.292 72.771
15199.708 0.292 72.734 0.955 -16.998 0.955 -16.998 0.292 72.734
15224.667 0.293 72.697 0.955 -17.035 0.955 -17.035 0.293 72.697
15249.625 0.294 72.661 0.955 -17.073 0.955 -17.073 0.294 72.661
15274.583 0.294 72.624 0.954 -17.11 0.954 -17.11 0.294 72.624
15299.542 0.295 72.588 0.954 -17.147 0.954 -17.147 0.295 72.588
15324.5 0.295 72.551 0.954 -17.184 0.954 -17.184 0.295 72.551
15349.458 0.296 72.515 0.954 -17.221 0.954 -17.221 0.296 72.515
15374.417 0.297 72.479 0.954 -17.258 0.954 -17.258 0.297 72.479
15399.375 0.297 72.442 0.953 -17.295 0.953 -17.295 0.297 72.442
15424.333 0.298 72.406 0.953 -17.332 0.953 -17.332 0.298 72.406
15449.292 0.299 72.37 0.953 -17.369 0.953 -17.369 0.299 72.37
15474.25 0.299 72.333 0.953 -17.406 0.953 -17.406 0.299 72.333
15499.208 0.3 72.297 0.953 -17.442 0.953 -17.442 0.3 72.297
15524.167 0.3 72.261 0.952 -17.479 0.952 -17.479 0.3 72.261
15549.125 0.301 72.225 0.952 -17.516 0.952 -17.516 0.301 72.225
15574.083 0.302 72.189 0.952 -17.553 0.952 -17.553 0.302 72.189
15599.042 0.302 72.152 0.952 -17.589 0.952 -17.589 0.302 72.152
15624 0.303 72.116 0.952 -17.626 0.952 -17.626 0.303 72.116
15648.958 0.303 72.08 0.951 -17.663 0.951 -17.663 0.303 72.08
15673.917 0.304 72.044 0.951 -17.699 0.951 -17.699 0.304 72.044
15698.875 0.305 72.008 0.951 -17.736 0.951 -17.736 0.305 72.008
15723.833 0.305 71.972 0.951 -17.773 0.951 -17.773 0.305 71.972
15748.792 0.306 71.936 0.951 -17.809 0.951 -17.809 0.306 71.936
15773.75 0.306 71.9 0.951 -17.846 0.951 -17.846 0.306 71.9
15798.708 0.307 71.864 0.95 -17.882 0.95 -17.882 0.307 71.864
15823.667 0.308 71.828 0.95 -17.918 0.95 -17.918 0.308 71.828
15848.625 0.308 71.793 0.95 -17.955 0.95 -17.955 0.308 71.793
15873.583 0.309 71.757 0.95 -17.991 0.95 -17.991 0.309 71.757
15898.542 0.309 71.721 0.95 -18.028 0.95 -18.028 0.309 71.721
15923.5 0.31 71.685 0.949 -18.064 0.949 -18.064 0.31 71.685
15948.458 0.311 71.649 0.949 -18.1 0.949 -18.1 0.311 71.649
15973.417 0.311 71.614 0.949 -18.136 0.949 -18.136 0.311 71.614
15998.375 0.312 71.578 0.949 -18.173 0.949 -18.173 0.312 71.578
16023.333 0.312 71.542 0.949 -18.209 0.949 -18.209 0.312 71.542
16048.292 0.313 71.507 0.948 -18.245 0.948 -18.245 0.313 71.507
16073.25 0.314 71.471 0.948 -18.281 0.948 -18.281 0.314 71.471
16098.208 0.314 71.436 0.948 -18.317 0.948 -18.317 0.314 71.436
16123.167 0.315 71.4 0.948 -18.353 0.948 -18.353 0.315 71.4
16148.125 0.315 71.365 0.948 -18.389 0.948 -18.389 0.315 71.365
16173.083 0.316 71.329 0.947 -18.425 0.947 -18.425 0.316 71.329
16198.042 0.317 71.294 0.947 -18.461 0.947 -18.461 0.317 71.294
16223 0.317 71.258 0.947 -18.497 0.947 -18.497 0.317 71.258
16247.958 0.318 71.223 0.947 -18.533 0.947 -18.533 0.318 71.223
16272.917 0.318 71.187 0.947 -18.569 0.947 -18.569 0.318 71.187
16297.875 0.319 71.152 0.946 -18.605 0.946 -18.605 0.319 71.152
16322.833 0.32 71.117 0.946 -18.641 0.946 -18.641 0.32 71.117
16347.792 0.32 71.081 0.946 -18.677 0.946 -18.677 0.32 71.081
16372.75 0.321 71.046 0.946 -18.712 0.946 -18.712 0.321 71.046
16397.708 0.321 71.011 0.946 -18.748 0.946 -18.748 0.321 71.011
16422.667 0.322 70.976 0.945 -18.784 0.945 -18.784 0.322 70.976
16447.625 0.323 70.94 0.945 -18.819 0.945 -18.819 0.323 70.94
16472.583 0.323 70.905 0.945 -18.855 0.945 -18.855 0.323 70.905
16497.542 0.324 70.87 0.945 -18.891 0.945 -18.891 0.324 70.87
16522.5 0.324 70.835 0.945 -18.926 0.945 -18.926 0.324 70.835
16547.458 0.325 70.8 0.944 -18.962 0.944 -18.962 0.325 70.8
16572.417 0.326 70.765 0.944 -18.997 0.944 -18.997 0.326 70.765
16597.375 0.326 70.73 0.944 -19.033 0.944 -19.033 0.326 70.73
16622.333 0.327 70.695 0.944 -19.068 0.944 -19.068 0.327 70.695
16647.292 0.327 70.66 0.944 -19.104 0.944 -19.104 0.327 70.66
16672.25 0.328 70.625 0.943 -19.139 0.943 -19.139 0.328 70.625
16697.208 0.328 70.59 0.943 -19.175 0.943 -19.175 0.328 70.59
16722.167 0.329 70.555 0.943 -19.21 0.943 -19.21 0.329 70.555
16747.125 0.33 70.52 0.943 -19.245 0.943 -19.245 0.33 70.52
16772.083 0.33 70.485 0.943 -19.281 0.943 -19.281 0.33 70.485
16797.042 0.331 70.45 0.942 -19.316 0.942 -19.316 0.331 70.45
16822 0.331 70.416 0.942 -19.351 0.942 -19.351 0.331 70.416
16846.958 0.332 70.381 0.942 -19.387 0.942 -19.387 0.332 70.381
16871.917 0.333 70.346 0.942 -19.422 0.942 -19.422 0.333 70.346
16896.875 0.333 70.311 0.942 -19.457 0.942 -19.457 0.333 70.311
16921.833 0.334 70.277 0.941 -19.492 0.941 -19.492 0.334 70.277
16946.792 0.334 70.242 0.941 -19.527 0.941 -19.527 0.334 70.242
16971.75 0.335 70.207 0.941 -19.562 0.941 -19.562 0.335 70.207
16996.708 0.335 70.173 0.941 -19.597 0.941 -19.597 0.335 70.173
17021.667 0.336 70.138 0.941 -19.632 0.941 -19.632 0.336 70.138
17046.625 0.337 70.104 0.94 -19.667 0.94 -19.667 0.337 70.104
17071.583 0.337 70.069 0.94 -19.702 0.94 -19.702 0.337 70.069
17096.542 0.338 70.035 0.94 -19.737 0.94 -19.737 0.338 70.035
17121.5 0.338 70 0.94 -19.772 0.94 -19.772 0.338 70
17146.458 0.339 69.966 0.939 -19.807 0.939 -19.807 0.339 69.966
17171.417 0.339 69.931 0.939 -19.842 0.939 -19.842 0.339 69.931
17196.375 0.34 69.897 0.939 -19.877 0.939 -19.877 0.34 69.897
17221.333 0.341 69.862 0.939 -19.912 0.939 -19.912 0.341 69.862
17246.292 0.341 69.828 0.939 -19.946 0.939 -19.946 0.341 69.828
17271.25 0.342 69.794 0.938 -19.981 0.938 -19.981 0.342 69.794
17296.208 0.342 69.759 0.938 -20.016 0.938 -20.016 0.342 69.759
17321.167 0.343 69.725 0.938 -20.051 0.938 -20.051 0.343 69.725
17346.125 0.343 69.691 0.938 -20.085 0.938 -20.085 0.343 69.691
17371.083 0.344 69.657 0.938 -20.12 0.938 -20.12 0.344 69.657
17396.042 0.345 69.622 0.937 -20.155 0.937 -20.155 0.345 69.622
17421 0.345 69.588 0.937 -20.189 0.937 -20.189 0.345 69.588
17445.958 0.346 69.554 0.937 -20.224 0.937 -20.224 0.346 69.554
17470.917 0.346 69.52 0.937 -20.258 0.937 -20.258 0.346 69.52
17495.875 0.347 69.486 0.937 -20.293 0.937 -20.293 0.347 69.486
17520.833 0.347 69.452 0.936 -20.327 0.936 -20.327 0.347 69.452
17545.792 0.348 69.418 0.936 -20.362 0.936 -20.362 0.348 69.418
17570.75 0.349 69.384 0.936 -20.396 0.936 -20.396 0.349 69.384
17595.708 0.349 69.35 0.936 -20.431 0.936 -20.431 0.349 69.35
17620.667 0.35 69.316 0.936 -20.465 0.936 -20.465 0.35 69.316
17645.625 0.35 69.282 0.935 -20.499 0.935 -20.499 0.35 69.282
17670.583 0.351 69.248 0.935 -20.534 0.935 -20.534 0.351 69.248
17695.542 0.351 69.214 0.935 -20.568 0.935 -20.568 0.351 69.214
17720.5 0.352 69.18 0.935 -20.602 0.935 -20.602 0.352 69.18
17745.458 0.352 69.146 0.934 -20.636 0.934 -20.636 0.352 69.146
17770.417 0.353 69.112 0.934 -20.671 0.934 -20.671 0.353 69.112
17795.375 0.354 69.079 0.934 -20.705 0.934 -20.705 0.354 69.079
17820.333 0.354 69.045 0.934 -20.739 0.934 -20.739 0.354 69.045
17845.292 0.355 69.011 0.934 -20.773 0.934 -20.773 0.355 69.011
17870.25 0.355 68.977 0.933 -20.807 0.933 -20.807 0.355 68.977
17895.208 0.356 68.944 0.933 -20.841 0.933 -20.841 0.356 68.944
17920.167 0.356 68.91 0.933 -20.876 0.933 -20.876 0.356 68.91
17945.125 0.357 68.876 0.933 -20.91 0.933 -20.91 0.357 68.876
17970.083 0.357 68.843 0.933 -20.944 0.933 -20.944 0.357 68.843
17995.042 0.358 68.809 0.932 -20.978 0.932 -20.978 0.358 68.809
18020 0.359 68.775 0.932 -21.012 0.932 -21.012 0.359 68.775
18044.958 0.359 68.742 0.932 -21.046 0.932 -21.046 0.359 68.742
18069.917 0.36 68.708 0.932 -21.079 0.932 -21.079 0.36 68.708
18094.875 0.36 68.675 0.932 -21.113 0.932 -21.113 0.36 68.675
18119.833 0.361 68.641 0.931 -21.147 0.931 -21.147 0.361 68.641
18144.792 0.361 68.608 0.931 -21.181 0.931 -21.181 0.361 68.608
18169.75 0.362 68.574 0.931 -21.215 0.931 -21.215 0.362 68.574
18194.708 0.362 68.541 0.931 -21.249 0.931 -21.249 0.362 68.541
18219.667 0.363 68.508 0.93 -21.282 0.93 -21.282 0.363 68.508
18244.625 0.364 68.474 0.93 -21.316 0.93 -21.316 0.364 68.474
18269.583 0.364 68.441 0.93 -21.35 0.93 -21.35 0.364 68.441
18294.542 0.365 68.407 0.93 -21.384 0.93 -21.384 0.365 68.407
18319.5 0.365 68.374 0.93 -21.417 0.93 -21.417 0.365 68.374
18344.458 0.366 68.341 0.929 -21.451 0.929 -21.451 0.366 68.341
18369.417 0.366 68.308 0.929 -21.484 0.929 -21.484 0.366 68.308
18394.375 0.367 68.274 0.929 -21.518 0.929 -21.518 0.367 68.274
18419.333 0.367 68.241 0.929 -21.552 0.929 -21.552 0.367 68.241
18444.292 0.368 68.208 0.929 -21.585 0.929 -21.585 0.368 68.208
18469.25 0.368 68.175 0.928 -21.619 0.928 -21.619 0.368 68.175
18494.208 0.369 68.142 0.928 -21.652 0.928 -21.652 0.369 68.142
18519.167 0.37 68.109 0.928 -21.686 0.928 -21.686 0.37 68.109
18544.125 0.37 68.076 0.928 -21.719 0.928 -21.719 0.37 68.076
18569.083 0.371 68.042 0.927 -21.752 0.927 -21.752 0.371 68.042
18594.042 0.371 68.009 0.927 -21.786 0.927 -21.786 0.371 68.009
18619 0.372 67.976 0.927 -21.819 0.927 -21.819 0.372 67.976
18643.958 0.372 67.943 0.927 -21.853 0.927 -21.853 0.372 67.943
18668.917 0.373 67.91 0.927 -21.886 0.927 -21.886 0.373 67.91
18693.875 0.373 67.877 0.926 -21.919 0.926 -21.919 0.373 67.877
18718.833 0.374 67.845 0.926 -21.952 0.926 -21.952 0.374 67.845
18743.792 0.374 67.812 0.926 -21.986 0.926 -21.986 0.374 67.812
18768.75 0.375 67.779 0.926 -22.019 0.926 -22.019 0.375 67.779
18793.708 0.375 67.746 0.926 -22.052 0.926 -22.052 0.375 67.746
18818.667 0.376 67.713 0.925 -22.085 0.925 -22.085 0.376 67.713
18843.625 0.377 67.68 0.925 -22.118 0.925 -22.118 0.377 67.68
18868.583 0.377 67.648 0.925 -22.151 0.925 -22.151 0.377 67.648
18893.542 0.378 67.615 0.925 -22.185 0.925 -22.185 0.378 67.615
18918.5 0.378 67.582 0.924 -22.218 0.924 -22.218 0.378 67.582
18943.458 0.379 67.549 0.924 -22.251 0.924 -22.251 0.379 67.549
18968.417 0.379 67.517 0.924 -22.284 0.924 -22.284 0.379 67.517
18993.375 0.38 67.484 0.924 -22.317 0.924 -22.317 0.38 67.484
19018.333 0.38 67.451 0.924 -22.35 0.924 -22.35 0.38 67.451
19043.292 0.381 67.419 0.923 -22.383 0.923 -22.383 0.381 67.419
19068.25 0.381 67.386 0.923 -22.415 0.923 -22.415 0.381 67.386
19093.208 0.382 67.354 0.923 -22.448 0.923 -22.448 0.382 67.354
19118.167 0.382 67.321 0.923 -22.481 0.923 -22.481 0.382 67.321
19143.125 0.383 67.288 0.922 -22.514 0.922 -22.514 0.383 67.288
19168.083 0.383 67.256 0.922 -22.547 0.922 -22.547 0.383 67.256
19193.042 0.384 67.223 0.922 -22.58 0.922 -22.58 0.384 67.223
19218 0.384 67.191 0.922 -22.613 0.922 -22.613 0.384 67.191
19242.958 0.385 67.159 0.922 -22.645 0.922 -22.645 0.385 67.159
19267.917 0.386 67.126 0.921 -22.678 0.921 -22.678 0.386 67.126
19292.875 0.386 67.094 0.921 -22.711 0.921 -22.711 0.386 67.094
19317.833 0.387 67.061 0.921 -22.743 0.921 -22.743 0.387 67.061
19342.792 0.387 67.029 0.921 -22.776 0.921 -22.776 0.387 67.029
19367.75 0.388 66.997 0.92 -22.809 0.92 -22.809 0.388 66.997
19392.708 0.388 66.964 0.92 -22.841 0.92 -22.841 0.388 66.964
19417.667 0.389 66.932 0.92 -22.874 0.92 -22.874 0.389 66.932
19442.625 0.389 66.9 0.92 -22.906 0.92 -22.906 0.389 66.9
19467.583 0.39 66.868 0.92 -22.939 0.92 -22.939 0.39 66.868
19492.542 0.39 66.835 0.919 -22.972 0.919 -22.972 0.39 66.835
19517.5 0.391 66.803 0.919 -23.004 0.919 -23.004 0.391 66.803
19542.458 0.391 66.771 0.919 -23.036 0.919 -23.036 0.391 66.771
19567.417 0.392 66.739 0.919 -23.069 0.919 -23.069 0.392 66.739
19592.375 0.392 66.707 0.918 -23.101 0.918 -23.101 0.392 66.707
19617.333 0.393 66.675 0.918 -23.134 0.918 -23.134 0.393 66.675
19642.292 0.393 66.643 0.918 -23.166 0.918 -23.166 0.393 66.643
19667.25 0.394 66.611 0.918 -23.199 0.918 -23.199 0.394 66.611
19692.208 0.394 66.578 0.918 -23.231 0.918 -23.231 0.394 66.578
19717.167 0.395 66.546 0.917 -23.263 0.917 -23.263 0.395 66.546
19742.125 0.395 66.514 0.917 -23.295 0.917 -23.295 0.395 66.514
19767.083 0.396 66.483 0.917 -23.328 0.917 -23.328 0.396 66.483
19792.042 0.397 66.451 0.917 -23.36 0.917 -23.36 0.397 66.451
19817 0.397 66.419 0.916 -23.392 0.916 -23.392 0.397 66.419
19841.958 0.398 66.387 0.916 -23.424 0.916 -23.424 0.398 66.387
19866.917 0.398 66.355 0.916 -23.457 0.916 -23.457 0.398 66.355
19891.875 0.399 66.323 0.916 -23.489 0.916 -23.489 0.399 66.323
19916.833 0.399 66.291 0.916 -23.521 0.916 -23.521 0.399 66.291
19941.792 0.4 66.259 0.915 -23.553 0.915 -23.553 0.4 66.259
19966.75 0.4 66.228 0.915 -23.585 0.915 -23.585 0.4 66.228
19991.708 0.401 66.196 0.915 -23.617 0.915 -23.617 0.401 66.196
20016.667 0.401 66.164 0.915 -23.649 0.915 -23.649 0.401 66.164
20041.625 0.402 66.132 0.914 -23.681 0.914 -23.681 0.402 66.132
20066.583 0.402 66.101 0.914 -23.713 0.914 -23.713 0.402 66.101
20091.542 0.403 66.069 0.914 -23.745 0.914 -23.745 0.403 66.069
20116.5 0.403 66.037 0.914 -23.777 0.914 -23.777 0.403 66.037
20141.458 0.404 66.006 0.914 -23.809 0.914 -23.809 0.404 66.006
20166.417 0.404 65.974 0.913 -23.841 0.913 -23.841 0.404 65.974
20191.375 0.405 65.942 0.913 -23.873 0.913 -23.873 0.405 65.942
20216.333 0.405 65.911 0.913 -23.904 0.913 -23.904 0.405 65.911
20241.292 0.406 65.879 0.913 -23.936 0.913 -23.936 0.406 65.879
20266.25 0.406 65.848 0.912 -23.968 0.912 -23.968 0.406 65.848
20291.208 0.407 65.816 0.912 -24 0.912 -24 0.407 65.816
20316.167 0.407 65.785 0.912 -24.032 0.912 -24.032 0.407 65.785
20341.125 0.408 65.753 0.912 -24.063 0.912 -24.063 0.408 65.753
20366.083 0.408 65.722 0.912 -24.095 0.912 -24.095 0.408 65.722
20391.042 0.409 65.69 0.911 -24.127 0.911 -24.127 0.409 65.69
20416 0.409 65.659 0.911 -24.158 0.911 -24.158 0.409 65.659
20440.958 0.41 65.628 0.911 -24.19 0.911 -24.19 0.41 65.628
20465.917 0.41 65.596 0.911 -24.222 0.911 -24.222 0.41 65.596
20490.875 0.411 65.565 0.91 -24.253 0.91 -24.253 0.411 65.565
20515.833 0.411 65.534 0.91 -24.285 0.91 -24.285 0.411 65.534
20540.792 0.412 65.502 0.91 -24.316 0.91 -24.316 0.412 65.502
20565.75 0.412 65.471 0.91 -24.348 0.91 -24.348 0.412 65.471
20590.708 0.413 65.44 0.91 -24.379 0.91 -24.379 0.413 65.44
20615.667 0.413 65.409 0.909 -24.411 0.909 -24.411 0.413 65.409
20640.625 0.414 65.377 0.909 -24.442 0.909 -24.442 0.414 65.377
20665.583 0.414 65.346 0.909 -24.474 0.909 -24.474 0.414 65.346
20690.542 0.415 65.315 0.909 -24.505 0.909 -24.505 0.415 65.315
20715.5 0.415 65.284 0.908 -24.537 0.908 -24.537 0.415 65.284
20740.458 0.416 65.253 0.908 -24.568 0.908 -24.568 0.416 65.253
20765.417 0.416 65.222 0.908 -24.599 0.908 -24.599 0.416 65.222
20790.375 0.417 65.191 0.908 -24.631 0.908 -24.631 0.417 65.191
20815.333 0.417 65.16 0.907 -24.662 0.907 -24.662 0.417 65.16
20840.292 0.418 65.129 0.907 -24.693 0.907 -24.693 0.418 65.129
20865.25 0.418 65.098 0.907 -24.725 0.907 -24.725 0.418 65.098
20890.208 0.419 65.067 0.907 -24.756 0.907 -24.756 0.419 65.067
20915.167 0.419 65.036 0.907 -24.787 0.907 -24.787 0.419 65.036
20940.125 0.42 65.005 0.906 -24.818 0.906 -24.818 0.42 65.005
20965.083 0.42 64.974 0.906 -24.85 0.906 -24.85 0.42 64.974
20990.042 0.421 64.943 0.906 -24.881 0.906 -24.881 0.421 64.943
21015 0.421 64.912 0.906 -24.912 0.906 -24.912 0.421 64.912
21039.958 0.422 64.881 0.905 -24.943 0.905 -24.943 0.422 64.881
21064.917 0.422 64.85 0.905 -24.974 0.905 -24.974 0.422 64.85
21089.875 0.423 64.819 0.905 -25.005 0.905 -25.005 0.423 64.819
21114.833 0.423 64.789 0.905 -25.036 0.905 -25.036 0.423 64.789
21139.792 0.424 64.758 0.905 -25.067 0.905 -25.067 0.424 64.758
21164.75 0.424 64.727 0.904 -25.098 0.904 -25.098 0.424 64.727
21189.708 0.425 64.696 0.904 -25.129 0.904 -25.129 0.425 64.696
21214.667 0.425 64.666 0.904 -25.16 0.904 -25.16 0.425 64.666
21239.625 0.426 64.635 0.904 -25.191 0.904 -25.191 0.426 64.635
21264.583 0.426 64.604 0.903 -25.222 0.903 -25.222 0.426 64.604
21289.542 0.427 64.574 0.903 -25.253 0.903 -25.253 0.427 64.574
21314.5 0.427 64.543 0.903 -25.284 0.903 -25.284 0.427 64.543
21339.458 0.428 64.512 0.903 -25.315 0.903 -25.315 0.428 64.512
21364.417 0.428 64.482 0.902 -25.345 0.902 -25.345 0.428 64.482
21389.375 0.429 64.451 0.902 -25.376 0.902 -25.376 0.429 64.451
21414.333 0.429 64.421 0.902 -25.407 0.902 -25.407 0.429 64.421
21439.292 0.43 64.39 0.902 -25.438 0.902 -25.438 0.43 64.39
21464.25 0.43 64.36 0.902 -25.469 0.902 -25.469 0.43 64.36
21489.208 0.431 64.329 0.901 -25.499 0.901 -25.499 0.431 64.329
21514.167 0.431 64.299 0.901 -25.53 0.901 -25.53 0.431 64.299
21539.125 0.431 64.268 0.901 -25.561 0.901 -25.561 0.431 64.268
21564.083 0.432 64.238 0.901 -25.591 0.901 -25.591 0.432 64.238
21589.042 0.432 64.207 0.9 -25.622 0.9 -25.622 0.432 64.207
21614 0.433 64.177 0.9 -25.653 0.9 -25.653 0.433 64.177
21638.958 0.433 64.147 0.9 -25.683 0.9 -25.683 0.433 64.147
21663.917 0.434 64.116 0.9 -25.714 0.9 -25.714 0.434 64.116
21688.875 0.434 64.086 0.899 -25.744 0.899 -25.744 0.434 64.086
21713.833 0.435 64.056 0.899 -25.775 0.899 -25.775 0.435 64.056
21738.792 0.435 64.025 0.899 -25.805 0.899 -25.805 0.435 64.025
21763.75 0.436 63.995 0.899 -25.836 0.899 -25.836 0.436 63.995
21788.708 0.436 63.965 0.899 -25.866 0.899 -25.866 0.436 63.965
21813.667 0.437 63.935 0.898 -25.897 0.898 -25.897 0.437 63.935
21838.625 0.437 63.904 0.898 -25.927 0.898 -25.927 0.437 63.904
21863.583 0.438 63.874 0.898 -25.958 0.898 -25.958 0.438 63.874
21888.542 0.438 63.844 0.898 -25.988 0.898 -25.988 0.438 63.844
21913.5 0.439 63.814 0.897 -26.018 0.897 -26.018 0.439 63.814
21938.458 0.439 63.784 0.897 -26.049 0.897 -26.049 0.439 63.784
21963.417 0.44 63.754 0.897 -26.079 0.897 -26.079 0.44 63.754
21988.375 0.44 63.724 0.897 -26.109 0.897 -26.109 0.44 63.724
22013.333 0.441 63.694 0.896 -26.14 0.896 -26.14 0.441 63.694
22038.292 0.441 63.663 0.896 -26.17 0.896 -26.17 0.441 63.663
22063.25 0.442 63.633 0.896 -26.2 0.896 -26.2 0.442 63.633
22088.208 0.442 63.603 0.896 -26.23 0.896 -26.23 0.442 63.603
22113.167 0.442 63.573 0.896 -26.261 0.896 -26.261 0.442 63.573
22138.125 0.443 63.544 0.895 -26.291 0.895 -26.291 0.443 63.544
22163.083 0.443 63.514 0.895 -26.321 0.895 -26.321 0.443 63.514
22188.042 0.444 63.484 0.895 -26.351 0.895 -26.351 0.444 63.484
22213 0.444 63.454 0.895 -26.381 0.895 -26.381 0.444 63.454
22237.958 0.445 63.424 0.894 -26.411 0.894 -26.411 0.445 63.424
22262.917 0.445 63.394 0.894 -26.441 0.894 -26.441 0.445 63.394
22287.875 0.446 63.364 0.894 -26.471 0.894 -26.471 0.446 63.364
22312.833 0.446 63.334 0.894 -26.501 0.894 -26.501 0.446 63.334
22337.792 0.447 63.305 0.893 -26.532 0.893 -26.532 0.447 63.305
22362.75 0.447 63.275 0.893 -26.562 0.893 -26.562 0.447 63.275
22387.708 0.448 63.245 0.893 -26.591 0.893 -26.591 0.448 63.245
22412.667 0.448 63.215 0.893 -26.621 0.893 -26.621 0.448 63.215
22437.625 0.449 63.186 0.892 -26.651 0.892 -26.651 0.449 63.186
22462.583 0.449 63.156 0.892 -26.681 0.892 -26.681 0.449 63.156
22487.542 0.449 63.126 0.892 -26.711 0.892 -26.711 0.449 63.126
22512.5 0.45 63.097 0.892 -26.741 0.892 -26.741 0.45 63.097
22537.458 0.45 63.067 0.892 -26.771 0.892 -26.771 0.45 63.067
22562.417 0.451 63.037 0.891 -26.801 0.891 -26.801 0.451 63.037
22587.375 0.451 63.008 0.891 -26.831 0.891 -26.831 0.451 63.008
22612.333 0.452 62.978 0.891 -26.86 0.891 -26.86 0.452 62.978
22637.292 0.452 62.949 0.891 -26.89 0.891 -26.89 0.452 62.949
22662.25 0.453 62.919 0.89 -26.92 0.89 -26.92 0.453 62.919
22687.208 0.453 62.889 0.89 -26.95 0.89 -26.95 0.453 62.889
22712.167 0.454 62.86 0.89 -26.979 0.89 -26.979 0.454 62.86
22737.125 0.454 62.83 0.89 -27.009 0.89 -27.009 0.454 62.83
22762.083 0.455 62.801 0.889 -27.039 0.889 -27.039 0.455 62.801
22787.042 0.455 62.772 0.889 -27.068 0.889 -27.068 0.455 62.772
22812 0.456 62.742 0.889 -27.098 0.889 -27.098 0.456 62.742
22836.958 0.456 62.713 0.889 -27.127 0.889 -27.127 0.456 62.713
22861.917 0.456 62.683 0.888 -27.157 0.888 -27.157 0.456 62.683
22886.875 0.457 62.654 0.888 -27.187 0.888 -27.187 0.457 62.654
22911.833 0.457 62.625 0.888 -27.216 0.888 -27.216 0.457 62.625
22936.792 0.458 62.595 0.888 -27.246 0.888 -27.246 0.458 62.595
22961.75 0.458 62.566 0.888 -27.275 0.888 -27.275 0.458 62.566
22986.708 0.459 62.537 0.887 -27.305 0.887 -27.305 0.459 62.537
23011.667 0.459 62.507 0.887 -27.334 0.887 -27.334 0.459 62.507
23036.625 0.46 62.478 0.887 -27.364 0.887 -27.364 0.46 62.478
23061.583 0.46 62.449 0.887 -27.393 0.887 -27.393 0.46 62.449
23086.542 0.461 62.42 0.886 -27.422 0.886 -27.422 0.461 62.42
23111.5 0.461 62.391 0.886 -27.452 0.886 -27.452 0.461 62.391
23136.458 0.461 62.361 0.886 -27.481 0.886 -27.481 0.461 62.361
23161.417 0.462 62.332 0.886 -27.511 0.886 -27.511 0.462 62.332
23186.375 0.462 62.303 0.885 -27.54 0.885 -27.54 0.462 62.303
23211.333 0.463 62.274 0.885 -27.569 0.885 -27.569 0.463 62.274
23236.292 0.463 62.245 0.885 -27.598 0.885 -27.598 0.463 62.245
23261.25 0.464 62.216 0.885 -27.628 0.885 -27.628 0.464 62.216
23286.208 0.464 62.187 0.884 -27.657 0.884 -27.657 0.464 62.187
23311.167 0.465 62.158 0.884 -27.686 0.884 -27.686 0.465 62.158
23336.125 0.465 62.129 0.884 -27.715 0.884 -27.715 0.465 62.129
23361.083 0.466 62.1 0.884 -27.745 0.884 -27.745 0.466 62.1
23386.042 0.466 62.071 0.884 -27.774 0.884 -27.774 0.466 62.071
23411 0.466 62.042 0.883 -27.803 0.883 -27.803 0.466 62.042
23435.958 0.467 62.013 0.883 -27.832 0.883 -27.832 0.467 62.013
23460.917 0.467 61.984 0.883 -27.861 0.883 -27.861 0.467 61.984
23485.875 0.468 61.955 0.883 -27.89 0.883 -27.89 0.468 61.955
23510.833 0.468 61.926 0.882 -27.919 0.882 -27.919 0.468 61.926
23535.792 0.469 61.897 0.882 -27.948 0.882 -27.948 0.469 61.897
23560.75 0.469 61.869 0.882 -27.977 0.882 -27.977 0.469 61.869
23585.708 0.47 61.84 0.882 -28.006 0.882 -28.006 0.47 61.84
23610.667 0.47 61.811 0.881 -28.035 0.881 -28.035 0.47 61.811
23635.625 0.47 61.782 0.881 -28.064 0.881 -28.064 0.47 61.782
23660.583 0.471 61.753 0.881 -28.093 0.881 -28.093 0.471 61.753
23685.542 0.471 61.725 0.881 -28.122 0.881 -28.122 0.471 61.725
23710.5 0.472 61.696 0.88 -28.151 0.88 -28.151 0.472 61.696
23735.458 0.472 61.667 0.88 -28.18 0.88 -28.18 0.472 61.667
23760.417 0.473 61.639 0.88 -28.209 0.88 -28.209 0.473 61.639
23785.375 0.473 61.61 0.88 -28.238 0.88 -28.238 0.473 61.61
23810.333 0.474 61.581 0.879 -28.266 0.879 -28.266 0.474 61.581
23835.292 0.474 61.553 0.879 -28.295 0.879 -28.295 0.474 61.553
23860.25 0.474 61.524 0.879 -28.324 0.879 -28.324 0.474 61.524
23885.208 0.475 61.495 0.879 -28.353 0.879 -28.353 0.475 61.495
23910.167 0.475 61.467 0.879 -28.382 0.879 -28.382 0.475 61.467
23935.125 0.476 61.438 0.878 -28.41 0.878 -28.41 0.476 61.438
23960.083 0.476 61.41 0.878 -28.439 0.878 -28.439 0.476 61.41
23985.042 0.477 61.381 0.878 -28.468 0.878 -28.468 0.477 61.381
24010 0.477 61.353 0.878 -28.496 0.878 -28.496 0.477 61.353
24034.958 0.478 61.324 0.877 -28.525 0.877 -28.525 0.478 61.324
24059.917 0.478 61.296 0.877 -28.554 0.877 -28.554 0.478 61.296
24084.875 0.478 61.267 0.877 -28.582 0.877 -28.582 0.478 61.267
24109.833 0.479 61.239 0.877 -28.611 0.877 -28.611 0.479 61.239
24134.792 0.479 61.211 0.876 -28.639 0.876 -28.639 0.479 61.211
24159.75 0.48 61.182 0.876 -28.668 0.876 -28.668 0.48 61.182
24184.708 0.48 61.154 0.876 -28.697 0.876 -28.697 0.48 61.154
24209.667 0.481 61.126 0.876 -28.725 0.876 -28.725 0.481 61.126
24234.625 0.481 61.097 0.875 -28.754 0.875 -28.754 0.481 61.097
24259.583 0.481 61.069 0.875 -28.782 0.875 -28.782 0.481 61.069
24284.542 0.482 61.041 0.875 -28.811 0.875 -28.811 0.482 61.041
24309.5 0.482 61.012 0.875 -28.839 0.875 -28.839 0.482 61.012
24334.458 0.483 60.984 0.874 -28.867 0.874 -28.867 0.483 60.984
24359.417 0.483 60.956 0.874 -28.896 0.874 -28.896 0.483 60.956
24384.375 0.484 60.928 0.874 -28.924 0.874 -28.924 0.484 60.928
24409.333 0.484 60.899 0.874 -28.953 0.874 -28.953 0.484 60.899
24434.292 0.485 60.871 0.874 -28.981 0.874 -28.981 0.485 60.871
24459.25 0.485 60.843 0.873 -29.009 0.873 -29.009 0.485 60.843
24484.208 0.485 60.815 0.873 -29.038 0.873 -29.038 0.485 60.815
24509.167 0.486 60.787 0.873 -29.066 0.873 -29.066 0.486 60.787
24534.125 0.486 60.759 0.873 -29.094 0.873 -29.094 0.486 60.759
24559.083 0.487 60.731 0.872 -29.122 0.872 -29.122 0.487 60.731
24584.042 0.487 60.703 0.872 -29.151 0.872 -29.151 0.487 60.703
24609 0.488 60.675 0.872 -29.179 0.872 -29.179 0.488 60.675
24633.958 0.488 60.647 0.872 -29.207 0.872 -29.207 0.488 60.647
24658.917 0.488 60.619 0.871 -29.235 0.871 -29.235 0.488 60.619
24683.875 0.489 60.591 0.871 -29.263 0.871 -29.263 0.489 60.591
24708.833 0.489 60.563 0.871 -29.291 0.871 -29.291 0.489 60.563
24733.792 0.49 60.535 0.871 -29.32 0.871 -29.32 0.49 60.535
24758.75 0.49 60.507 0.87 -29.348 0.87 -29.348 0.49 60.507
24783.708 0.491 60.479 0.87 -29.376 0.87 -29.376 0.491 60.479
24808.667 0.491 60.451 0.87 -29.404 0.87 -29.404 0.491 60.451
24833.625 0.491 60.423 0.87 -29.432 0.87 -29.432 0.491 60.423
24858.583 0.492 60.395 0.869 -29.46 0.869 -29.46 0.492 60.395
24883.542 0.492 60.367 0.869 -29.488 0.869 -29.488 0.492 60.367
24908.5 0.493 60.34 0.869 -29.516 0.869 -29.516 0.493 60.34
24933.458 0.493 60.312 0.869 -29.544 0.869 -29.544 0.493 60.312
24958.417 0.494 60.284 0.868 -29.572 0.868 -29.572 0.494 60.284
24983.375 0.494 60.256 0.868 -29.6 0.868 -29.6 0.494 60.256
25008.333 0.494 60.228 0.868 -29.628 0.868 -29.628 0.494 60.228
25033.292 0.495 60.201 0.868 -29.656 0.868 -29.656 0.495 60.201
25058.25 0.495 60.173 0.868 -29.683 0.868 -29.683 0.495 60.173
25083.208 0.496 60.145 0.867 -29.711 0.867 -29.711 0.496 60.145
25108.167 0.496 60.118 0.867 -29.739 0.867 -29.739 0.496 60.118
25133.125 0.496 60.09 0.867 -29.767 0.867 -29.767 0.496 60.09
25158.083 0.497 60.062 0.867 -29.795 0.867 -29.795 0.497 60.062
25183.042 0.497 60.035 0.866 -29.822 0.866 -29.822 0.497 60.035
25208 0.498 60.007 0.866 -29.85 0.866 -29.85 0.498 60.007
25232.958 0.498 59.98 0.866 -29.878 0.866 -29.878 0.498 59.98
25257.917 0.499 59.952 0.866 -29.906 0.866 -29.906 0.499 59.952
25282.875 0.499 59.924 0.865 -29.933 0.865 -29.933 0.499 59.924
25307.833 0.499 59.897 0.865 -29.961 0.865 -29.961 0.499 59.897
25332.792 0.5 59.869 0.865 -29.989 0.865 -29.989 0.5 59.869
25357.75 0.5 59.842 0.865 -30.016 0.865 -30.016 0.5 59.842
25382.708 0.501 59.814 0.864 -30.044 0.864 -30.044 0.501 59.814
25407.667 0.501 59.787 0.864 -30.072 0.864 -30.072 0.501 59.787
25432.625 0.502 59.76 0.864 -30.099 0.864 -30.099 0.502 59.76
25457.583 0.502 59.732 0.864 -30.127 0.864 -30.127 0.502 59.732
25482.542 0.502 59.705 0.863 -30.154 0.863 -30.154 0.502 59.705
25507.5 0.503 59.677 0.863 -30.182 0.863 -30.182 0.503 59.677
25532.458 0.503 59.65 0.863 -30.209 0.863 -30.209 0.503 59.65
25557.417 0.504 59.623 0.863 -30.237 0.863 -30.237 0.504 59.623
25582.375 0.504 59.595 0.862 -30.264 0.862 -30.264 0.504 59.595
25607.333 0.504 59.568 0.862 -30.292 0.862 -30.292 0.504 59.568
25632.292 0.505 59.541 0.862 -30.319 0.862 -30.319 0.505 59.541
25657.25 0.505 59.513 0.862 -30.347 0.862 -30.347 0.505 59.513
25682.208 0.506 59.486 0.862 -30.374 0.862 -30.374 0.506 59.486
25707.167 0.506 59.459 0.861 -30.402 0.861 -30.402 0.506 59.459
25732.125 0.506 59.432 0.861 -30.429 0.861 -30.429 0.506 59.432
25757.083 0.507 59.405 0.861 -30.456 0.861 -30.456 0.507 59.405
25782.042 0.507 59.377 0.861 -30.484 0.861 -30.484 0.507 59.377
25807 0.508 59.35 0.86 -30.511 0.86 -30.511 0.508 59.35
25831.958 0.508 59.323 0.86 -30.538 0.86 -30.538 0.508 59.323
25856.917 0.509 59.296 0.86 -30.565 0.86 -30.565 0.509 59.296
25881.875 0.509 59.269 0.86 -30.593 0.86 -30.593 0.509 59.269
25906.833 0.509 59.242 0.859 -30.62 0.859 -30.62 0.509 59.242
25931.792 0.51 59.215 0.859 -30.647 0.859 -30.647 0.51 59.215
25956.75 0.51 59.188 0.859 -30.674 0.859 -30.674 0.51 59.188
25981.708 0.511 59.161 0.859 -30.702 0.859 -30.702 0.511 59.161
26006.667 0.511 59.134 0.858 -30.729 0.858 -30.729 0.511 59.134
26031.625 0.511 59.107 0.858 -30.756 0.858 -30.756 0.511 59.107
26056.583 0.512 59.08 0.858 -30.783 0.858 -30.783 0.512 59.08
26081.542 0.512 59.053 0.858 -30.81 0.858 -30.81 0.512 59.053
26106.5 0.513 59.026 0.857 -30.837 0.857 -30.837 0.513 59.026
26131.458 0.513 58.999 0.857 -30.864 0.857 -30.864 0.513 58.999
26156.417 0.513 58.972 0.857 -30.891 0.857 -30.891 0.513 58.972
26181.375 0.514 58.945 0.857 -30.918 0.857 -30.918 0.514 58.945
26206.333 0.514 58.918 0.856 -30.945 0.856 -30.945 0.514 58.918
26231.292 0.515 58.891 0.856 -30.972 0.856 -30.972 0.515 58.891
26256.25 0.515 58.864 0.856 -30.999 0.856 -30.999 0.515 58.864
26281.208 0.515 58.837 0.856 -31.026 0.856 -31.026 0.515 58.837
26306.167 0.516 58.811 0.855 -31.053 0.855 -31.053 0.516 58.811
26331.125 0.516 58.784 0.855 -31.08 0.855 -31.08 0.516 58.784
26356.083 0.517 58.757 0.855 -31.107 0.855 -31.107 0.517 58.757
26381.042 0.517 58.73 0.855 -31.134 0.855 -31.134 0.517 58.73
26406 0.517 58.704 0.854 -31.161 0.854 -31.161 0.517 58.704
26430.958 0.518 58.677 0.854 -31.188 0.854 -31.188 0.518 58.677
26455.917 0.518 58.65 0.854 -31.215 0.854 -31.215 0.518 58.65
26480.875 0.519 58.623 0.854 -31.242 0.854 -31.242 0.519 58.623
26505.833 0.519 58.597 0.854 -31.268 0.854 -31.268 0.519 58.597
26530.792 0.519 58.57 0.853 -31.295 0.853 -31.295 0.519 58.57
26555.75 0.52 58.544 0.853 -31.322 0.853 -31.322 0.52 58.544
26580.708 0.52 58.517 0.853 -31.349 0.853 -31.349 0.52 58.517
26605.667 0.521 58.49 0.853 -31.375 0.853 -31.375 0.521 58.49
26630.625 0.521 58.464 0.852 -31.402 0.852 -31.402 0.521 58.464
26655.583 0.521 58.437 0.852 -31.429 0.852 -31.429 0.521 58.437
26680.542 0.522 58.411 0.852 -31.456 0.852 -31.456 0.522 58.411
26705.5 0.522 58.384 0.852 -31.482 0.852 -31.482 0.522 58.384
26730.458 0.523 58.358 0.851 -31.509 0.851 -31.509 0.523 58.358
26755.417 0.523 58.331 0.851 -31.535 0.851 -31.535 0.523 58.331
26780.375 0.523 58.305 0.851 -31.562 0.851 -31.562 0.523 58.305
26805.333 0.524 58.278 0.851 -31.589 0.851 -31.589 0.524 58.278
26830.292 0.524 58.252 0.85 -31.615 0.85 -31.615 0.524 58.252
26855.25 0.525 58.225 0.85 -31.642 0.85 -31.642 0.525 58.225
26880.208 0.525 58.199 0.85 -31.668 0.85 -31.668 0.525 58.199
26905.167 0.525 58.173 0.85 -31.695 0.85 -31.695 0.525 58.173
26930.125 0.526 58.146 0.849 -31.721 0.849 -31.721 0.526 58.146
26955.083 0.526 58.12 0.849 -31.748 0.849 -31.748 0.526 58.12
26980.042 0.527 58.093 0.849 -31.774 0.849 -31.774 0.527 58.093
27005 0.527 58.067 0.849 -31.801 0.849 -31.801 0.527 58.067
27029.958 0.527 58.041 0.848 -31.827 0.848 -31.827 0.527 58.041
27054.917 0.528 58.015 0.848 -31.854 0.848 -31.854 0.528 58.015
27079.875 0.528 57.988 0.848 -31.88 0.848 -31.88 0.528 57.988
27104.833 0.529 57.962 0.848 -31.906 0.848 -31.906 0.529 57.962
27129.792 0.529 57.936 0.847 -31.933 0.847 -31.933 0.529 57.936
27154.75 0.529 57.91 0.847 -31.959 0.847 -31.959 0.529 57.91
27179.708 0.53 57.883 0.847 -31.985 0.847 -31.985 0.53 57.883
27204.667 0.53 57.857 0.847 -32.012 0.847 -32.012 0.53 57.857
27229.625 0.53 57.831 0.846 -32.038 0.846 -32.038 0.53 57.831
27254.583 0.531 57.805 0.846 -32.064 0.846 -32.064 0.531 57.805
27279.542 0.531 57.779 0.846 -32.091 0.846 -32.091 0.531 57.779
27304.5 0.532 57.753 0.846 -32.117 0.846 -32.117 0.532 57.753
27329.458 0.532 57.727 0.846 -32.143 0.846 -32.143 0.532 57.727
27354.417 0.532 57.701 0.845 -32.169 0.845 -32.169 0.532 57.701
27379.375 0.533 57.674 0.845 -32.196 0.845 -32.196 0.533 57.674
27404.333 0.533 57.648 0.845 -32.222 0.845 -32.222 0.533 57.648
27429.292 0.534 57.622 0.845 -32.248 0.845 -32.248 0.534 57.622
27454.25 0.534 57.596 0.844 -32.274 0.844 -32.274 0.534 57.596
27479.208 0.534 57.57 0.844 -32.3 0.844 -32.3 0.534 57.57
27504.167 0.535 57.544 0.844 -32.326 0.844 -32.326 0.535 57.544
27529.125 0.535 57.518 0.844 -32.352 0.844 -32.352 0.535 57.518
27554.083 0.536 57.493 0.843 -32.378 0.843 -32.378 0.536 57.493
27579.042 0.536 57.467 0.843 -32.404 0.843 -32.404 0.536 57.467
27604 0.536 57.441 0.843 -32.43 0.843 -32.43 0.536 57.441
27628.958 0.537 57.415 0.843 -32.456 0.843 -32.456 0.537 57.415
27653.917 0.537 57.389 0.842 -32.482 0.842 -32.482 0.537 57.389
27678.875 0.537 57.363 0.842 -32.508 0.842 -32.508 0.537 57.363
27703.833 0.538 57.337 0.842 -32.534 0.842 -32.534 0.538 57.337
27728.792 0.538 57.311 0.842 -32.56 0.842 -32.56 0.538 57.311
27753.75 0.539 57.286 0.841 -32.586 0.841 -32.586 0.539 57.286
27778.708 0.539 57.26 0.841 -32.612 0.841 -32.612 0.539 57.26
27803.667 0.539 57.234 0.841 -32.638 0.841 -32.638 0.539 57.234
27828.625 0.54 57.208 0.841 -32.664 0.841 -32.664 0.54 57.208
27853.583 0.54 57.183 0.84 -32.69 0.84 -32.69 0.54 57.183
27878.542 0.54 57.157 0.84 -32.716 0.84 -32.716 0.54 57.157
27903.5 0.541 57.131 0.84 -32.741 0.84 -32.741 0.541 57.131
27928.458 0.541 57.106 0.84 -32.767 0.84 -32.767 0.541 57.106
27953.417 0.542 57.08 0.839 -32.793 0.839 -32.793 0.542 57.08
27978.375 0.542 57.054 0.839 -32.819 0.839 -32.819 0.542 57.054
28003.333 0.542 57.029 0.839 -32.845 0.839 -32.845 0.542 57.029
28028.292 0.543 57.003 0.839 -32.87 0.839 -32.87 0.543 57.003
28053.25 0.543 56.977 0.838 -32.896 0.838 -32.896 0.543 56.977
28078.208 0.543 56.952 0.838 -32.922 0.838 -32.922 0.543 56.952
28103.167 0.544 56.926 0.838 -32.947 0.838 -32.947 0.544 56.926
28128.125 0.544 56.901 0.838 -32.973 0.838 -32.973 0.544 56.901
28153.083 0.545 56.875 0.837 -32.999 0.837 -32.999 0.545 56.875
28178.042 0.545 56.85 0.837 -33.024 0.837 -33.024 0.545 56.85
28203 0.545 56.824 0.837 -33.05 0.837 -33.05 0.545 56.824
28227.958 0.546 56.799 0.837 -33.076 0.837 -33.076 0.546 56.799
28252.917 0.546 56.773 0.837 -33.101 0.837 -33.101 0.546 56.773
28277.875 0.546 56.748 0.836 -33.127 0.836 -33.127 0.546 56.748
28302.833 0.547 56.722 0.836 -33.152 0.836 -33.152 0.547 56.722
28327.792 0.547 56.697 0.836 -33.178 0.836 -33.178 0.547 56.697
28352.75 0.548 56.672 0.836 -33.203 0.836 -33.203 0.548 56.672
28377.708 0.548 56.646 0.835 -33.229 0.835 -33.229 0.548 56.646
28402.667 0.548 56.621 0.835 -33.254 0.835 -33.254 0.548 56.621
28427.625 0.549 56.595 0.835 -33.28 0.835 -33.28 0.549 56.595
28452.583 0.549 56.57 0.835 -33.305 0.835 -33.305 0.549 56.57
28477.542 0.549 56.545 0.834 -33.331 0.834 -33.331 0.549 56.545
28502.5 0.55 56.519 0.834 -33.356 0.834 -33.356 0.55 56.519
28527.458 0.55 56.494 0.834 -33.382 0.834 -33.382 0.55 56.494
28552.417 0.551 56.469 0.834 -33.407 0.834 -33.407 0.551 56.469
28577.375 0.551 56.444 0.833 -33.432 0.833 -33.432 0.551 56.444
28602.333 0.551 56.418 0.833 -33.458 0.833 -33.458 0.551 56.418
28627.292 0.552 56.393 0.833 -33.483 0.833 -33.483 0.552 56.393
28652.25 0.552 56.368 0.833 -33.508 0.833 -33.508 0.552 56.368
28677.208 0.552 56.343 0.832 -33.534 0.832 -33.534 0.552 56.343
28702.167 0.553 56.318 0.832 -33.559 0.832 -33.559 0.553 56.318
28727.125 0.553 56.293 0.832 -33.584 0.832 -33.584 0.553 56.293
28752.083 0.554 56.267 0.832 -33.609 0.832 -33.609 0.554 56.267
28777.042 0.554 56.242 0.831 -33.635 0.831 -33.635 0.554 56.242
28802 0.554 56.217 0.831 -33.66 0.831 -33.66 0.554 56.217
28826.958 0.555 56.192 0.831 -33.685 0.831 -33.685 0.555 56.192
28851.917 0.555 56.167 0.831 -33.71 0.831 -33.71 0.555 56.167
28876.875 0.555 56.142 0.83 -33.735 0.83 -33.735 0.555 56.142
28901.833 0.556 56.117 0.83 -33.761 0.83 -33.761 0.556 56.117
28926.792 0.556 56.092 0.83 -33.786 0.83 -33.786 0.556 56.092
28951.75 0.556 56.067 0.83 -33.811 0.83 -33.811 0.556 56.067
28976.708 0.557 56.042 0.829 -33.836 0.829 -33.836 0.557 56.042
29001.667 0.557 56.017 0.829 -33.861 0.829 -33.861 0.557 56.017
29026.625 0.558 55.992 0.829 -33.886 0.829 -33.886 0.558 55.992
29051.583 0.558 55.967 0.829 -33.911 0.829 -33.911 0.558 55.967
29076.542 0.558 55.942 0.828 -33.936 0.828 -33.936 0.558 55.942
29101.5 0.559 55.917 0.828 -33.961 0.828 -33.961 0.559 55.917
29126.458 0.559 55.892 0.828 -33.986 0.828 -33.986 0.559 55.892
29151.417 0.559 55.868 0.828 -34.011 0.828 -34.011 0.559 55.868
29176.375 0.56 55.843 0.828 -34.036 0.828 -34.036 0.56 55.843
29201.333 0.56 55.818 0.827 -34.061 0.827 -34.061 0.56 55.818
29226.292 0.56 55.793 0.827 -34.086 0.827 -34.086 0.56 55.793
29251.25 0.561 55.768 0.827 -34.111 0.827 -34.111 0.561 55.768
29276.208 0.561 55.744 0.827 -34.136 0.827 -34.136 0.561 55.744
29301.167 0.562 55.719 0.826 -34.161 0.826 -34.161 0.562 55.719
29326.125 0.562 55.694 0.826 -34.185 0.826 -34.185 0.562 55.694
29351.083 0.562 55.669 0.826 -34.21 0.826 -34.21 0.562 55.669
29376.042 0.563 55.645 0.826 -34.235 0.826 -34.235 0.563 55.645
29401 0.563 55.62 0.825 -34.26 0.825 -34.26 0.563 55.62
29425.958 0.563 55.595 0.825 -34.285 0.825 -34.285 0.563 55.595
29450.917 0.564 55.57 0.825 -34.31 0.825 -34.31 0.564 55.57
29475.875 0.564 55.546 0.825 -34.334 0.825 -34.334 0.564 55.546
29500.833 0.564 55.521 0.824 -34.359 0.824 -34.359 0.564 55.521
29525.792 0.565 55.497 0.824 -34.384 0.824 -34.384 0.565 55.497
29550.75 0.565 55.472 0.824 -34.409 0.824 -34.409 0.565 55.472
29575.708 0.565 55.447 0.824 -34.433 0.824 -34.433 0.565 55.447
29600.667 0.566 55.423 0.823 -34.458 0.823 -34.458 0.566 55.423
29625.625 0.566 55.398 0.823 -34.483 0.823 -34.483 0.566 55.398
29650.583 0.567 55.374 0.823 -34.507 0.823 -34.507 0.567 55.374
29675.542 0.567 55.349 0.823 -34.532 0.823 -34.532 0.567 55.349
29700.5 0.567 55.325 0.822 -34.556 0.822 -34.556 0.567 55.325
29725.458 0.568 55.3 0.822 -34.581 0.822 -34.581 0.568 55.3
29750.417 0.568 55.276 0.822 -34.606 0.822 -34.606 0.568 55.276
29775.375 0.568 55.251 0.822 -34.63 0.822 -34.63 0.568 55.251
29800.333 0.569 55.227 0.821 -34.655 0.821 -34.655 0.569 55.227
29825.292 0.569 55.202 0.821 -34.679 0.821 -34.679 0.569 55.202
29850.25 0.569 55.178 0.821 -34.704 0.821 -34.704 0.569 55.178
29875.208 0.57 55.154 0.821 -34.728 0.821 -34.728 0.57 55.154
29900.167 0.57 55.129 0.82 -34.753 0.82 -34.753 0.57 55.129
29925.125 0.57 55.105 0.82 -34.777 0.82 -34.777 0.57 55.105
29950.083 0.571 55.08 0.82 -34.802 0.82 -34.802 0.571 55.08
29975.042 0.571 55.056 0.82 -34.826 0.82 -34.826 0.571 55.056
30000 0.571 55.032 0.819 -34.851 0.819 -34.851 0.571 55.032
