!	AVX Thin Film Operation 	Date: April 2014		
!	Description: Accu-P® Series, Thin Film  SMD RF Capacitor
!	Part Number: 04025J2R9QBSTR					
!
# MHZ S MA R 50

50 0.996 -5.206 0.091 84.79 0.091 84.79 0.996 -5.206
74.958 0.991 -7.78 0.135 82.214 0.135 82.214 0.991 -7.78
99.917 0.984 -10.323 0.179 79.668 0.179 79.668 0.984 -10.323
124.875 0.975 -12.828 0.222 77.161 0.222 77.161 0.975 -12.828
149.833 0.965 -15.286 0.264 74.701 0.264 74.701 0.965 -15.286
174.792 0.953 -17.691 0.304 72.295 0.304 72.295 0.953 -17.691
199.75 0.939 -20.036 0.343 69.948 0.343 69.948 0.939 -20.036
224.708 0.925 -22.316 0.38 67.665 0.38 67.665 0.925 -22.316
249.667 0.91 -24.527 0.415 65.452 0.415 65.452 0.91 -24.527
274.625 0.893 -26.667 0.449 63.31 0.449 63.31 0.893 -26.667
299.583 0.877 -28.734 0.481 61.241 0.481 61.241 0.877 -28.734
324.542 0.859 -30.727 0.511 59.246 0.511 59.246 0.859 -30.727
349.5 0.842 -32.645 0.539 57.326 0.539 57.326 0.842 -32.645
374.458 0.824 -34.488 0.566 55.48 0.566 55.48 0.824 -34.488
399.417 0.806 -36.258 0.591 53.708 0.591 53.708 0.806 -36.258
424.375 0.788 -37.957 0.615 52.008 0.615 52.008 0.788 -37.957
449.333 0.77 -39.585 0.637 50.377 0.637 50.377 0.77 -39.585
474.292 0.753 -41.145 0.658 48.815 0.658 48.815 0.753 -41.145
499.25 0.735 -42.639 0.677 47.319 0.677 47.319 0.735 -42.639
524.208 0.718 -44.07 0.696 45.886 0.696 45.886 0.718 -44.07
549.167 0.701 -45.44 0.713 44.513 0.713 44.513 0.701 -45.44
574.125 0.685 -46.751 0.728 43.2 0.728 43.2 0.685 -46.751
599.083 0.668 -48.007 0.743 41.942 0.743 41.942 0.668 -48.007
624.042 0.653 -49.21 0.757 40.737 0.757 40.737 0.653 -49.21
649 0.637 -50.362 0.77 39.583 0.77 39.583 0.637 -50.362
673.958 0.622 -51.466 0.782 38.477 0.782 38.477 0.622 -51.466
698.917 0.608 -52.524 0.794 37.416 0.794 37.416 0.608 -52.524
723.875 0.593 -53.538 0.804 36.4 0.804 36.4 0.593 -53.538
748.833 0.58 -54.511 0.814 35.425 0.814 35.425 0.58 -54.511
773.792 0.566 -55.444 0.824 34.489 0.824 34.489 0.566 -55.444
798.75 0.553 -56.341 0.832 33.59 0.832 33.59 0.553 -56.341
823.708 0.541 -57.202 0.841 32.727 0.841 32.727 0.541 -57.202
848.667 0.528 -58.029 0.848 31.897 0.848 31.897 0.528 -58.029
873.625 0.517 -58.825 0.856 31.099 0.856 31.099 0.517 -58.825
898.583 0.505 -59.591 0.862 30.331 0.862 30.331 0.505 -59.591
923.542 0.494 -60.328 0.869 29.592 0.869 29.592 0.494 -60.328
948.5 0.483 -61.037 0.875 28.88 0.875 28.88 0.483 -61.037
973.458 0.472 -61.721 0.881 28.193 0.881 28.193 0.472 -61.721
998.417 0.462 -62.381 0.886 27.531 0.886 27.531 0.462 -62.381
1023.375 0.452 -63.017 0.891 26.893 0.891 26.893 0.452 -63.017
1048.333 0.443 -63.631 0.896 26.276 0.896 26.276 0.443 -63.631
1073.292 0.433 -64.224 0.901 25.68 0.901 25.68 0.433 -64.224
1098.25 0.424 -64.797 0.905 25.105 0.905 25.105 0.424 -64.797
1123.208 0.415 -65.352 0.909 24.548 0.909 24.548 0.415 -65.352
1148.167 0.407 -65.888 0.913 24.01 0.913 24.01 0.407 -65.888
1173.125 0.399 -66.406 0.916 23.488 0.916 23.488 0.399 -66.406
1198.083 0.39 -66.909 0.92 22.983 0.92 22.983 0.39 -66.909
1223.042 0.383 -67.395 0.923 22.494 0.923 22.494 0.383 -67.395
1248 0.375 -67.867 0.926 22.02 0.926 22.02 0.375 -67.867
1272.958 0.367 -68.325 0.929 21.559 0.929 21.559 0.367 -68.325
1297.917 0.36 -68.768 0.932 21.113 0.932 21.113 0.36 -68.768
1322.875 0.353 -69.199 0.935 20.679 0.935 20.679 0.353 -69.199
1347.833 0.346 -69.618 0.937 20.258 0.937 20.258 0.346 -69.618
1372.792 0.34 -70.024 0.94 19.849 0.94 19.849 0.34 -70.024
1397.75 0.333 -70.42 0.942 19.451 0.942 19.451 0.333 -70.42
1422.708 0.327 -70.804 0.944 19.064 0.944 19.064 0.327 -70.804
1447.667 0.32 -71.178 0.947 18.687 0.947 18.687 0.32 -71.178
1472.625 0.314 -71.542 0.949 18.32 0.949 18.32 0.314 -71.542
1497.583 0.308 -71.896 0.95 17.963 0.95 17.963 0.308 -71.896
1522.542 0.303 -72.241 0.952 17.615 0.952 17.615 0.303 -72.241
1547.5 0.297 -72.578 0.954 17.275 0.954 17.275 0.297 -72.578
1572.458 0.291 -72.905 0.956 16.944 0.956 16.944 0.291 -72.905
1597.417 0.286 -73.225 0.957 16.621 0.957 16.621 0.286 -73.225
1622.375 0.281 -73.537 0.959 16.306 0.959 16.306 0.281 -73.537
1647.333 0.276 -73.842 0.961 15.998 0.961 15.998 0.276 -73.842
1672.292 0.271 -74.139 0.962 15.698 0.962 15.698 0.271 -74.139
1697.25 0.266 -74.429 0.963 15.404 0.963 15.404 0.266 -74.429
1722.208 0.261 -74.713 0.965 15.117 0.965 15.117 0.261 -74.713
1747.167 0.256 -74.99 0.966 14.837 0.966 14.837 0.256 -74.99
1772.125 0.251 -75.261 0.967 14.562 0.967 14.562 0.251 -75.261
1797.083 0.247 -75.526 0.968 14.294 0.968 14.294 0.247 -75.526
1822.042 0.242 -75.786 0.969 14.031 0.969 14.031 0.242 -75.786
1847 0.238 -76.039 0.97 13.774 0.97 13.774 0.238 -76.039
1871.958 0.234 -76.288 0.972 13.522 0.972 13.522 0.234 -76.288
1896.917 0.23 -76.531 0.973 13.275 0.973 13.275 0.23 -76.531
1921.875 0.226 -76.769 0.973 13.033 0.973 13.033 0.226 -76.769
1946.833 0.221 -77.003 0.974 12.796 0.974 12.796 0.221 -77.003
1971.792 0.218 -77.231 0.975 12.563 0.975 12.563 0.218 -77.231
1996.75 0.214 -77.456 0.976 12.335 0.976 12.335 0.214 -77.456
2021.708 0.21 -77.676 0.977 12.111 0.977 12.111 0.21 -77.676
2046.667 0.206 -77.891 0.978 11.891 0.978 11.891 0.206 -77.891
2071.625 0.202 -78.103 0.979 11.676 0.979 11.676 0.202 -78.103
2096.583 0.199 -78.31 0.979 11.464 0.979 11.464 0.199 -78.31
2121.542 0.195 -78.514 0.98 11.256 0.98 11.256 0.195 -78.514
2146.5 0.192 -78.714 0.981 11.052 0.981 11.052 0.192 -78.714
2171.458 0.188 -78.91 0.981 10.851 0.981 10.851 0.188 -78.91
2196.417 0.185 -79.103 0.982 10.653 0.982 10.653 0.185 -79.103
2221.375 0.182 -79.292 0.983 10.459 0.983 10.459 0.182 -79.292
2246.333 0.178 -79.479 0.983 10.269 0.983 10.269 0.178 -79.479
2271.292 0.175 -79.661 0.984 10.081 0.984 10.081 0.175 -79.661
2296.25 0.172 -79.841 0.984 9.896 0.984 9.896 0.172 -79.841
2321.208 0.169 -80.018 0.985 9.714 0.985 9.714 0.169 -80.018
2346.167 0.166 -80.192 0.985 9.535 0.985 9.535 0.166 -80.192
2371.125 0.163 -80.363 0.986 9.359 0.986 9.359 0.163 -80.363
2396.083 0.16 -80.531 0.986 9.186 0.986 9.186 0.16 -80.531
2421.042 0.157 -80.696 0.987 9.015 0.987 9.015 0.157 -80.696
2446 0.154 -80.859 0.987 8.847 0.987 8.847 0.154 -80.859
2470.958 0.151 -81.019 0.988 8.681 0.988 8.681 0.151 -81.019
2495.917 0.148 -81.177 0.988 8.517 0.988 8.517 0.148 -81.177
2520.875 0.145 -81.332 0.989 8.356 0.989 8.356 0.145 -81.332
2545.833 0.143 -81.485 0.989 8.197 0.989 8.197 0.143 -81.485
2570.792 0.14 -81.635 0.989 8.04 0.989 8.04 0.14 -81.635
2595.75 0.137 -81.783 0.99 7.886 0.99 7.886 0.137 -81.783
2620.708 0.135 -81.929 0.99 7.733 0.99 7.733 0.135 -81.929
2645.667 0.132 -82.073 0.99 7.583 0.99 7.583 0.132 -82.073
2670.625 0.129 -82.214 0.991 7.434 0.991 7.434 0.129 -82.214
2695.583 0.127 -82.354 0.991 7.288 0.991 7.288 0.127 -82.354
2720.542 0.124 -82.491 0.991 7.143 0.991 7.143 0.124 -82.491
2745.5 0.122 -82.627 0.992 7 0.992 7 0.122 -82.627
2770.458 0.119 -82.76 0.992 6.859 0.992 6.859 0.119 -82.76
2795.417 0.117 -82.891 0.992 6.72 0.992 6.72 0.117 -82.891
2820.375 0.115 -83.021 0.993 6.582 0.993 6.582 0.115 -83.021
2845.333 0.112 -83.148 0.993 6.446 0.993 6.446 0.112 -83.148
2870.292 0.11 -83.274 0.993 6.312 0.993 6.312 0.11 -83.274
2895.25 0.108 -83.398 0.993 6.179 0.993 6.179 0.108 -83.398
2920.208 0.105 -83.52 0.994 6.048 0.994 6.048 0.105 -83.52
2945.167 0.103 -83.64 0.994 5.918 0.994 5.918 0.103 -83.64
2970.125 0.101 -83.759 0.994 5.789 0.994 5.789 0.101 -83.759
2995.083 0.099 -83.876 0.994 5.662 0.994 5.662 0.099 -83.876
3020.042 0.096 -83.991 0.995 5.537 0.995 5.537 0.096 -83.991
3045 0.094 -84.104 0.995 5.413 0.995 5.413 0.094 -84.104
3069.958 0.092 -84.215 0.995 5.29 0.995 5.29 0.092 -84.215
3094.917 0.09 -84.325 0.995 5.168 0.995 5.168 0.09 -84.325
3119.875 0.088 -84.433 0.995 5.048 0.995 5.048 0.088 -84.433
3144.833 0.086 -84.54 0.996 4.929 0.996 4.929 0.086 -84.54
3169.792 0.084 -84.645 0.996 4.811 0.996 4.811 0.084 -84.645
3194.75 0.082 -84.748 0.996 4.694 0.996 4.694 0.082 -84.748
3219.708 0.08 -84.849 0.996 4.579 0.996 4.579 0.08 -84.849
3244.667 0.078 -84.949 0.996 4.464 0.996 4.464 0.078 -84.949
3269.625 0.076 -85.047 0.996 4.351 0.996 4.351 0.076 -85.047
3294.583 0.074 -85.143 0.996 4.239 0.996 4.239 0.074 -85.143
3319.542 0.072 -85.238 0.997 4.127 0.997 4.127 0.072 -85.238
3344.5 0.07 -85.33 0.997 4.017 0.997 4.017 0.07 -85.33
3369.458 0.068 -85.421 0.997 3.908 0.997 3.908 0.068 -85.421
3394.417 0.066 -85.51 0.997 3.8 0.997 3.8 0.066 -85.51
3419.375 0.064 -85.597 0.997 3.693 0.997 3.693 0.064 -85.597
3444.333 0.063 -85.683 0.997 3.587 0.997 3.587 0.063 -85.683
3469.292 0.061 -85.766 0.997 3.481 0.997 3.481 0.061 -85.766
3494.25 0.059 -85.847 0.997 3.377 0.997 3.377 0.059 -85.847
3519.208 0.057 -85.926 0.998 3.273 0.998 3.273 0.057 -85.926
3544.167 0.055 -86.002 0.998 3.171 0.998 3.171 0.055 -86.002
3569.125 0.054 -86.077 0.998 3.069 0.998 3.069 0.054 -86.077
3594.083 0.052 -86.148 0.998 2.968 0.998 2.968 0.052 -86.148
3619.042 0.05 -86.218 0.998 2.868 0.998 2.868 0.05 -86.218
3644 0.048 -86.284 0.998 2.769 0.998 2.769 0.048 -86.284
3668.958 0.047 -86.348 0.998 2.67 0.998 2.67 0.047 -86.348
3693.917 0.045 -86.408 0.998 2.572 0.998 2.572 0.045 -86.408
3718.875 0.043 -86.465 0.998 2.475 0.998 2.475 0.043 -86.465
3743.833 0.042 -86.518 0.998 2.379 0.998 2.379 0.042 -86.518
3768.792 0.04 -86.568 0.998 2.284 0.998 2.284 0.04 -86.568
3793.75 0.038 -86.613 0.998 2.189 0.998 2.189 0.038 -86.613
3818.708 0.037 -86.653 0.999 2.095 0.999 2.095 0.037 -86.653
3843.667 0.035 -86.688 0.999 2.002 0.999 2.002 0.035 -86.688
3868.625 0.033 -86.717 0.999 1.909 0.999 1.909 0.033 -86.717
3893.583 0.032 -86.739 0.999 1.817 0.999 1.817 0.032 -86.739
3918.542 0.03 -86.754 0.999 1.725 0.999 1.725 0.03 -86.754
3943.5 0.029 -86.76 0.999 1.635 0.999 1.635 0.029 -86.76
3968.458 0.027 -86.757 0.999 1.545 0.999 1.545 0.027 -86.757
3993.417 0.025 -86.742 0.999 1.455 0.999 1.455 0.025 -86.742
4018.375 0.024 -86.713 0.999 1.366 0.999 1.366 0.024 -86.713
4043.333 0.022 -86.669 0.999 1.278 0.999 1.278 0.022 -86.669
4068.292 0.021 -86.606 0.999 1.19 0.999 1.19 0.021 -86.606
4093.25 0.019 -86.519 0.999 1.103 0.999 1.103 0.019 -86.519
4118.208 0.018 -86.403 0.999 1.016 0.999 1.016 0.018 -86.403
4143.167 0.016 -86.251 0.999 0.93 0.999 0.93 0.016 -86.251
4168.125 0.015 -86.052 0.999 0.845 0.999 0.845 0.015 -86.052
4193.083 0.013 -85.791 0.999 0.76 0.999 0.76 0.013 -85.791
4218.042 0.012 -85.445 0.999 0.676 0.999 0.676 0.012 -85.445
4243 0.01 -84.981 0.999 0.592 0.999 0.592 0.01 -84.981
4267.958 8.908e-3 -84.342 0.999 0.508 0.999 0.508 8.908e-3 -84.342
4292.917 7.469e-3 -83.429 0.999 0.425 0.999 0.425 7.469e-3 -83.429
4317.875 6.042e-3 -82.052 0.999 0.343 0.999 0.343 6.042e-3 -82.052
4342.833 4.629e-3 -79.791 0.999 0.261 0.999 0.261 4.629e-3 -79.791
4367.792 3.238e-3 -75.525 0.999 0.18 0.999 0.18 3.238e-3 -75.525
4392.75 1.902e-3 -65.036 0.999 0.099 0.999 0.099 1.902e-3 -65.036
4417.708 861.5e-6 -21.829 0.999 0.018 0.999 0.018 861.5e-6 -21.829
4442.667 1.341e-3 53.327 0.999 -0.062 0.999 -0.062 1.341e-3 53.327
4467.625 2.592e-3 71.888 0.999 -0.141 0.999 -0.141 2.592e-3 71.888
4492.583 3.929e-3 78.037 0.999 -0.22 0.999 -0.22 3.929e-3 78.037
4517.542 5.281e-3 80.993 0.999 -0.299 0.999 -0.299 5.281e-3 80.993
4542.5 6.635e-3 82.701 0.999 -0.377 0.999 -0.377 6.635e-3 82.701
4567.458 7.986e-3 83.798 0.999 -0.455 0.999 -0.455 7.986e-3 83.798
4592.417 9.332e-3 84.552 0.999 -0.533 0.999 -0.533 9.332e-3 84.552
4617.375 0.011 85.094 0.999 -0.61 0.999 -0.61 0.011 85.094
4642.333 0.012 85.495 0.999 -0.686 0.999 -0.686 0.012 85.495
4667.292 0.013 85.8 0.999 -0.763 0.999 -0.763 0.013 85.8
4692.25 0.015 86.034 0.999 -0.839 0.999 -0.839 0.015 86.034
4717.208 0.016 86.217 0.999 -0.914 0.999 -0.914 0.016 86.217
4742.167 0.017 86.359 0.999 -0.989 0.999 -0.989 0.017 86.359
4767.125 0.019 86.471 0.999 -1.064 0.999 -1.064 0.019 86.471
4792.083 0.02 86.557 0.999 -1.138 0.999 -1.138 0.02 86.557
4817.042 0.021 86.624 0.999 -1.212 0.999 -1.212 0.021 86.624
4842 0.022 86.674 0.999 -1.286 0.999 -1.286 0.022 86.674
4866.958 0.024 86.711 0.999 -1.359 0.999 -1.359 0.024 86.711
4891.917 0.025 86.736 0.999 -1.432 0.999 -1.432 0.025 86.736
4916.875 0.026 86.752 0.999 -1.505 0.999 -1.505 0.026 86.752
4941.833 0.028 86.759 0.999 -1.577 0.999 -1.577 0.028 86.759
4966.792 0.029 86.76 0.999 -1.649 0.999 -1.649 0.029 86.76
4991.75 0.03 86.755 0.999 -1.721 0.999 -1.721 0.03 86.755
5016.708 0.031 86.744 0.999 -1.792 0.999 -1.792 0.031 86.744
5041.667 0.033 86.729 0.999 -1.863 0.999 -1.863 0.033 86.729
5066.625 0.034 86.71 0.999 -1.934 0.999 -1.934 0.034 86.71
5091.583 0.035 86.687 0.999 -2.004 0.999 -2.004 0.035 86.687
5116.542 0.036 86.661 0.999 -2.074 0.999 -2.074 0.036 86.661
5141.5 0.037 86.632 0.999 -2.144 0.999 -2.144 0.037 86.632
5166.458 0.039 86.601 0.998 -2.214 0.998 -2.214 0.039 86.601
5191.417 0.04 86.568 0.998 -2.283 0.998 -2.283 0.04 86.568
5216.375 0.041 86.533 0.998 -2.352 0.998 -2.352 0.041 86.533
5241.333 0.042 86.496 0.998 -2.42 0.998 -2.42 0.042 86.496
5266.292 0.043 86.457 0.998 -2.489 0.998 -2.489 0.043 86.457
5291.25 0.045 86.417 0.998 -2.557 0.998 -2.557 0.045 86.417
5316.208 0.046 86.376 0.998 -2.625 0.998 -2.625 0.046 86.376
5341.167 0.047 86.334 0.998 -2.692 0.998 -2.692 0.047 86.334
5366.125 0.048 86.29 0.998 -2.759 0.998 -2.759 0.048 86.29
5391.083 0.049 86.246 0.998 -2.826 0.998 -2.826 0.049 86.246
5416.042 0.05 86.2 0.998 -2.893 0.998 -2.893 0.05 86.2
5441 0.052 86.154 0.998 -2.96 0.998 -2.96 0.052 86.154
5465.958 0.053 86.107 0.998 -3.026 0.998 -3.026 0.053 86.107
5490.917 0.054 86.06 0.998 -3.092 0.998 -3.092 0.054 86.06
5515.875 0.055 86.012 0.998 -3.158 0.998 -3.158 0.055 86.012
5540.833 0.056 85.963 0.998 -3.223 0.998 -3.223 0.056 85.963
5565.792 0.057 85.914 0.998 -3.289 0.998 -3.289 0.057 85.914
5590.75 0.059 85.865 0.997 -3.354 0.997 -3.354 0.059 85.865
5615.708 0.06 85.815 0.997 -3.419 0.997 -3.419 0.06 85.815
5640.667 0.061 85.764 0.997 -3.483 0.997 -3.483 0.061 85.764
5665.625 0.062 85.714 0.997 -3.547 0.997 -3.547 0.062 85.714
5690.583 0.063 85.663 0.997 -3.612 0.997 -3.612 0.063 85.663
5715.542 0.064 85.611 0.997 -3.676 0.997 -3.676 0.064 85.611
5740.5 0.065 85.56 0.997 -3.739 0.997 -3.739 0.065 85.56
5765.458 0.066 85.508 0.997 -3.803 0.997 -3.803 0.066 85.508
5790.417 0.067 85.456 0.997 -3.866 0.997 -3.866 0.067 85.456
5815.375 0.069 85.404 0.997 -3.929 0.997 -3.929 0.069 85.404
5840.333 0.07 85.352 0.997 -3.992 0.997 -3.992 0.07 85.352
5865.292 0.071 85.299 0.997 -4.055 0.997 -4.055 0.071 85.299
5890.25 0.072 85.246 0.997 -4.117 0.997 -4.117 0.072 85.246
5915.208 0.073 85.194 0.997 -4.179 0.997 -4.179 0.073 85.194
5940.167 0.074 85.141 0.996 -4.241 0.996 -4.241 0.074 85.141
5965.125 0.075 85.088 0.996 -4.303 0.996 -4.303 0.075 85.088
5990.083 0.076 85.035 0.996 -4.365 0.996 -4.365 0.076 85.035
6015.042 0.077 84.982 0.996 -4.426 0.996 -4.426 0.077 84.982
6040 0.078 84.929 0.996 -4.488 0.996 -4.488 0.078 84.929
6064.958 0.079 84.875 0.996 -4.549 0.996 -4.549 0.079 84.875
6089.917 0.08 84.822 0.996 -4.61 0.996 -4.61 0.08 84.822
6114.875 0.081 84.769 0.996 -4.67 0.996 -4.67 0.081 84.769
6139.833 0.082 84.715 0.996 -4.731 0.996 -4.731 0.082 84.715
6164.792 0.084 84.662 0.996 -4.791 0.996 -4.791 0.084 84.662
6189.75 0.085 84.609 0.996 -4.852 0.996 -4.852 0.085 84.609
6214.708 0.086 84.555 0.996 -4.912 0.996 -4.912 0.086 84.555
6239.667 0.087 84.502 0.995 -4.971 0.995 -4.971 0.087 84.502
6264.625 0.088 84.448 0.995 -5.031 0.995 -5.031 0.088 84.448
6289.583 0.089 84.395 0.995 -5.091 0.995 -5.091 0.089 84.395
6314.542 0.09 84.342 0.995 -5.15 0.995 -5.15 0.09 84.342
6339.5 0.091 84.288 0.995 -5.209 0.995 -5.209 0.091 84.288
6364.458 0.092 84.235 0.995 -5.268 0.995 -5.268 0.092 84.235
6389.417 0.093 84.182 0.995 -5.327 0.995 -5.327 0.093 84.182
6414.375 0.094 84.128 0.995 -5.386 0.995 -5.386 0.094 84.128
6439.333 0.095 84.075 0.995 -5.444 0.995 -5.444 0.095 84.075
6464.292 0.096 84.022 0.995 -5.503 0.995 -5.503 0.096 84.022
6489.25 0.097 83.969 0.994 -5.561 0.994 -5.561 0.097 83.969
6514.208 0.098 83.915 0.994 -5.619 0.994 -5.619 0.098 83.915
6539.167 0.099 83.862 0.994 -5.677 0.994 -5.677 0.099 83.862
6564.125 0.1 83.809 0.994 -5.735 0.994 -5.735 0.1 83.809
6589.083 0.101 83.756 0.994 -5.792 0.994 -5.792 0.101 83.756
6614.042 0.102 83.703 0.994 -5.85 0.994 -5.85 0.102 83.703
6639 0.103 83.65 0.994 -5.907 0.994 -5.907 0.103 83.65
6663.958 0.104 83.597 0.994 -5.964 0.994 -5.964 0.104 83.597
6688.917 0.105 83.544 0.994 -6.021 0.994 -6.021 0.105 83.544
6713.875 0.106 83.492 0.994 -6.078 0.994 -6.078 0.106 83.492
6738.833 0.107 83.439 0.993 -6.135 0.993 -6.135 0.107 83.439
6763.792 0.108 83.386 0.993 -6.192 0.993 -6.192 0.108 83.386
6788.75 0.109 83.333 0.993 -6.248 0.993 -6.248 0.109 83.333
6813.708 0.11 83.281 0.993 -6.304 0.993 -6.304 0.11 83.281
6838.667 0.111 83.228 0.993 -6.361 0.993 -6.361 0.111 83.228
6863.625 0.112 83.176 0.993 -6.417 0.993 -6.417 0.112 83.176
6888.583 0.113 83.124 0.993 -6.473 0.993 -6.473 0.113 83.124
6913.542 0.114 83.071 0.993 -6.528 0.993 -6.528 0.114 83.071
6938.5 0.115 83.019 0.993 -6.584 0.993 -6.584 0.115 83.019
6963.458 0.116 82.967 0.992 -6.64 0.992 -6.64 0.116 82.967
6988.417 0.117 82.915 0.992 -6.695 0.992 -6.695 0.117 82.915
7013.375 0.118 82.862 0.992 -6.75 0.992 -6.75 0.118 82.862
7038.333 0.119 82.81 0.992 -6.806 0.992 -6.806 0.119 82.81
7063.292 0.119 82.759 0.992 -6.861 0.992 -6.861 0.119 82.759
7088.25 0.12 82.707 0.992 -6.916 0.992 -6.916 0.12 82.707
7113.208 0.121 82.655 0.992 -6.97 0.992 -6.97 0.121 82.655
7138.167 0.122 82.603 0.992 -7.025 0.992 -7.025 0.122 82.603
7163.125 0.123 82.551 0.992 -7.08 0.992 -7.08 0.123 82.551
7188.083 0.124 82.5 0.991 -7.134 0.991 -7.134 0.124 82.5
7213.042 0.125 82.448 0.991 -7.189 0.991 -7.189 0.125 82.448
7238 0.126 82.397 0.991 -7.243 0.991 -7.243 0.126 82.397
7262.958 0.127 82.345 0.991 -7.297 0.991 -7.297 0.127 82.345
7287.917 0.128 82.294 0.991 -7.351 0.991 -7.351 0.128 82.294
7312.875 0.129 82.243 0.991 -7.405 0.991 -7.405 0.129 82.243
7337.833 0.13 82.192 0.991 -7.459 0.991 -7.459 0.13 82.192
7362.792 0.131 82.14 0.991 -7.512 0.991 -7.512 0.131 82.14
7387.75 0.132 82.089 0.991 -7.566 0.991 -7.566 0.132 82.089
7412.708 0.133 82.038 0.99 -7.619 0.99 -7.619 0.133 82.038
7437.667 0.134 81.987 0.99 -7.673 0.99 -7.673 0.134 81.987
7462.625 0.134 81.937 0.99 -7.726 0.99 -7.726 0.134 81.937
7487.583 0.135 81.886 0.99 -7.779 0.99 -7.779 0.135 81.886
7512.542 0.136 81.835 0.99 -7.832 0.99 -7.832 0.136 81.835
7537.5 0.137 81.784 0.99 -7.885 0.99 -7.885 0.137 81.784
7562.458 0.138 81.734 0.99 -7.938 0.99 -7.938 0.138 81.734
7587.417 0.139 81.683 0.989 -7.99 0.989 -7.99 0.139 81.683
7612.375 0.14 81.633 0.989 -8.043 0.989 -8.043 0.14 81.633
7637.333 0.141 81.582 0.989 -8.095 0.989 -8.095 0.141 81.582
7662.292 0.142 81.532 0.989 -8.148 0.989 -8.148 0.142 81.532
7687.25 0.143 81.482 0.989 -8.2 0.989 -8.2 0.143 81.482
7712.208 0.144 81.432 0.989 -8.252 0.989 -8.252 0.144 81.432
7737.167 0.144 81.382 0.989 -8.305 0.989 -8.305 0.144 81.382
7762.125 0.145 81.332 0.989 -8.357 0.989 -8.357 0.145 81.332
7787.083 0.146 81.282 0.988 -8.408 0.988 -8.408 0.146 81.282
7812.042 0.147 81.232 0.988 -8.46 0.988 -8.46 0.147 81.232
7837 0.148 81.182 0.988 -8.512 0.988 -8.512 0.148 81.182
7861.958 0.149 81.132 0.988 -8.564 0.988 -8.564 0.149 81.132
7886.917 0.15 81.082 0.988 -8.615 0.988 -8.615 0.15 81.082
7911.875 0.151 81.033 0.988 -8.667 0.988 -8.667 0.151 81.033
7936.833 0.152 80.983 0.988 -8.718 0.988 -8.718 0.152 80.983
7961.792 0.152 80.934 0.988 -8.769 0.988 -8.769 0.152 80.934
7986.75 0.153 80.884 0.987 -8.821 0.987 -8.821 0.153 80.884
8011.708 0.154 80.835 0.987 -8.872 0.987 -8.872 0.154 80.835
8036.667 0.155 80.786 0.987 -8.923 0.987 -8.923 0.155 80.786
8061.625 0.156 80.736 0.987 -8.974 0.987 -8.974 0.156 80.736
8086.583 0.157 80.687 0.987 -9.024 0.987 -9.024 0.157 80.687
8111.542 0.158 80.638 0.987 -9.075 0.987 -9.075 0.158 80.638
8136.5 0.159 80.589 0.987 -9.126 0.987 -9.126 0.159 80.589
8161.458 0.159 80.54 0.986 -9.176 0.986 -9.176 0.159 80.54
8186.417 0.16 80.491 0.986 -9.227 0.986 -9.227 0.16 80.491
8211.375 0.161 80.442 0.986 -9.277 0.986 -9.277 0.161 80.442
8236.333 0.162 80.394 0.986 -9.328 0.986 -9.328 0.162 80.394
8261.292 0.163 80.345 0.986 -9.378 0.986 -9.378 0.163 80.345
8286.25 0.164 80.296 0.986 -9.428 0.986 -9.428 0.164 80.296
8311.208 0.165 80.248 0.986 -9.478 0.986 -9.478 0.165 80.248
8336.167 0.166 80.199 0.985 -9.528 0.985 -9.528 0.166 80.199
8361.125 0.166 80.151 0.985 -9.578 0.985 -9.578 0.166 80.151
8386.083 0.167 80.102 0.985 -9.628 0.985 -9.628 0.167 80.102
8411.042 0.168 80.054 0.985 -9.678 0.985 -9.678 0.168 80.054
8436 0.169 80.006 0.985 -9.727 0.985 -9.727 0.169 80.006
8460.958 0.17 79.957 0.985 -9.777 0.985 -9.777 0.17 79.957
8485.917 0.171 79.909 0.985 -9.826 0.985 -9.826 0.171 79.909
8510.875 0.172 79.861 0.984 -9.876 0.984 -9.876 0.172 79.861
8535.833 0.172 79.813 0.984 -9.925 0.984 -9.925 0.172 79.813
8560.792 0.173 79.765 0.984 -9.974 0.984 -9.974 0.173 79.765
8585.75 0.174 79.717 0.984 -10.024 0.984 -10.024 0.174 79.717
8610.708 0.175 79.669 0.984 -10.073 0.984 -10.073 0.175 79.669
8635.667 0.176 79.622 0.984 -10.122 0.984 -10.122 0.176 79.622
8660.625 0.177 79.574 0.983 -10.171 0.983 -10.171 0.177 79.574
8685.583 0.177 79.526 0.983 -10.22 0.983 -10.22 0.177 79.526
8710.542 0.178 79.478 0.983 -10.269 0.983 -10.269 0.178 79.478
8735.5 0.179 79.431 0.983 -10.317 0.983 -10.317 0.179 79.431
8760.458 0.18 79.383 0.983 -10.366 0.983 -10.366 0.18 79.383
8785.417 0.181 79.336 0.983 -10.415 0.983 -10.415 0.181 79.336
8810.375 0.182 79.289 0.983 -10.463 0.983 -10.463 0.182 79.289
8835.333 0.182 79.241 0.982 -10.512 0.982 -10.512 0.182 79.241
8860.292 0.183 79.194 0.982 -10.56 0.982 -10.56 0.183 79.194
8885.25 0.184 79.147 0.982 -10.609 0.982 -10.609 0.184 79.147
8910.208 0.185 79.1 0.982 -10.657 0.982 -10.657 0.185 79.1
8935.167 0.186 79.053 0.982 -10.705 0.982 -10.705 0.186 79.053
8960.125 0.187 79.006 0.982 -10.753 0.982 -10.753 0.187 79.006
8985.083 0.187 78.959 0.981 -10.801 0.981 -10.801 0.187 78.959
9010.042 0.188 78.912 0.981 -10.849 0.981 -10.849 0.188 78.912
9035 0.189 78.865 0.981 -10.897 0.981 -10.897 0.189 78.865
9059.958 0.19 78.818 0.981 -10.945 0.981 -10.945 0.19 78.818
9084.917 0.191 78.771 0.981 -10.993 0.981 -10.993 0.191 78.771
9109.875 0.192 78.725 0.981 -11.041 0.981 -11.041 0.192 78.725
9134.833 0.192 78.678 0.981 -11.088 0.981 -11.088 0.192 78.678
9159.792 0.193 78.631 0.98 -11.136 0.98 -11.136 0.193 78.631
9184.75 0.194 78.585 0.98 -11.183 0.98 -11.183 0.194 78.585
9209.708 0.195 78.538 0.98 -11.231 0.98 -11.231 0.195 78.538
9234.667 0.196 78.492 0.98 -11.278 0.98 -11.278 0.196 78.492
9259.625 0.196 78.446 0.98 -11.326 0.98 -11.326 0.196 78.446
9284.583 0.197 78.399 0.98 -11.373 0.98 -11.373 0.197 78.399
9309.542 0.198 78.353 0.979 -11.42 0.979 -11.42 0.198 78.353
9334.5 0.199 78.307 0.979 -11.467 0.979 -11.467 0.199 78.307
9359.458 0.2 78.261 0.979 -11.515 0.979 -11.515 0.2 78.261
9384.417 0.2 78.214 0.979 -11.562 0.979 -11.562 0.2 78.214
9409.375 0.201 78.168 0.979 -11.609 0.979 -11.609 0.201 78.168
9434.333 0.202 78.122 0.979 -11.655 0.979 -11.655 0.202 78.122
9459.292 0.203 78.076 0.978 -11.702 0.978 -11.702 0.203 78.076
9484.25 0.204 78.031 0.978 -11.749 0.978 -11.749 0.204 78.031
9509.208 0.204 77.985 0.978 -11.796 0.978 -11.796 0.204 77.985
9534.167 0.205 77.939 0.978 -11.843 0.978 -11.843 0.205 77.939
9559.125 0.206 77.893 0.978 -11.889 0.978 -11.889 0.206 77.893
9584.083 0.207 77.848 0.978 -11.936 0.978 -11.936 0.207 77.848
9609.042 0.208 77.802 0.977 -11.982 0.977 -11.982 0.208 77.802
9634 0.208 77.756 0.977 -12.029 0.977 -12.029 0.208 77.756
9658.958 0.209 77.711 0.977 -12.075 0.977 -12.075 0.209 77.711
9683.917 0.21 77.665 0.977 -12.121 0.977 -12.121 0.21 77.665
9708.875 0.211 77.62 0.977 -12.168 0.977 -12.168 0.211 77.62
9733.833 0.212 77.574 0.977 -12.214 0.977 -12.214 0.212 77.574
9758.792 0.212 77.529 0.976 -12.26 0.976 -12.26 0.212 77.529
9783.75 0.213 77.484 0.976 -12.306 0.976 -12.306 0.213 77.484
9808.708 0.214 77.439 0.976 -12.352 0.976 -12.352 0.214 77.439
9833.667 0.215 77.393 0.976 -12.398 0.976 -12.398 0.215 77.393
9858.625 0.215 77.348 0.976 -12.444 0.976 -12.444 0.215 77.348
9883.583 0.216 77.303 0.976 -12.49 0.976 -12.49 0.216 77.303
9908.542 0.217 77.258 0.975 -12.536 0.975 -12.536 0.217 77.258
9933.5 0.218 77.213 0.975 -12.582 0.975 -12.582 0.218 77.213
9958.458 0.219 77.168 0.975 -12.627 0.975 -12.627 0.219 77.168
9983.417 0.219 77.123 0.975 -12.673 0.975 -12.673 0.219 77.123
10008.375 0.22 77.078 0.975 -12.719 0.975 -12.719 0.22 77.078
10033.333 0.221 77.034 0.975 -12.764 0.975 -12.764 0.221 77.034
10058.292 0.222 76.989 0.974 -12.81 0.974 -12.81 0.222 76.989
10083.25 0.222 76.944 0.974 -12.855 0.974 -12.855 0.222 76.944
10108.208 0.223 76.899 0.974 -12.901 0.974 -12.901 0.223 76.899
10133.167 0.224 76.855 0.974 -12.946 0.974 -12.946 0.224 76.855
10158.125 0.225 76.81 0.974 -12.991 0.974 -12.991 0.225 76.81
10183.083 0.226 76.766 0.973 -13.036 0.973 -13.036 0.226 76.766
10208.042 0.226 76.721 0.973 -13.082 0.973 -13.082 0.226 76.721
10233 0.227 76.677 0.973 -13.127 0.973 -13.127 0.227 76.677
10257.958 0.228 76.632 0.973 -13.172 0.973 -13.172 0.228 76.632
10282.917 0.229 76.588 0.973 -13.217 0.973 -13.217 0.229 76.588
10307.875 0.229 76.544 0.973 -13.262 0.973 -13.262 0.229 76.544
10332.833 0.23 76.499 0.972 -13.307 0.972 -13.307 0.23 76.499
10357.792 0.231 76.455 0.972 -13.352 0.972 -13.352 0.231 76.455
10382.75 0.232 76.411 0.972 -13.396 0.972 -13.396 0.232 76.411
10407.708 0.232 76.367 0.972 -13.441 0.972 -13.441 0.232 76.367
10432.667 0.233 76.323 0.972 -13.486 0.972 -13.486 0.233 76.323
10457.625 0.234 76.279 0.971 -13.531 0.971 -13.531 0.234 76.279
10482.583 0.235 76.235 0.971 -13.575 0.971 -13.575 0.235 76.235
10507.542 0.235 76.191 0.971 -13.62 0.971 -13.62 0.235 76.191
10532.5 0.236 76.147 0.971 -13.664 0.971 -13.664 0.236 76.147
10557.458 0.237 76.103 0.971 -13.709 0.971 -13.709 0.237 76.103
10582.417 0.238 76.059 0.971 -13.753 0.971 -13.753 0.238 76.059
10607.375 0.238 76.016 0.97 -13.798 0.97 -13.798 0.238 76.016
10632.333 0.239 75.972 0.97 -13.842 0.97 -13.842 0.239 75.972
10657.292 0.24 75.928 0.97 -13.886 0.97 -13.886 0.24 75.928
10682.25 0.241 75.885 0.97 -13.931 0.97 -13.931 0.241 75.885
10707.208 0.241 75.841 0.97 -13.975 0.97 -13.975 0.241 75.841
10732.167 0.242 75.797 0.969 -14.019 0.969 -14.019 0.242 75.797
10757.125 0.243 75.754 0.969 -14.063 0.969 -14.063 0.243 75.754
10782.083 0.244 75.71 0.969 -14.107 0.969 -14.107 0.244 75.71
10807.042 0.244 75.667 0.969 -14.151 0.969 -14.151 0.244 75.667
10832 0.245 75.624 0.969 -14.195 0.969 -14.195 0.245 75.624
10856.958 0.246 75.58 0.969 -14.239 0.969 -14.239 0.246 75.58
10881.917 0.247 75.537 0.968 -14.283 0.968 -14.283 0.247 75.537
10906.875 0.247 75.494 0.968 -14.327 0.968 -14.327 0.247 75.494
10931.833 0.248 75.451 0.968 -14.371 0.968 -14.371 0.248 75.451
10956.792 0.249 75.407 0.968 -14.414 0.968 -14.414 0.249 75.407
10981.75 0.25 75.364 0.968 -14.458 0.968 -14.458 0.25 75.364
11006.708 0.25 75.321 0.967 -14.502 0.967 -14.502 0.25 75.321
11031.667 0.251 75.278 0.967 -14.545 0.967 -14.545 0.251 75.278
11056.625 0.252 75.235 0.967 -14.589 0.967 -14.589 0.252 75.235
11081.583 0.253 75.192 0.967 -14.632 0.967 -14.632 0.253 75.192
11106.542 0.253 75.149 0.967 -14.676 0.967 -14.676 0.253 75.149
11131.5 0.254 75.106 0.966 -14.719 0.966 -14.719 0.254 75.106
11156.458 0.255 75.063 0.966 -14.763 0.966 -14.763 0.255 75.063
11181.417 0.256 75.021 0.966 -14.806 0.966 -14.806 0.256 75.021
11206.375 0.256 74.978 0.966 -14.849 0.966 -14.849 0.256 74.978
11231.333 0.257 74.935 0.966 -14.893 0.966 -14.893 0.257 74.935
11256.292 0.258 74.892 0.965 -14.936 0.965 -14.936 0.258 74.892
11281.25 0.258 74.85 0.965 -14.979 0.965 -14.979 0.258 74.85
11306.208 0.259 74.807 0.965 -15.022 0.965 -15.022 0.259 74.807
11331.167 0.26 74.765 0.965 -15.065 0.965 -15.065 0.26 74.765
11356.125 0.261 74.722 0.965 -15.108 0.965 -15.108 0.261 74.722
11381.083 0.261 74.68 0.964 -15.151 0.964 -15.151 0.261 74.68
11406.042 0.262 74.637 0.964 -15.194 0.964 -15.194 0.262 74.637
11431 0.263 74.595 0.964 -15.237 0.964 -15.237 0.263 74.595
11455.958 0.264 74.552 0.964 -15.28 0.964 -15.28 0.264 74.552
11480.917 0.264 74.51 0.964 -15.323 0.964 -15.323 0.264 74.51
11505.875 0.265 74.468 0.963 -15.366 0.963 -15.366 0.265 74.468
11530.833 0.266 74.425 0.963 -15.408 0.963 -15.408 0.266 74.425
11555.792 0.266 74.383 0.963 -15.451 0.963 -15.451 0.266 74.383
11580.75 0.267 74.341 0.963 -15.494 0.963 -15.494 0.267 74.341
11605.708 0.268 74.299 0.963 -15.536 0.963 -15.536 0.268 74.299
11630.667 0.269 74.257 0.962 -15.579 0.962 -15.579 0.269 74.257
11655.625 0.269 74.215 0.962 -15.622 0.962 -15.622 0.269 74.215
11680.583 0.27 74.173 0.962 -15.664 0.962 -15.664 0.27 74.173
11705.542 0.271 74.131 0.962 -15.706 0.962 -15.706 0.271 74.131
11730.5 0.271 74.089 0.962 -15.749 0.962 -15.749 0.271 74.089
11755.458 0.272 74.047 0.961 -15.791 0.961 -15.791 0.272 74.047
11780.417 0.273 74.005 0.961 -15.834 0.961 -15.834 0.273 74.005
11805.375 0.274 73.963 0.961 -15.876 0.961 -15.876 0.274 73.963
11830.333 0.274 73.921 0.961 -15.918 0.961 -15.918 0.274 73.921
11855.292 0.275 73.879 0.961 -15.96 0.961 -15.96 0.275 73.879
11880.25 0.276 73.838 0.96 -16.003 0.96 -16.003 0.276 73.838
11905.208 0.276 73.796 0.96 -16.045 0.96 -16.045 0.276 73.796
11930.167 0.277 73.754 0.96 -16.087 0.96 -16.087 0.277 73.754
11955.125 0.278 73.713 0.96 -16.129 0.96 -16.129 0.278 73.713
11980.083 0.279 73.671 0.96 -16.171 0.96 -16.171 0.279 73.671
12005.042 0.279 73.629 0.959 -16.213 0.959 -16.213 0.279 73.629
12030 0.28 73.588 0.959 -16.255 0.959 -16.255 0.28 73.588
12054.958 0.281 73.546 0.959 -16.297 0.959 -16.297 0.281 73.546
12079.917 0.281 73.505 0.959 -16.339 0.959 -16.339 0.281 73.505
12104.875 0.282 73.464 0.959 -16.381 0.959 -16.381 0.282 73.464
12129.833 0.283 73.422 0.958 -16.422 0.958 -16.422 0.283 73.422
12154.792 0.283 73.381 0.958 -16.464 0.958 -16.464 0.283 73.381
12179.75 0.284 73.34 0.958 -16.506 0.958 -16.506 0.284 73.34
12204.708 0.285 73.298 0.958 -16.547 0.958 -16.547 0.285 73.298
12229.667 0.286 73.257 0.958 -16.589 0.958 -16.589 0.286 73.257
12254.625 0.286 73.216 0.957 -16.631 0.957 -16.631 0.286 73.216
12279.583 0.287 73.175 0.957 -16.672 0.957 -16.672 0.287 73.175
12304.542 0.288 73.134 0.957 -16.714 0.957 -16.714 0.288 73.134
12329.5 0.288 73.092 0.957 -16.755 0.957 -16.755 0.288 73.092
12354.458 0.289 73.051 0.957 -16.797 0.957 -16.797 0.289 73.051
12379.417 0.29 73.01 0.956 -16.838 0.956 -16.838 0.29 73.01
12404.375 0.29 72.969 0.956 -16.88 0.956 -16.88 0.29 72.969
12429.333 0.291 72.928 0.956 -16.921 0.956 -16.921 0.291 72.928
12454.292 0.292 72.888 0.956 -16.962 0.956 -16.962 0.292 72.888
12479.25 0.292 72.847 0.956 -17.004 0.956 -17.004 0.292 72.847
12504.208 0.293 72.806 0.955 -17.045 0.955 -17.045 0.293 72.806
12529.167 0.294 72.765 0.955 -17.086 0.955 -17.086 0.294 72.765
12554.125 0.294 72.724 0.955 -17.127 0.955 -17.127 0.294 72.724
12579.083 0.295 72.683 0.955 -17.168 0.955 -17.168 0.295 72.683
12604.042 0.296 72.643 0.954 -17.209 0.954 -17.209 0.296 72.643
12629 0.297 72.602 0.954 -17.25 0.954 -17.25 0.297 72.602
12653.958 0.297 72.561 0.954 -17.291 0.954 -17.291 0.297 72.561
12678.917 0.298 72.521 0.954 -17.332 0.954 -17.332 0.298 72.521
12703.875 0.299 72.48 0.954 -17.373 0.954 -17.373 0.299 72.48
12728.833 0.299 72.44 0.953 -17.414 0.953 -17.414 0.299 72.44
12753.792 0.3 72.399 0.953 -17.455 0.953 -17.455 0.3 72.399
12778.75 0.301 72.359 0.953 -17.496 0.953 -17.496 0.301 72.359
12803.708 0.301 72.318 0.953 -17.537 0.953 -17.537 0.301 72.318
12828.667 0.302 72.278 0.953 -17.578 0.953 -17.578 0.302 72.278
12853.625 0.303 72.237 0.952 -17.618 0.952 -17.618 0.303 72.237
12878.583 0.303 72.197 0.952 -17.659 0.952 -17.659 0.303 72.197
12903.542 0.304 72.157 0.952 -17.7 0.952 -17.7 0.304 72.157
12928.5 0.305 72.116 0.952 -17.74 0.952 -17.74 0.305 72.116
12953.458 0.305 72.076 0.951 -17.781 0.951 -17.781 0.305 72.076
12978.417 0.306 72.036 0.951 -17.821 0.951 -17.821 0.306 72.036
13003.375 0.307 71.996 0.951 -17.862 0.951 -17.862 0.307 71.996
13028.333 0.307 71.956 0.951 -17.902 0.951 -17.902 0.307 71.956
13053.292 0.308 71.916 0.951 -17.943 0.951 -17.943 0.308 71.916
13078.25 0.309 71.876 0.95 -17.983 0.95 -17.983 0.309 71.876
13103.208 0.309 71.835 0.95 -18.024 0.95 -18.024 0.309 71.835
13128.167 0.31 71.795 0.95 -18.064 0.95 -18.064 0.31 71.795
13153.125 0.311 71.755 0.95 -18.104 0.95 -18.104 0.311 71.755
13178.083 0.311 71.716 0.95 -18.145 0.95 -18.145 0.311 71.716
13203.042 0.312 71.676 0.949 -18.185 0.949 -18.185 0.312 71.676
13228 0.313 71.636 0.949 -18.225 0.949 -18.225 0.313 71.636
13252.958 0.313 71.596 0.949 -18.265 0.949 -18.265 0.313 71.596
13277.917 0.314 71.556 0.949 -18.305 0.949 -18.305 0.314 71.556
13302.875 0.315 71.516 0.948 -18.346 0.948 -18.346 0.315 71.516
13327.833 0.315 71.476 0.948 -18.386 0.948 -18.386 0.315 71.476
13352.792 0.316 71.437 0.948 -18.426 0.948 -18.426 0.316 71.437
13377.75 0.317 71.397 0.948 -18.466 0.948 -18.466 0.317 71.397
13402.708 0.317 71.357 0.948 -18.506 0.948 -18.506 0.317 71.357
13427.667 0.318 71.318 0.947 -18.546 0.947 -18.546 0.318 71.318
13452.625 0.319 71.278 0.947 -18.586 0.947 -18.586 0.319 71.278
13477.583 0.319 71.239 0.947 -18.625 0.947 -18.625 0.319 71.239
13502.542 0.32 71.199 0.947 -18.665 0.947 -18.665 0.32 71.199
13527.5 0.321 71.16 0.946 -18.705 0.946 -18.705 0.321 71.16
13552.458 0.321 71.12 0.946 -18.745 0.946 -18.745 0.321 71.12
13577.417 0.322 71.081 0.946 -18.785 0.946 -18.785 0.322 71.081
13602.375 0.323 71.041 0.946 -18.824 0.946 -18.824 0.323 71.041
13627.333 0.323 71.002 0.946 -18.864 0.946 -18.864 0.323 71.002
13652.292 0.324 70.962 0.945 -18.904 0.945 -18.904 0.324 70.962
13677.25 0.325 70.923 0.945 -18.943 0.945 -18.943 0.325 70.923
13702.208 0.325 70.884 0.945 -18.983 0.945 -18.983 0.325 70.884
13727.167 0.326 70.845 0.945 -19.022 0.945 -19.022 0.326 70.845
13752.125 0.327 70.805 0.944 -19.062 0.944 -19.062 0.327 70.805
13777.083 0.327 70.766 0.944 -19.101 0.944 -19.101 0.327 70.766
13802.042 0.328 70.727 0.944 -19.141 0.944 -19.141 0.328 70.727
13827 0.329 70.688 0.944 -19.18 0.944 -19.18 0.329 70.688
13851.958 0.329 70.649 0.944 -19.22 0.944 -19.22 0.329 70.649
13876.917 0.33 70.61 0.943 -19.259 0.943 -19.259 0.33 70.61
13901.875 0.33 70.571 0.943 -19.298 0.943 -19.298 0.33 70.571
13926.833 0.331 70.532 0.943 -19.338 0.943 -19.338 0.331 70.532
13951.792 0.332 70.493 0.943 -19.377 0.943 -19.377 0.332 70.493
13976.75 0.332 70.454 0.942 -19.416 0.942 -19.416 0.332 70.454
14001.708 0.333 70.415 0.942 -19.455 0.942 -19.455 0.333 70.415
14026.667 0.334 70.376 0.942 -19.495 0.942 -19.495 0.334 70.376
14051.625 0.334 70.337 0.942 -19.534 0.942 -19.534 0.334 70.337
14076.583 0.335 70.298 0.941 -19.573 0.941 -19.573 0.335 70.298
14101.542 0.336 70.259 0.941 -19.612 0.941 -19.612 0.336 70.259
14126.5 0.336 70.221 0.941 -19.651 0.941 -19.651 0.336 70.221
14151.458 0.337 70.182 0.941 -19.69 0.941 -19.69 0.337 70.182
14176.417 0.338 70.143 0.941 -19.729 0.941 -19.729 0.338 70.143
14201.375 0.338 70.105 0.94 -19.768 0.94 -19.768 0.338 70.105
14226.333 0.339 70.066 0.94 -19.807 0.94 -19.807 0.339 70.066
14251.292 0.339 70.027 0.94 -19.846 0.94 -19.846 0.339 70.027
14276.25 0.34 69.989 0.94 -19.885 0.94 -19.885 0.34 69.989
14301.208 0.341 69.95 0.939 -19.923 0.939 -19.923 0.341 69.95
14326.167 0.341 69.912 0.939 -19.962 0.939 -19.962 0.341 69.912
14351.125 0.342 69.873 0.939 -20.001 0.939 -20.001 0.342 69.873
14376.083 0.343 69.835 0.939 -20.04 0.939 -20.04 0.343 69.835
14401.042 0.343 69.796 0.938 -20.078 0.938 -20.078 0.343 69.796
14426 0.344 69.758 0.938 -20.117 0.938 -20.117 0.344 69.758
14450.958 0.345 69.719 0.938 -20.156 0.938 -20.156 0.345 69.719
14475.917 0.345 69.681 0.938 -20.194 0.938 -20.194 0.345 69.681
14500.875 0.346 69.643 0.938 -20.233 0.938 -20.233 0.346 69.643
14525.833 0.346 69.604 0.937 -20.272 0.937 -20.272 0.346 69.604
14550.792 0.347 69.566 0.937 -20.31 0.937 -20.31 0.347 69.566
14575.75 0.348 69.528 0.937 -20.349 0.937 -20.349 0.348 69.528
14600.708 0.348 69.49 0.937 -20.387 0.937 -20.387 0.348 69.49
14625.667 0.349 69.452 0.936 -20.425 0.936 -20.425 0.349 69.452
14650.625 0.35 69.413 0.936 -20.464 0.936 -20.464 0.35 69.413
14675.583 0.35 69.375 0.936 -20.502 0.936 -20.502 0.35 69.375
14700.542 0.351 69.337 0.936 -20.541 0.936 -20.541 0.351 69.337
14725.5 0.351 69.299 0.935 -20.579 0.935 -20.579 0.351 69.299
14750.458 0.352 69.261 0.935 -20.617 0.935 -20.617 0.352 69.261
14775.417 0.353 69.223 0.935 -20.655 0.935 -20.655 0.353 69.223
14800.375 0.353 69.185 0.935 -20.694 0.935 -20.694 0.353 69.185
14825.333 0.354 69.147 0.934 -20.732 0.934 -20.732 0.354 69.147
14850.292 0.355 69.109 0.934 -20.77 0.934 -20.77 0.355 69.109
14875.25 0.355 69.071 0.934 -20.808 0.934 -20.808 0.355 69.071
14900.208 0.356 69.033 0.934 -20.846 0.934 -20.846 0.356 69.033
14925.167 0.356 68.996 0.934 -20.884 0.934 -20.884 0.356 68.996
14950.125 0.357 68.958 0.933 -20.922 0.933 -20.922 0.357 68.958
14975.083 0.358 68.92 0.933 -20.96 0.933 -20.96 0.358 68.92
15000.042 0.358 68.882 0.933 -20.998 0.933 -20.998 0.358 68.882
15025 0.359 68.845 0.933 -21.036 0.933 -21.036 0.359 68.845
15049.958 0.36 68.807 0.932 -21.074 0.932 -21.074 0.36 68.807
15074.917 0.36 68.769 0.932 -21.112 0.932 -21.112 0.36 68.769
15099.875 0.361 68.732 0.932 -21.15 0.932 -21.15 0.361 68.732
15124.833 0.361 68.694 0.932 -21.188 0.932 -21.188 0.361 68.694
15149.792 0.362 68.656 0.931 -21.226 0.931 -21.226 0.362 68.656
15174.75 0.363 68.619 0.931 -21.263 0.931 -21.263 0.363 68.619
15199.708 0.363 68.581 0.931 -21.301 0.931 -21.301 0.363 68.581
15224.667 0.364 68.544 0.931 -21.339 0.931 -21.339 0.364 68.544
15249.625 0.364 68.506 0.93 -21.377 0.93 -21.377 0.364 68.506
15274.583 0.365 68.469 0.93 -21.414 0.93 -21.414 0.365 68.469
15299.542 0.366 68.432 0.93 -21.452 0.93 -21.452 0.366 68.432
15324.5 0.366 68.394 0.93 -21.489 0.93 -21.489 0.366 68.394
15349.458 0.367 68.357 0.93 -21.527 0.93 -21.527 0.367 68.357
15374.417 0.368 68.32 0.929 -21.565 0.929 -21.565 0.368 68.32
15399.375 0.368 68.282 0.929 -21.602 0.929 -21.602 0.368 68.282
15424.333 0.369 68.245 0.929 -21.64 0.929 -21.64 0.369 68.245
15449.292 0.369 68.208 0.929 -21.677 0.929 -21.677 0.369 68.208
15474.25 0.37 68.17 0.928 -21.714 0.928 -21.714 0.37 68.17
15499.208 0.371 68.133 0.928 -21.752 0.928 -21.752 0.371 68.133
15524.167 0.371 68.096 0.928 -21.789 0.928 -21.789 0.371 68.096
15549.125 0.372 68.059 0.928 -21.827 0.928 -21.827 0.372 68.059
15574.083 0.372 68.022 0.927 -21.864 0.927 -21.864 0.372 68.022
15599.042 0.373 67.985 0.927 -21.901 0.927 -21.901 0.373 67.985
15624 0.374 67.948 0.927 -21.938 0.927 -21.938 0.374 67.948
15648.958 0.374 67.911 0.927 -21.976 0.927 -21.976 0.374 67.911
15673.917 0.375 67.874 0.926 -22.013 0.926 -22.013 0.375 67.874
15698.875 0.375 67.837 0.926 -22.05 0.926 -22.05 0.375 67.837
15723.833 0.376 67.8 0.926 -22.087 0.926 -22.087 0.376 67.8
15748.792 0.377 67.763 0.926 -22.124 0.926 -22.124 0.377 67.763
15773.75 0.377 67.726 0.925 -22.161 0.925 -22.161 0.377 67.726
15798.708 0.378 67.689 0.925 -22.198 0.925 -22.198 0.378 67.689
15823.667 0.378 67.652 0.925 -22.235 0.925 -22.235 0.378 67.652
15848.625 0.379 67.616 0.925 -22.272 0.925 -22.272 0.379 67.616
15873.583 0.38 67.579 0.924 -22.309 0.924 -22.309 0.38 67.579
15898.542 0.38 67.542 0.924 -22.346 0.924 -22.346 0.38 67.542
15923.5 0.381 67.505 0.924 -22.383 0.924 -22.383 0.381 67.505
15948.458 0.381 67.469 0.924 -22.42 0.924 -22.42 0.381 67.469
15973.417 0.382 67.432 0.923 -22.457 0.923 -22.457 0.382 67.432
15998.375 0.383 67.395 0.923 -22.494 0.923 -22.494 0.383 67.395
16023.333 0.383 67.359 0.923 -22.531 0.923 -22.531 0.383 67.359
16048.292 0.384 67.322 0.923 -22.568 0.923 -22.568 0.384 67.322
16073.25 0.384 67.286 0.922 -22.604 0.922 -22.604 0.384 67.286
16098.208 0.385 67.249 0.922 -22.641 0.922 -22.641 0.385 67.249
16123.167 0.386 67.213 0.922 -22.678 0.922 -22.678 0.386 67.213
16148.125 0.386 67.176 0.922 -22.714 0.922 -22.714 0.386 67.176
16173.083 0.387 67.14 0.921 -22.751 0.921 -22.751 0.387 67.14
16198.042 0.387 67.103 0.921 -22.788 0.921 -22.788 0.387 67.103
16223 0.388 67.067 0.921 -22.824 0.921 -22.824 0.388 67.067
16247.958 0.388 67.03 0.921 -22.861 0.921 -22.861 0.388 67.03
16272.917 0.389 66.994 0.92 -22.897 0.92 -22.897 0.389 66.994
16297.875 0.39 66.958 0.92 -22.934 0.92 -22.934 0.39 66.958
16322.833 0.39 66.922 0.92 -22.97 0.92 -22.97 0.39 66.922
16347.792 0.391 66.885 0.92 -23.007 0.92 -23.007 0.391 66.885
16372.75 0.391 66.849 0.919 -23.043 0.919 -23.043 0.391 66.849
16397.708 0.392 66.813 0.919 -23.08 0.919 -23.08 0.392 66.813
16422.667 0.393 66.777 0.919 -23.116 0.919 -23.116 0.393 66.777
16447.625 0.393 66.74 0.919 -23.152 0.919 -23.152 0.393 66.74
16472.583 0.394 66.704 0.918 -23.189 0.918 -23.189 0.394 66.704
16497.542 0.394 66.668 0.918 -23.225 0.918 -23.225 0.394 66.668
16522.5 0.395 66.632 0.918 -23.261 0.918 -23.261 0.395 66.632
16547.458 0.396 66.596 0.918 -23.297 0.918 -23.297 0.396 66.596
16572.417 0.396 66.56 0.917 -23.334 0.917 -23.334 0.396 66.56
16597.375 0.397 66.524 0.917 -23.37 0.917 -23.37 0.397 66.524
16622.333 0.397 66.488 0.917 -23.406 0.917 -23.406 0.397 66.488
16647.292 0.398 66.452 0.917 -23.442 0.917 -23.442 0.398 66.452
16672.25 0.398 66.416 0.916 -23.478 0.916 -23.478 0.398 66.416
16697.208 0.399 66.38 0.916 -23.514 0.916 -23.514 0.399 66.38
16722.167 0.4 66.344 0.916 -23.55 0.916 -23.55 0.4 66.344
16747.125 0.4 66.309 0.916 -23.586 0.916 -23.586 0.4 66.309
16772.083 0.401 66.273 0.915 -23.622 0.915 -23.622 0.401 66.273
16797.042 0.401 66.237 0.915 -23.658 0.915 -23.658 0.401 66.237
16822 0.402 66.201 0.915 -23.694 0.915 -23.694 0.402 66.201
16846.958 0.402 66.166 0.915 -23.73 0.915 -23.73 0.402 66.166
16871.917 0.403 66.13 0.914 -23.766 0.914 -23.766 0.403 66.13
16896.875 0.404 66.094 0.914 -23.802 0.914 -23.802 0.404 66.094
16921.833 0.404 66.058 0.914 -23.838 0.914 -23.838 0.404 66.058
16946.792 0.405 66.023 0.914 -23.874 0.914 -23.874 0.405 66.023
16971.75 0.405 65.987 0.913 -23.909 0.913 -23.909 0.405 65.987
16996.708 0.406 65.952 0.913 -23.945 0.913 -23.945 0.406 65.952
17021.667 0.406 65.916 0.913 -23.981 0.913 -23.981 0.406 65.916
17046.625 0.407 65.881 0.913 -24.017 0.913 -24.017 0.407 65.881
17071.583 0.408 65.845 0.912 -24.052 0.912 -24.052 0.408 65.845
17096.542 0.408 65.81 0.912 -24.088 0.912 -24.088 0.408 65.81
17121.5 0.409 65.774 0.912 -24.124 0.912 -24.124 0.409 65.774
17146.458 0.409 65.739 0.912 -24.159 0.912 -24.159 0.409 65.739
17171.417 0.41 65.703 0.911 -24.195 0.911 -24.195 0.41 65.703
17196.375 0.41 65.668 0.911 -24.23 0.911 -24.23 0.41 65.668
17221.333 0.411 65.633 0.911 -24.266 0.911 -24.266 0.411 65.633
17246.292 0.412 65.597 0.911 -24.301 0.911 -24.301 0.412 65.597
17271.25 0.412 65.562 0.91 -24.337 0.91 -24.337 0.412 65.562
17296.208 0.413 65.527 0.91 -24.372 0.91 -24.372 0.413 65.527
17321.167 0.413 65.491 0.91 -24.408 0.91 -24.408 0.413 65.491
17346.125 0.414 65.456 0.91 -24.443 0.91 -24.443 0.414 65.456
17371.083 0.414 65.421 0.909 -24.478 0.909 -24.478 0.414 65.421
17396.042 0.415 65.386 0.909 -24.514 0.909 -24.514 0.415 65.386
17421 0.415 65.351 0.909 -24.549 0.909 -24.549 0.415 65.351
17445.958 0.416 65.316 0.909 -24.584 0.909 -24.584 0.416 65.316
17470.917 0.417 65.28 0.908 -24.62 0.908 -24.62 0.417 65.28
17495.875 0.417 65.245 0.908 -24.655 0.908 -24.655 0.417 65.245
17520.833 0.418 65.21 0.908 -24.69 0.908 -24.69 0.418 65.21
17545.792 0.418 65.175 0.908 -24.725 0.908 -24.725 0.418 65.175
17570.75 0.419 65.14 0.907 -24.76 0.907 -24.76 0.419 65.14
17595.708 0.419 65.105 0.907 -24.795 0.907 -24.795 0.419 65.105
17620.667 0.42 65.07 0.907 -24.831 0.907 -24.831 0.42 65.07
17645.625 0.42 65.036 0.907 -24.866 0.907 -24.866 0.42 65.036
17670.583 0.421 65.001 0.906 -24.901 0.906 -24.901 0.421 65.001
17695.542 0.422 64.966 0.906 -24.936 0.906 -24.936 0.422 64.966
17720.5 0.422 64.931 0.906 -24.971 0.906 -24.971 0.422 64.931
17745.458 0.423 64.896 0.906 -25.006 0.906 -25.006 0.423 64.896
17770.417 0.423 64.861 0.905 -25.041 0.905 -25.041 0.423 64.861
17795.375 0.424 64.827 0.905 -25.076 0.905 -25.076 0.424 64.827
17820.333 0.424 64.792 0.905 -25.11 0.905 -25.11 0.424 64.792
17845.292 0.425 64.757 0.905 -25.145 0.905 -25.145 0.425 64.757
17870.25 0.425 64.722 0.904 -25.18 0.904 -25.18 0.425 64.722
17895.208 0.426 64.688 0.904 -25.215 0.904 -25.215 0.426 64.688
17920.167 0.427 64.653 0.904 -25.25 0.904 -25.25 0.427 64.653
17945.125 0.427 64.618 0.903 -25.285 0.903 -25.285 0.427 64.618
17970.083 0.428 64.584 0.903 -25.319 0.903 -25.319 0.428 64.584
17995.042 0.428 64.549 0.903 -25.354 0.903 -25.354 0.428 64.549
18020 0.429 64.515 0.903 -25.389 0.903 -25.389 0.429 64.515
18044.958 0.429 64.48 0.902 -25.423 0.902 -25.423 0.429 64.48
18069.917 0.43 64.446 0.902 -25.458 0.902 -25.458 0.43 64.446
18094.875 0.43 64.411 0.902 -25.493 0.902 -25.493 0.43 64.411
18119.833 0.431 64.377 0.902 -25.527 0.902 -25.527 0.431 64.377
18144.792 0.431 64.342 0.901 -25.562 0.901 -25.562 0.431 64.342
18169.75 0.432 64.308 0.901 -25.596 0.901 -25.596 0.432 64.308
18194.708 0.433 64.274 0.901 -25.631 0.901 -25.631 0.433 64.274
18219.667 0.433 64.239 0.901 -25.665 0.901 -25.665 0.433 64.239
18244.625 0.434 64.205 0.9 -25.7 0.9 -25.7 0.434 64.205
18269.583 0.434 64.171 0.9 -25.734 0.9 -25.734 0.434 64.171
18294.542 0.435 64.136 0.9 -25.769 0.9 -25.769 0.435 64.136
18319.5 0.435 64.102 0.9 -25.803 0.9 -25.803 0.435 64.102
18344.458 0.436 64.068 0.899 -25.837 0.899 -25.837 0.436 64.068
18369.417 0.436 64.034 0.899 -25.872 0.899 -25.872 0.436 64.034
18394.375 0.437 64 0.899 -25.906 0.899 -25.906 0.437 64
18419.333 0.437 63.965 0.899 -25.94 0.899 -25.94 0.437 63.965
18444.292 0.438 63.931 0.898 -25.975 0.898 -25.975 0.438 63.931
18469.25 0.439 63.897 0.898 -26.009 0.898 -26.009 0.439 63.897
18494.208 0.439 63.863 0.898 -26.043 0.898 -26.043 0.439 63.863
18519.167 0.44 63.829 0.897 -26.077 0.897 -26.077 0.44 63.829
18544.125 0.44 63.795 0.897 -26.111 0.897 -26.111 0.44 63.795
18569.083 0.441 63.761 0.897 -26.146 0.897 -26.146 0.441 63.761
18594.042 0.441 63.727 0.897 -26.18 0.897 -26.18 0.441 63.727
18619 0.442 63.693 0.896 -26.214 0.896 -26.214 0.442 63.693
18643.958 0.442 63.659 0.896 -26.248 0.896 -26.248 0.442 63.659
18668.917 0.443 63.625 0.896 -26.282 0.896 -26.282 0.443 63.625
18693.875 0.443 63.591 0.896 -26.316 0.896 -26.316 0.443 63.591
18718.833 0.444 63.558 0.895 -26.35 0.895 -26.35 0.444 63.558
18743.792 0.444 63.524 0.895 -26.384 0.895 -26.384 0.444 63.524
18768.75 0.445 63.49 0.895 -26.418 0.895 -26.418 0.445 63.49
18793.708 0.445 63.456 0.895 -26.452 0.895 -26.452 0.445 63.456
18818.667 0.446 63.422 0.894 -26.486 0.894 -26.486 0.446 63.422
18843.625 0.447 63.389 0.894 -26.519 0.894 -26.519 0.447 63.389
18868.583 0.447 63.355 0.894 -26.553 0.894 -26.553 0.447 63.355
18893.542 0.448 63.321 0.894 -26.587 0.894 -26.587 0.448 63.321
18918.5 0.448 63.288 0.893 -26.621 0.893 -26.621 0.448 63.288
18943.458 0.449 63.254 0.893 -26.655 0.893 -26.655 0.449 63.254
18968.417 0.449 63.22 0.893 -26.688 0.893 -26.688 0.449 63.22
18993.375 0.45 63.187 0.892 -26.722 0.892 -26.722 0.45 63.187
19018.333 0.45 63.153 0.892 -26.756 0.892 -26.756 0.45 63.153
19043.292 0.451 63.12 0.892 -26.79 0.892 -26.79 0.451 63.12
19068.25 0.451 63.086 0.892 -26.823 0.892 -26.823 0.451 63.086
19093.208 0.452 63.053 0.891 -26.857 0.891 -26.857 0.452 63.053
19118.167 0.452 63.019 0.891 -26.89 0.891 -26.89 0.452 63.019
19143.125 0.453 62.986 0.891 -26.924 0.891 -26.924 0.453 62.986
19168.083 0.453 62.952 0.891 -26.958 0.891 -26.958 0.453 62.952
19193.042 0.454 62.919 0.89 -26.991 0.89 -26.991 0.454 62.919
19218 0.454 62.886 0.89 -27.025 0.89 -27.025 0.454 62.886
19242.958 0.455 62.852 0.89 -27.058 0.89 -27.058 0.455 62.852
19267.917 0.455 62.819 0.89 -27.091 0.89 -27.091 0.455 62.819
19292.875 0.456 62.786 0.889 -27.125 0.889 -27.125 0.456 62.786
19317.833 0.456 62.752 0.889 -27.158 0.889 -27.158 0.456 62.752
19342.792 0.457 62.719 0.889 -27.192 0.889 -27.192 0.457 62.719
19367.75 0.457 62.686 0.889 -27.225 0.889 -27.225 0.457 62.686
19392.708 0.458 62.653 0.888 -27.258 0.888 -27.258 0.458 62.653
19417.667 0.459 62.62 0.888 -27.292 0.888 -27.292 0.459 62.62
19442.625 0.459 62.586 0.888 -27.325 0.888 -27.325 0.459 62.586
19467.583 0.46 62.553 0.887 -27.358 0.887 -27.358 0.46 62.553
19492.542 0.46 62.52 0.887 -27.391 0.887 -27.391 0.46 62.52
19517.5 0.461 62.487 0.887 -27.425 0.887 -27.425 0.461 62.487
19542.458 0.461 62.454 0.887 -27.458 0.887 -27.458 0.461 62.454
19567.417 0.462 62.421 0.886 -27.491 0.886 -27.491 0.462 62.421
19592.375 0.462 62.388 0.886 -27.524 0.886 -27.524 0.462 62.388
19617.333 0.463 62.355 0.886 -27.557 0.886 -27.557 0.463 62.355
19642.292 0.463 62.322 0.886 -27.59 0.886 -27.59 0.463 62.322
19667.25 0.464 62.289 0.885 -27.623 0.885 -27.623 0.464 62.289
19692.208 0.464 62.256 0.885 -27.656 0.885 -27.656 0.464 62.256
19717.167 0.465 62.223 0.885 -27.689 0.885 -27.689 0.465 62.223
19742.125 0.465 62.19 0.885 -27.722 0.885 -27.722 0.465 62.19
19767.083 0.466 62.157 0.884 -27.755 0.884 -27.755 0.466 62.157
19792.042 0.466 62.125 0.884 -27.788 0.884 -27.788 0.466 62.125
19817 0.467 62.092 0.884 -27.821 0.884 -27.821 0.467 62.092
19841.958 0.467 62.059 0.883 -27.854 0.883 -27.854 0.467 62.059
19866.917 0.468 62.026 0.883 -27.887 0.883 -27.887 0.468 62.026
19891.875 0.468 61.994 0.883 -27.92 0.883 -27.92 0.468 61.994
19916.833 0.469 61.961 0.883 -27.953 0.883 -27.953 0.469 61.961
19941.792 0.469 61.928 0.882 -27.986 0.882 -27.986 0.469 61.928
19966.75 0.47 61.896 0.882 -28.018 0.882 -28.018 0.47 61.896
19991.708 0.47 61.863 0.882 -28.051 0.882 -28.051 0.47 61.863
20016.667 0.471 61.83 0.882 -28.084 0.882 -28.084 0.471 61.83
20041.625 0.471 61.798 0.881 -28.116 0.881 -28.116 0.471 61.798
20066.583 0.472 61.765 0.881 -28.149 0.881 -28.149 0.472 61.765
20091.542 0.472 61.733 0.881 -28.182 0.881 -28.182 0.472 61.733
20116.5 0.473 61.7 0.88 -28.214 0.88 -28.214 0.473 61.7
20141.458 0.473 61.668 0.88 -28.247 0.88 -28.247 0.473 61.668
20166.417 0.474 61.635 0.88 -28.28 0.88 -28.28 0.474 61.635
20191.375 0.474 61.603 0.88 -28.312 0.88 -28.312 0.474 61.603
20216.333 0.475 61.57 0.879 -28.345 0.879 -28.345 0.475 61.57
20241.292 0.475 61.538 0.879 -28.377 0.879 -28.377 0.475 61.538
20266.25 0.476 61.505 0.879 -28.41 0.879 -28.41 0.476 61.505
20291.208 0.476 61.473 0.879 -28.442 0.879 -28.442 0.476 61.473
20316.167 0.477 61.441 0.878 -28.475 0.878 -28.475 0.477 61.441
20341.125 0.477 61.408 0.878 -28.507 0.878 -28.507 0.477 61.408
20366.083 0.478 61.376 0.878 -28.54 0.878 -28.54 0.478 61.376
20391.042 0.478 61.344 0.878 -28.572 0.878 -28.572 0.478 61.344
20416 0.479 61.312 0.877 -28.604 0.877 -28.604 0.479 61.312
20440.958 0.479 61.279 0.877 -28.637 0.877 -28.637 0.479 61.279
20465.917 0.48 61.247 0.877 -28.669 0.877 -28.669 0.48 61.247
20490.875 0.48 61.215 0.876 -28.701 0.876 -28.701 0.48 61.215
20515.833 0.481 61.183 0.876 -28.733 0.876 -28.733 0.481 61.183
20540.792 0.481 61.151 0.876 -28.766 0.876 -28.766 0.481 61.151
20565.75 0.482 61.119 0.876 -28.798 0.876 -28.798 0.482 61.119
20590.708 0.482 61.087 0.875 -28.83 0.875 -28.83 0.482 61.087
20615.667 0.483 61.055 0.875 -28.862 0.875 -28.862 0.483 61.055
20640.625 0.483 61.023 0.875 -28.894 0.875 -28.894 0.483 61.023
20665.583 0.484 60.991 0.875 -28.926 0.875 -28.926 0.484 60.991
20690.542 0.484 60.959 0.874 -28.959 0.874 -28.959 0.484 60.959
20715.5 0.485 60.927 0.874 -28.991 0.874 -28.991 0.485 60.927
20740.458 0.485 60.895 0.874 -29.023 0.874 -29.023 0.485 60.895
20765.417 0.486 60.863 0.873 -29.055 0.873 -29.055 0.486 60.863
20790.375 0.486 60.831 0.873 -29.087 0.873 -29.087 0.486 60.831
20815.333 0.487 60.799 0.873 -29.119 0.873 -29.119 0.487 60.799
20840.292 0.487 60.767 0.873 -29.151 0.873 -29.151 0.487 60.767
20865.25 0.488 60.735 0.872 -29.183 0.872 -29.183 0.488 60.735
20890.208 0.488 60.704 0.872 -29.215 0.872 -29.215 0.488 60.704
20915.167 0.489 60.672 0.872 -29.246 0.872 -29.246 0.489 60.672
20940.125 0.489 60.64 0.872 -29.278 0.872 -29.278 0.489 60.64
20965.083 0.49 60.608 0.871 -29.31 0.871 -29.31 0.49 60.608
20990.042 0.49 60.577 0.871 -29.342 0.871 -29.342 0.49 60.577
21015 0.491 60.545 0.871 -29.374 0.871 -29.374 0.491 60.545
21039.958 0.491 60.513 0.87 -29.406 0.87 -29.406 0.491 60.513
21064.917 0.491 60.482 0.87 -29.437 0.87 -29.437 0.491 60.482
21089.875 0.492 60.45 0.87 -29.469 0.87 -29.469 0.492 60.45
21114.833 0.492 60.418 0.87 -29.501 0.87 -29.501 0.492 60.418
21139.792 0.493 60.387 0.869 -29.532 0.869 -29.532 0.493 60.387
21164.75 0.493 60.355 0.869 -29.564 0.869 -29.564 0.493 60.355
21189.708 0.494 60.324 0.869 -29.596 0.869 -29.596 0.494 60.324
21214.667 0.494 60.292 0.869 -29.627 0.869 -29.627 0.494 60.292
21239.625 0.495 60.261 0.868 -29.659 0.868 -29.659 0.495 60.261
21264.583 0.495 60.229 0.868 -29.69 0.868 -29.69 0.495 60.229
21289.542 0.496 60.198 0.868 -29.722 0.868 -29.722 0.496 60.198
21314.5 0.496 60.166 0.867 -29.753 0.867 -29.753 0.496 60.166
21339.458 0.497 60.135 0.867 -29.785 0.867 -29.785 0.497 60.135
21364.417 0.497 60.104 0.867 -29.816 0.867 -29.816 0.497 60.104
21389.375 0.498 60.072 0.867 -29.848 0.867 -29.848 0.498 60.072
21414.333 0.498 60.041 0.866 -29.879 0.866 -29.879 0.498 60.041
21439.292 0.499 60.01 0.866 -29.911 0.866 -29.911 0.499 60.01
21464.25 0.499 59.978 0.866 -29.942 0.866 -29.942 0.499 59.978
21489.208 0.5 59.947 0.866 -29.973 0.866 -29.973 0.5 59.947
21514.167 0.5 59.916 0.865 -30.005 0.865 -30.005 0.5 59.916
21539.125 0.501 59.885 0.865 -30.036 0.865 -30.036 0.501 59.885
21564.083 0.501 59.853 0.865 -30.067 0.865 -30.067 0.501 59.853
21589.042 0.501 59.822 0.864 -30.099 0.864 -30.099 0.501 59.822
21614 0.502 59.791 0.864 -30.13 0.864 -30.13 0.502 59.791
21638.958 0.502 59.76 0.864 -30.161 0.864 -30.161 0.502 59.76
21663.917 0.503 59.729 0.864 -30.192 0.864 -30.192 0.503 59.729
21688.875 0.503 59.698 0.863 -30.224 0.863 -30.224 0.503 59.698
21713.833 0.504 59.667 0.863 -30.255 0.863 -30.255 0.504 59.667
21738.792 0.504 59.636 0.863 -30.286 0.863 -30.286 0.504 59.636
21763.75 0.505 59.605 0.863 -30.317 0.863 -30.317 0.505 59.605
21788.708 0.505 59.574 0.862 -30.348 0.862 -30.348 0.505 59.574
21813.667 0.506 59.543 0.862 -30.379 0.862 -30.379 0.506 59.543
21838.625 0.506 59.512 0.862 -30.41 0.862 -30.41 0.506 59.512
21863.583 0.507 59.481 0.861 -30.441 0.861 -30.441 0.507 59.481
21888.542 0.507 59.45 0.861 -30.472 0.861 -30.472 0.507 59.45
21913.5 0.508 59.419 0.861 -30.503 0.861 -30.503 0.508 59.419
21938.458 0.508 59.388 0.861 -30.534 0.861 -30.534 0.508 59.388
21963.417 0.509 59.357 0.86 -30.565 0.86 -30.565 0.509 59.357
21988.375 0.509 59.327 0.86 -30.596 0.86 -30.596 0.509 59.327
22013.333 0.509 59.296 0.86 -30.627 0.86 -30.627 0.509 59.296
22038.292 0.51 59.265 0.86 -30.658 0.86 -30.658 0.51 59.265
22063.25 0.51 59.234 0.859 -30.688 0.859 -30.688 0.51 59.234
22088.208 0.511 59.204 0.859 -30.719 0.859 -30.719 0.511 59.204
22113.167 0.511 59.173 0.859 -30.75 0.859 -30.75 0.511 59.173
22138.125 0.512 59.142 0.858 -30.781 0.858 -30.781 0.512 59.142
22163.083 0.512 59.112 0.858 -30.812 0.858 -30.812 0.512 59.112
22188.042 0.513 59.081 0.858 -30.842 0.858 -30.842 0.513 59.081
22213 0.513 59.05 0.858 -30.873 0.858 -30.873 0.513 59.05
22237.958 0.514 59.02 0.857 -30.904 0.857 -30.904 0.514 59.02
22262.917 0.514 58.989 0.857 -30.934 0.857 -30.934 0.514 58.989
22287.875 0.515 58.959 0.857 -30.965 0.857 -30.965 0.515 58.959
22312.833 0.515 58.928 0.857 -30.996 0.857 -30.996 0.515 58.928
22337.792 0.515 58.898 0.856 -31.026 0.856 -31.026 0.515 58.898
22362.75 0.516 58.867 0.856 -31.057 0.856 -31.057 0.516 58.867
22387.708 0.516 58.837 0.856 -31.087 0.856 -31.087 0.516 58.837
22412.667 0.517 58.806 0.855 -31.118 0.855 -31.118 0.517 58.806
22437.625 0.517 58.776 0.855 -31.148 0.855 -31.148 0.517 58.776
22462.583 0.518 58.745 0.855 -31.179 0.855 -31.179 0.518 58.745
22487.542 0.518 58.715 0.855 -31.209 0.855 -31.209 0.518 58.715
22512.5 0.519 58.685 0.854 -31.24 0.854 -31.24 0.519 58.685
22537.458 0.519 58.654 0.854 -31.27 0.854 -31.27 0.519 58.654
22562.417 0.52 58.624 0.854 -31.301 0.854 -31.301 0.52 58.624
22587.375 0.52 58.594 0.853 -31.331 0.853 -31.331 0.52 58.594
22612.333 0.52 58.563 0.853 -31.361 0.853 -31.361 0.52 58.563
22637.292 0.521 58.533 0.853 -31.392 0.853 -31.392 0.521 58.533
22662.25 0.521 58.503 0.853 -31.422 0.853 -31.422 0.521 58.503
22687.208 0.522 58.473 0.852 -31.452 0.852 -31.452 0.522 58.473
22712.167 0.522 58.443 0.852 -31.483 0.852 -31.483 0.522 58.443
22737.125 0.523 58.412 0.852 -31.513 0.852 -31.513 0.523 58.412
22762.083 0.523 58.382 0.852 -31.543 0.852 -31.543 0.523 58.382
22787.042 0.524 58.352 0.851 -31.573 0.851 -31.573 0.524 58.352
22812 0.524 58.322 0.851 -31.603 0.851 -31.603 0.524 58.322
22836.958 0.524 58.292 0.851 -31.634 0.851 -31.634 0.524 58.292
22861.917 0.525 58.262 0.85 -31.664 0.85 -31.664 0.525 58.262
22886.875 0.525 58.232 0.85 -31.694 0.85 -31.694 0.525 58.232
22911.833 0.526 58.202 0.85 -31.724 0.85 -31.724 0.526 58.202
22936.792 0.526 58.172 0.85 -31.754 0.85 -31.754 0.526 58.172
22961.75 0.527 58.142 0.849 -31.784 0.849 -31.784 0.527 58.142
22986.708 0.527 58.112 0.849 -31.814 0.849 -31.814 0.527 58.112
23011.667 0.528 58.082 0.849 -31.844 0.849 -31.844 0.528 58.082
23036.625 0.528 58.052 0.849 -31.874 0.849 -31.874 0.528 58.052
23061.583 0.528 58.022 0.848 -31.904 0.848 -31.904 0.528 58.022
23086.542 0.529 57.993 0.848 -31.934 0.848 -31.934 0.529 57.993
23111.5 0.529 57.963 0.848 -31.964 0.848 -31.964 0.529 57.963
23136.458 0.53 57.933 0.847 -31.994 0.847 -31.994 0.53 57.933
23161.417 0.53 57.903 0.847 -32.024 0.847 -32.024 0.53 57.903
23186.375 0.531 57.873 0.847 -32.053 0.847 -32.053 0.531 57.873
23211.333 0.531 57.844 0.847 -32.083 0.847 -32.083 0.531 57.844
23236.292 0.532 57.814 0.846 -32.113 0.846 -32.113 0.532 57.814
23261.25 0.532 57.784 0.846 -32.143 0.846 -32.143 0.532 57.784
23286.208 0.532 57.755 0.846 -32.173 0.846 -32.173 0.532 57.755
23311.167 0.533 57.725 0.845 -32.202 0.845 -32.202 0.533 57.725
23336.125 0.533 57.695 0.845 -32.232 0.845 -32.232 0.533 57.695
23361.083 0.534 57.666 0.845 -32.262 0.845 -32.262 0.534 57.666
23386.042 0.534 57.636 0.845 -32.291 0.845 -32.291 0.534 57.636
23411 0.535 57.607 0.844 -32.321 0.844 -32.321 0.535 57.607
23435.958 0.535 57.577 0.844 -32.351 0.844 -32.351 0.535 57.577
23460.917 0.536 57.547 0.844 -32.38 0.844 -32.38 0.536 57.547
23485.875 0.536 57.518 0.844 -32.41 0.844 -32.41 0.536 57.518
23510.833 0.536 57.488 0.843 -32.439 0.843 -32.439 0.536 57.488
23535.792 0.537 57.459 0.843 -32.469 0.843 -32.469 0.537 57.459
23560.75 0.537 57.43 0.843 -32.498 0.843 -32.498 0.537 57.43
23585.708 0.538 57.4 0.842 -32.528 0.842 -32.528 0.538 57.4
23610.667 0.538 57.371 0.842 -32.557 0.842 -32.557 0.538 57.371
23635.625 0.539 57.341 0.842 -32.587 0.842 -32.587 0.539 57.341
23660.583 0.539 57.312 0.842 -32.616 0.842 -32.616 0.539 57.312
23685.542 0.539 57.283 0.841 -32.646 0.841 -32.646 0.539 57.283
23710.5 0.54 57.253 0.841 -32.675 0.841 -32.675 0.54 57.253
23735.458 0.54 57.224 0.841 -32.705 0.841 -32.705 0.54 57.224
23760.417 0.541 57.195 0.841 -32.734 0.841 -32.734 0.541 57.195
23785.375 0.541 57.166 0.84 -32.763 0.84 -32.763 0.541 57.166
23810.333 0.542 57.136 0.84 -32.793 0.84 -32.793 0.542 57.136
23835.292 0.542 57.107 0.84 -32.822 0.84 -32.822 0.542 57.107
23860.25 0.542 57.078 0.839 -32.851 0.839 -32.851 0.542 57.078
23885.208 0.543 57.049 0.839 -32.88 0.839 -32.88 0.543 57.049
23910.167 0.543 57.02 0.839 -32.91 0.839 -32.91 0.543 57.02
23935.125 0.544 56.99 0.839 -32.939 0.839 -32.939 0.544 56.99
23960.083 0.544 56.961 0.838 -32.968 0.838 -32.968 0.544 56.961
23985.042 0.545 56.932 0.838 -32.997 0.838 -32.997 0.545 56.932
24010 0.545 56.903 0.838 -33.026 0.838 -33.026 0.545 56.903
24034.958 0.545 56.874 0.837 -33.055 0.837 -33.055 0.545 56.874
24059.917 0.546 56.845 0.837 -33.084 0.837 -33.084 0.546 56.845
24084.875 0.546 56.816 0.837 -33.114 0.837 -33.114 0.546 56.816
24109.833 0.547 56.787 0.837 -33.143 0.837 -33.143 0.547 56.787
24134.792 0.547 56.758 0.836 -33.172 0.836 -33.172 0.547 56.758
24159.75 0.548 56.729 0.836 -33.201 0.836 -33.201 0.548 56.729
24184.708 0.548 56.7 0.836 -33.23 0.836 -33.23 0.548 56.7
24209.667 0.548 56.672 0.836 -33.259 0.836 -33.259 0.548 56.672
24234.625 0.549 56.643 0.835 -33.288 0.835 -33.288 0.549 56.643
24259.583 0.549 56.614 0.835 -33.316 0.835 -33.316 0.549 56.614
24284.542 0.55 56.585 0.835 -33.345 0.835 -33.345 0.55 56.585
24309.5 0.55 56.556 0.834 -33.374 0.834 -33.374 0.55 56.556
24334.458 0.551 56.527 0.834 -33.403 0.834 -33.403 0.551 56.527
24359.417 0.551 56.499 0.834 -33.432 0.834 -33.432 0.551 56.499
24384.375 0.551 56.47 0.834 -33.461 0.834 -33.461 0.551 56.47
24409.333 0.552 56.441 0.833 -33.49 0.833 -33.49 0.552 56.441
24434.292 0.552 56.412 0.833 -33.518 0.833 -33.518 0.552 56.412
24459.25 0.553 56.384 0.833 -33.547 0.833 -33.547 0.553 56.384
24484.208 0.553 56.355 0.832 -33.576 0.832 -33.576 0.553 56.355
24509.167 0.553 56.326 0.832 -33.605 0.832 -33.605 0.553 56.326
24534.125 0.554 56.298 0.832 -33.633 0.832 -33.633 0.554 56.298
24559.083 0.554 56.269 0.832 -33.662 0.832 -33.662 0.554 56.269
24584.042 0.555 56.241 0.831 -33.691 0.831 -33.691 0.555 56.241
24609 0.555 56.212 0.831 -33.719 0.831 -33.719 0.555 56.212
24633.958 0.556 56.184 0.831 -33.748 0.831 -33.748 0.556 56.184
24658.917 0.556 56.155 0.831 -33.776 0.831 -33.776 0.556 56.155
24683.875 0.556 56.127 0.83 -33.805 0.83 -33.805 0.556 56.127
24708.833 0.557 56.098 0.83 -33.834 0.83 -33.834 0.557 56.098
24733.792 0.557 56.07 0.83 -33.862 0.83 -33.862 0.557 56.07
24758.75 0.558 56.041 0.829 -33.891 0.829 -33.891 0.558 56.041
24783.708 0.558 56.013 0.829 -33.919 0.829 -33.919 0.558 56.013
24808.667 0.558 55.984 0.829 -33.948 0.829 -33.948 0.558 55.984
24833.625 0.559 55.956 0.829 -33.976 0.829 -33.976 0.559 55.956
24858.583 0.559 55.928 0.828 -34.004 0.828 -34.004 0.559 55.928
24883.542 0.56 55.899 0.828 -34.033 0.828 -34.033 0.56 55.899
24908.5 0.56 55.871 0.828 -34.061 0.828 -34.061 0.56 55.871
24933.458 0.56 55.843 0.827 -34.09 0.827 -34.09 0.56 55.843
24958.417 0.561 55.814 0.827 -34.118 0.827 -34.118 0.561 55.814
24983.375 0.561 55.786 0.827 -34.146 0.827 -34.146 0.561 55.786
25008.333 0.562 55.758 0.827 -34.175 0.827 -34.175 0.562 55.758
25033.292 0.562 55.73 0.826 -34.203 0.826 -34.203 0.562 55.73
25058.25 0.563 55.702 0.826 -34.231 0.826 -34.231 0.563 55.702
25083.208 0.563 55.673 0.826 -34.259 0.826 -34.259 0.563 55.673
25108.167 0.563 55.645 0.826 -34.288 0.826 -34.288 0.563 55.645
25133.125 0.564 55.617 0.825 -34.316 0.825 -34.316 0.564 55.617
25158.083 0.564 55.589 0.825 -34.344 0.825 -34.344 0.564 55.589
25183.042 0.565 55.561 0.825 -34.372 0.825 -34.372 0.565 55.561
25208 0.565 55.533 0.824 -34.4 0.824 -34.4 0.565 55.533
25232.958 0.565 55.505 0.824 -34.428 0.824 -34.428 0.565 55.505
25257.917 0.566 55.477 0.824 -34.456 0.824 -34.456 0.566 55.477
25282.875 0.566 55.449 0.824 -34.484 0.824 -34.484 0.566 55.449
25307.833 0.567 55.421 0.823 -34.513 0.823 -34.513 0.567 55.421
25332.792 0.567 55.393 0.823 -34.541 0.823 -34.541 0.567 55.393
25357.75 0.567 55.365 0.823 -34.569 0.823 -34.569 0.567 55.365
25382.708 0.568 55.337 0.823 -34.597 0.823 -34.597 0.568 55.337
25407.667 0.568 55.309 0.822 -34.625 0.822 -34.625 0.568 55.309
25432.625 0.569 55.281 0.822 -34.652 0.822 -34.652 0.569 55.281
25457.583 0.569 55.253 0.822 -34.68 0.822 -34.68 0.569 55.253
25482.542 0.569 55.225 0.821 -34.708 0.821 -34.708 0.569 55.225
25507.5 0.57 55.198 0.821 -34.736 0.821 -34.736 0.57 55.198
25532.458 0.57 55.17 0.821 -34.764 0.821 -34.764 0.57 55.17
25557.417 0.571 55.142 0.821 -34.792 0.821 -34.792 0.571 55.142
25582.375 0.571 55.114 0.82 -34.82 0.82 -34.82 0.571 55.114
25607.333 0.571 55.087 0.82 -34.848 0.82 -34.848 0.571 55.087
25632.292 0.572 55.059 0.82 -34.875 0.82 -34.875 0.572 55.059
25657.25 0.572 55.031 0.819 -34.903 0.819 -34.903 0.572 55.031
25682.208 0.573 55.003 0.819 -34.931 0.819 -34.931 0.573 55.003
25707.167 0.573 54.976 0.819 -34.959 0.819 -34.959 0.573 54.976
25732.125 0.573 54.948 0.819 -34.986 0.819 -34.986 0.573 54.948
25757.083 0.574 54.921 0.818 -35.014 0.818 -35.014 0.574 54.921
25782.042 0.574 54.893 0.818 -35.042 0.818 -35.042 0.574 54.893
25807 0.575 54.865 0.818 -35.069 0.818 -35.069 0.575 54.865
25831.958 0.575 54.838 0.818 -35.097 0.818 -35.097 0.575 54.838
25856.917 0.575 54.81 0.817 -35.125 0.817 -35.125 0.575 54.81
25881.875 0.576 54.783 0.817 -35.152 0.817 -35.152 0.576 54.783
25906.833 0.576 54.755 0.817 -35.18 0.817 -35.18 0.576 54.755
25931.792 0.577 54.728 0.816 -35.207 0.816 -35.207 0.577 54.728
25956.75 0.577 54.7 0.816 -35.235 0.816 -35.235 0.577 54.7
25981.708 0.577 54.673 0.816 -35.262 0.816 -35.262 0.577 54.673
26006.667 0.578 54.645 0.816 -35.29 0.816 -35.29 0.578 54.645
26031.625 0.578 54.618 0.815 -35.317 0.815 -35.317 0.578 54.618
26056.583 0.578 54.591 0.815 -35.345 0.815 -35.345 0.578 54.591
26081.542 0.579 54.563 0.815 -35.372 0.815 -35.372 0.579 54.563
26106.5 0.579 54.536 0.814 -35.399 0.814 -35.399 0.579 54.536
26131.458 0.58 54.509 0.814 -35.427 0.814 -35.427 0.58 54.509
26156.417 0.58 54.481 0.814 -35.454 0.814 -35.454 0.58 54.481
26181.375 0.58 54.454 0.814 -35.482 0.814 -35.482 0.58 54.454
26206.333 0.581 54.427 0.813 -35.509 0.813 -35.509 0.581 54.427
26231.292 0.581 54.4 0.813 -35.536 0.813 -35.536 0.581 54.4
26256.25 0.582 54.372 0.813 -35.563 0.813 -35.563 0.582 54.372
26281.208 0.582 54.345 0.813 -35.591 0.813 -35.591 0.582 54.345
26306.167 0.582 54.318 0.812 -35.618 0.812 -35.618 0.582 54.318
26331.125 0.583 54.291 0.812 -35.645 0.812 -35.645 0.583 54.291
26356.083 0.583 54.264 0.812 -35.672 0.812 -35.672 0.583 54.264
26381.042 0.584 54.237 0.811 -35.7 0.811 -35.7 0.584 54.237
26406 0.584 54.21 0.811 -35.727 0.811 -35.727 0.584 54.21
26430.958 0.584 54.182 0.811 -35.754 0.811 -35.754 0.584 54.182
26455.917 0.585 54.155 0.811 -35.781 0.811 -35.781 0.585 54.155
26480.875 0.585 54.128 0.81 -35.808 0.81 -35.808 0.585 54.128
26505.833 0.585 54.101 0.81 -35.835 0.81 -35.835 0.585 54.101
26530.792 0.586 54.074 0.81 -35.862 0.81 -35.862 0.586 54.074
26555.75 0.586 54.047 0.81 -35.889 0.81 -35.889 0.586 54.047
26580.708 0.587 54.02 0.809 -35.916 0.809 -35.916 0.587 54.02
26605.667 0.587 53.993 0.809 -35.943 0.809 -35.943 0.587 53.993
26630.625 0.587 53.967 0.809 -35.97 0.809 -35.97 0.587 53.967
26655.583 0.588 53.94 0.808 -35.997 0.808 -35.997 0.588 53.94
26680.542 0.588 53.913 0.808 -36.024 0.808 -36.024 0.588 53.913
26705.5 0.589 53.886 0.808 -36.051 0.808 -36.051 0.589 53.886
26730.458 0.589 53.859 0.808 -36.078 0.808 -36.078 0.589 53.859
26755.417 0.589 53.832 0.807 -36.105 0.807 -36.105 0.589 53.832
26780.375 0.59 53.805 0.807 -36.132 0.807 -36.132 0.59 53.805
26805.333 0.59 53.779 0.807 -36.159 0.807 -36.159 0.59 53.779
26830.292 0.59 53.752 0.806 -36.185 0.806 -36.185 0.59 53.752
26855.25 0.591 53.725 0.806 -36.212 0.806 -36.212 0.591 53.725
26880.208 0.591 53.698 0.806 -36.239 0.806 -36.239 0.591 53.698
26905.167 0.592 53.672 0.806 -36.266 0.806 -36.266 0.592 53.672
26930.125 0.592 53.645 0.805 -36.293 0.805 -36.293 0.592 53.645
26955.083 0.592 53.618 0.805 -36.319 0.805 -36.319 0.592 53.618
26980.042 0.593 53.592 0.805 -36.346 0.805 -36.346 0.593 53.592
27005 0.593 53.565 0.805 -36.373 0.805 -36.373 0.593 53.565
27029.958 0.593 53.538 0.804 -36.399 0.804 -36.399 0.593 53.538
27054.917 0.594 53.512 0.804 -36.426 0.804 -36.426 0.594 53.512
27079.875 0.594 53.485 0.804 -36.453 0.804 -36.453 0.594 53.485
27104.833 0.595 53.459 0.803 -36.479 0.803 -36.479 0.595 53.459
27129.792 0.595 53.432 0.803 -36.506 0.803 -36.506 0.595 53.432
27154.75 0.595 53.406 0.803 -36.532 0.803 -36.532 0.595 53.406
27179.708 0.596 53.379 0.803 -36.559 0.803 -36.559 0.596 53.379
27204.667 0.596 53.353 0.802 -36.586 0.802 -36.586 0.596 53.353
27229.625 0.596 53.326 0.802 -36.612 0.802 -36.612 0.596 53.326
27254.583 0.597 53.3 0.802 -36.639 0.802 -36.639 0.597 53.3
27279.542 0.597 53.273 0.801 -36.665 0.801 -36.665 0.597 53.273
27304.5 0.598 53.247 0.801 -36.691 0.801 -36.691 0.598 53.247
27329.458 0.598 53.221 0.801 -36.718 0.801 -36.718 0.598 53.221
27354.417 0.598 53.194 0.801 -36.744 0.801 -36.744 0.598 53.194
27379.375 0.599 53.168 0.8 -36.771 0.8 -36.771 0.599 53.168
27404.333 0.599 53.142 0.8 -36.797 0.8 -36.797 0.599 53.142
27429.292 0.599 53.115 0.8 -36.823 0.8 -36.823 0.599 53.115
27454.25 0.6 53.089 0.8 -36.85 0.8 -36.85 0.6 53.089
27479.208 0.6 53.063 0.799 -36.876 0.799 -36.876 0.6 53.063
27504.167 0.6 53.037 0.799 -36.902 0.799 -36.902 0.6 53.037
27529.125 0.601 53.01 0.799 -36.929 0.799 -36.929 0.601 53.01
27554.083 0.601 52.984 0.798 -36.955 0.798 -36.955 0.601 52.984
27579.042 0.602 52.958 0.798 -36.981 0.798 -36.981 0.602 52.958
27604 0.602 52.932 0.798 -37.007 0.798 -37.007 0.602 52.932
27628.958 0.602 52.906 0.798 -37.034 0.798 -37.034 0.602 52.906
27653.917 0.603 52.879 0.797 -37.06 0.797 -37.06 0.603 52.879
27678.875 0.603 52.853 0.797 -37.086 0.797 -37.086 0.603 52.853
27703.833 0.603 52.827 0.797 -37.112 0.797 -37.112 0.603 52.827
27728.792 0.604 52.801 0.797 -37.138 0.797 -37.138 0.604 52.801
27753.75 0.604 52.775 0.796 -37.164 0.796 -37.164 0.604 52.775
27778.708 0.604 52.749 0.796 -37.19 0.796 -37.19 0.604 52.749
27803.667 0.605 52.723 0.796 -37.217 0.796 -37.217 0.605 52.723
27828.625 0.605 52.697 0.795 -37.243 0.795 -37.243 0.605 52.697
27853.583 0.606 52.671 0.795 -37.269 0.795 -37.269 0.606 52.671
27878.542 0.606 52.645 0.795 -37.295 0.795 -37.295 0.606 52.645
27903.5 0.606 52.619 0.795 -37.321 0.795 -37.321 0.606 52.619
27928.458 0.607 52.593 0.794 -37.347 0.794 -37.347 0.607 52.593
27953.417 0.607 52.567 0.794 -37.373 0.794 -37.373 0.607 52.567
27978.375 0.607 52.542 0.794 -37.398 0.794 -37.398 0.607 52.542
28003.333 0.608 52.516 0.794 -37.424 0.794 -37.424 0.608 52.516
28028.292 0.608 52.49 0.793 -37.45 0.793 -37.45 0.608 52.49
28053.25 0.608 52.464 0.793 -37.476 0.793 -37.476 0.608 52.464
28078.208 0.609 52.438 0.793 -37.502 0.793 -37.502 0.609 52.438
28103.167 0.609 52.412 0.792 -37.528 0.792 -37.528 0.609 52.412
28128.125 0.61 52.387 0.792 -37.554 0.792 -37.554 0.61 52.387
28153.083 0.61 52.361 0.792 -37.579 0.792 -37.579 0.61 52.361
28178.042 0.61 52.335 0.792 -37.605 0.792 -37.605 0.61 52.335
28203 0.611 52.31 0.791 -37.631 0.791 -37.631 0.611 52.31
28227.958 0.611 52.284 0.791 -37.657 0.791 -37.657 0.611 52.284
28252.917 0.611 52.258 0.791 -37.682 0.791 -37.682 0.611 52.258
28277.875 0.612 52.232 0.791 -37.708 0.791 -37.708 0.612 52.232
28302.833 0.612 52.207 0.79 -37.734 0.79 -37.734 0.612 52.207
28327.792 0.612 52.181 0.79 -37.76 0.79 -37.76 0.612 52.181
28352.75 0.613 52.156 0.79 -37.785 0.79 -37.785 0.613 52.156
28377.708 0.613 52.13 0.789 -37.811 0.789 -37.811 0.613 52.13
28402.667 0.613 52.105 0.789 -37.836 0.789 -37.836 0.613 52.105
28427.625 0.614 52.079 0.789 -37.862 0.789 -37.862 0.614 52.079
28452.583 0.614 52.053 0.789 -37.888 0.789 -37.888 0.614 52.053
28477.542 0.614 52.028 0.788 -37.913 0.788 -37.913 0.614 52.028
28502.5 0.615 52.002 0.788 -37.939 0.788 -37.939 0.615 52.002
28527.458 0.615 51.977 0.788 -37.964 0.788 -37.964 0.615 51.977
28552.417 0.616 51.952 0.787 -37.99 0.787 -37.99 0.616 51.952
28577.375 0.616 51.926 0.787 -38.015 0.787 -38.015 0.616 51.926
28602.333 0.616 51.901 0.787 -38.041 0.787 -38.041 0.616 51.901
28627.292 0.617 51.875 0.787 -38.066 0.787 -38.066 0.617 51.875
28652.25 0.617 51.85 0.786 -38.092 0.786 -38.092 0.617 51.85
28677.208 0.617 51.825 0.786 -38.117 0.786 -38.117 0.617 51.825
28702.167 0.618 51.799 0.786 -38.142 0.786 -38.142 0.618 51.799
28727.125 0.618 51.774 0.786 -38.168 0.786 -38.168 0.618 51.774
28752.083 0.618 51.749 0.785 -38.193 0.785 -38.193 0.618 51.749
28777.042 0.619 51.723 0.785 -38.218 0.785 -38.218 0.619 51.723
28802 0.619 51.698 0.785 -38.244 0.785 -38.244 0.619 51.698
28826.958 0.619 51.673 0.784 -38.269 0.784 -38.269 0.619 51.673
28851.917 0.62 51.648 0.784 -38.294 0.784 -38.294 0.62 51.648
28876.875 0.62 51.622 0.784 -38.32 0.784 -38.32 0.62 51.622
28901.833 0.62 51.597 0.784 -38.345 0.784 -38.345 0.62 51.597
28926.792 0.621 51.572 0.783 -38.37 0.783 -38.37 0.621 51.572
28951.75 0.621 51.547 0.783 -38.395 0.783 -38.395 0.621 51.547
28976.708 0.621 51.522 0.783 -38.42 0.783 -38.42 0.621 51.522
29001.667 0.622 51.497 0.783 -38.446 0.783 -38.446 0.622 51.497
29026.625 0.622 51.472 0.782 -38.471 0.782 -38.471 0.622 51.472
29051.583 0.622 51.447 0.782 -38.496 0.782 -38.496 0.622 51.447
29076.542 0.623 51.421 0.782 -38.521 0.782 -38.521 0.623 51.421
29101.5 0.623 51.396 0.781 -38.546 0.781 -38.546 0.623 51.396
29126.458 0.623 51.371 0.781 -38.571 0.781 -38.571 0.623 51.371
29151.417 0.624 51.346 0.781 -38.596 0.781 -38.596 0.624 51.346
29176.375 0.624 51.321 0.781 -38.621 0.781 -38.621 0.624 51.321
29201.333 0.625 51.296 0.78 -38.646 0.78 -38.646 0.625 51.296
29226.292 0.625 51.272 0.78 -38.671 0.78 -38.671 0.625 51.272
29251.25 0.625 51.247 0.78 -38.696 0.78 -38.696 0.625 51.247
29276.208 0.626 51.222 0.78 -38.721 0.78 -38.721 0.626 51.222
29301.167 0.626 51.197 0.779 -38.746 0.779 -38.746 0.626 51.197
29326.125 0.626 51.172 0.779 -38.771 0.779 -38.771 0.626 51.172
29351.083 0.627 51.147 0.779 -38.796 0.779 -38.796 0.627 51.147
29376.042 0.627 51.122 0.778 -38.821 0.778 -38.821 0.627 51.122
29401 0.627 51.097 0.778 -38.846 0.778 -38.846 0.627 51.097
29425.958 0.628 51.073 0.778 -38.871 0.778 -38.871 0.628 51.073
29450.917 0.628 51.048 0.778 -38.895 0.778 -38.895 0.628 51.048
29475.875 0.628 51.023 0.777 -38.92 0.777 -38.92 0.628 51.023
29500.833 0.629 50.998 0.777 -38.945 0.777 -38.945 0.629 50.998
29525.792 0.629 50.974 0.777 -38.97 0.777 -38.97 0.629 50.974
29550.75 0.629 50.949 0.777 -38.995 0.777 -38.995 0.629 50.949
29575.708 0.63 50.924 0.776 -39.019 0.776 -39.019 0.63 50.924
29600.667 0.63 50.9 0.776 -39.044 0.776 -39.044 0.63 50.9
29625.625 0.63 50.875 0.776 -39.069 0.776 -39.069 0.63 50.875
29650.583 0.631 50.85 0.775 -39.093 0.775 -39.093 0.631 50.85
29675.542 0.631 50.826 0.775 -39.118 0.775 -39.118 0.631 50.826
29700.5 0.631 50.801 0.775 -39.143 0.775 -39.143 0.631 50.801
29725.458 0.632 50.776 0.775 -39.167 0.775 -39.167 0.632 50.776
29750.417 0.632 50.752 0.774 -39.192 0.774 -39.192 0.632 50.752
29775.375 0.632 50.727 0.774 -39.217 0.774 -39.217 0.632 50.727
29800.333 0.633 50.703 0.774 -39.241 0.774 -39.241 0.633 50.703
29825.292 0.633 50.678 0.774 -39.266 0.774 -39.266 0.633 50.678
29850.25 0.633 50.654 0.773 -39.29 0.773 -39.29 0.633 50.654
29875.208 0.634 50.629 0.773 -39.315 0.773 -39.315 0.634 50.629
29900.167 0.634 50.605 0.773 -39.339 0.773 -39.339 0.634 50.605
29925.125 0.634 50.58 0.773 -39.364 0.773 -39.364 0.634 50.58
29950.083 0.635 50.556 0.772 -39.388 0.772 -39.388 0.635 50.556
29975.042 0.635 50.532 0.772 -39.413 0.772 -39.413 0.635 50.532
30000 0.635 50.507 0.772 -39.437 0.772 -39.437 0.635 50.507
