!	AVX Thin Film Operation 	Date: April 2014		
!	Description: Accu-P® Series, Thin Film  SMD RF Capacitor
!	Part Number: 04021J1R0PBSTR					
!
# MHZ S MA R 50

50 1 -1.799 0.031 88.196 0.031 88.196 1 -1.799
74.958 0.999 -2.697 0.047 87.297 0.047 87.297 0.999 -2.697
99.917 0.998 -3.593 0.063 86.399 0.063 86.399 0.998 -3.593
124.875 0.997 -4.487 0.078 85.502 0.078 85.502 0.997 -4.487
149.833 0.996 -5.38 0.094 84.608 0.094 84.608 0.996 -5.38
174.792 0.994 -6.27 0.109 83.715 0.109 83.715 0.994 -6.27
199.75 0.992 -7.158 0.125 82.826 0.125 82.826 0.992 -7.158
224.708 0.99 -8.042 0.14 81.939 0.14 81.939 0.99 -8.042
249.667 0.988 -8.923 0.155 81.056 0.155 81.056 0.988 -8.923
274.625 0.985 -9.801 0.17 80.177 0.17 80.177 0.985 -9.801
299.583 0.983 -10.674 0.185 79.301 0.185 79.301 0.983 -10.674
324.542 0.98 -11.543 0.2 78.43 0.2 78.43 0.98 -11.543
349.5 0.977 -12.407 0.215 77.564 0.215 77.564 0.977 -12.407
374.458 0.973 -13.266 0.229 76.703 0.229 76.703 0.973 -13.266
399.417 0.97 -14.12 0.244 75.847 0.244 75.847 0.97 -14.12
424.375 0.966 -14.968 0.258 74.997 0.258 74.997 0.966 -14.968
449.333 0.962 -15.81 0.272 74.153 0.272 74.153 0.962 -15.81
474.292 0.958 -16.646 0.286 73.314 0.286 73.314 0.958 -16.646
499.25 0.954 -17.476 0.3 72.483 0.3 72.483 0.954 -17.476
524.208 0.949 -18.299 0.314 71.657 0.314 71.657 0.949 -18.299
549.167 0.945 -19.116 0.327 70.839 0.327 70.839 0.945 -19.116
574.125 0.94 -19.925 0.341 70.027 0.341 70.027 0.94 -19.925
599.083 0.935 -20.727 0.354 69.223 0.354 69.223 0.935 -20.727
624.042 0.93 -21.522 0.367 68.426 0.367 68.426 0.93 -21.522
649 0.925 -22.309 0.38 67.637 0.38 67.637 0.925 -22.309
673.958 0.92 -23.089 0.392 66.855 0.392 66.855 0.92 -23.089
698.917 0.914 -23.861 0.405 66.081 0.405 66.081 0.914 -23.861
723.875 0.909 -24.625 0.417 65.315 0.417 65.315 0.909 -24.625
748.833 0.903 -25.381 0.429 64.557 0.429 64.557 0.903 -25.381
773.792 0.897 -26.128 0.44 63.807 0.44 63.807 0.897 -26.128
798.75 0.892 -26.868 0.452 63.066 0.452 63.066 0.892 -26.868
823.708 0.886 -27.599 0.463 62.332 0.463 62.332 0.886 -27.599
848.667 0.88 -28.322 0.474 61.607 0.474 61.607 0.88 -28.322
873.625 0.874 -29.037 0.485 60.89 0.485 60.89 0.874 -29.037
898.583 0.868 -29.743 0.496 60.182 0.496 60.182 0.868 -29.743
923.542 0.861 -30.441 0.507 59.482 0.507 59.482 0.861 -30.441
948.5 0.855 -31.13 0.517 58.791 0.517 58.791 0.855 -31.13
973.458 0.849 -31.811 0.527 58.108 0.527 58.108 0.849 -31.811
998.417 0.843 -32.483 0.537 57.433 0.537 57.433 0.843 -32.483
1023.375 0.836 -33.147 0.547 56.767 0.547 56.767 0.836 -33.147
1048.333 0.83 -33.803 0.556 56.11 0.556 56.11 0.83 -33.803
1073.292 0.824 -34.45 0.566 55.46 0.566 55.46 0.824 -34.45
1098.25 0.817 -35.089 0.575 54.819 0.575 54.819 0.817 -35.089
1123.208 0.811 -35.719 0.584 54.187 0.584 54.187 0.811 -35.719
1148.167 0.805 -36.341 0.593 53.562 0.593 53.562 0.805 -36.341
1173.125 0.798 -36.955 0.601 52.946 0.601 52.946 0.798 -36.955
1198.083 0.792 -37.561 0.61 52.338 0.61 52.338 0.792 -37.561
1223.042 0.785 -38.158 0.618 51.739 0.618 51.739 0.785 -38.158
1248 0.779 -38.748 0.626 51.147 0.626 51.147 0.779 -38.748
1272.958 0.772 -39.329 0.634 50.563 0.634 50.563 0.772 -39.329
1297.917 0.766 -39.903 0.641 49.987 0.641 49.987 0.766 -39.903
1322.875 0.759 -40.469 0.649 49.419 0.649 49.419 0.759 -40.469
1347.833 0.753 -41.027 0.656 48.859 0.656 48.859 0.753 -41.027
1372.792 0.747 -41.577 0.664 48.307 0.664 48.307 0.747 -41.577
1397.75 0.74 -42.12 0.671 47.762 0.671 47.762 0.74 -42.12
1422.708 0.734 -42.655 0.678 47.224 0.678 47.224 0.734 -42.655
1447.667 0.728 -43.183 0.684 46.694 0.684 46.694 0.728 -43.183
1472.625 0.721 -43.704 0.691 46.171 0.691 46.171 0.721 -43.704
1497.583 0.715 -44.217 0.697 45.656 0.697 45.656 0.715 -44.217
1522.542 0.709 -44.723 0.704 45.147 0.704 45.147 0.709 -44.723
1547.5 0.703 -45.222 0.71 44.646 0.71 44.646 0.703 -45.222
1572.458 0.697 -45.714 0.716 44.151 0.716 44.151 0.697 -45.714
1597.417 0.69 -46.2 0.722 43.664 0.722 43.664 0.69 -46.2
1622.375 0.684 -46.678 0.728 43.183 0.728 43.183 0.684 -46.678
1647.333 0.678 -47.15 0.733 42.708 0.733 42.708 0.678 -47.15
1672.292 0.672 -47.616 0.739 42.241 0.739 42.241 0.672 -47.616
1697.25 0.666 -48.075 0.744 41.779 0.744 41.779 0.666 -48.075
1722.208 0.66 -48.527 0.749 41.324 0.749 41.324 0.66 -48.527
1747.167 0.654 -48.974 0.754 40.876 0.754 40.876 0.654 -48.974
1772.125 0.649 -49.414 0.759 40.433 0.759 40.433 0.649 -49.414
1797.083 0.643 -49.848 0.764 39.997 0.764 39.997 0.643 -49.848
1822.042 0.637 -50.276 0.769 39.566 0.769 39.566 0.637 -50.276
1847 0.631 -50.698 0.774 39.142 0.774 39.142 0.631 -50.698
1871.958 0.626 -51.115 0.778 38.723 0.778 38.723 0.626 -51.115
1896.917 0.62 -51.526 0.783 38.309 0.783 38.309 0.62 -51.526
1921.875 0.614 -51.931 0.787 37.902 0.787 37.902 0.614 -51.931
1946.833 0.609 -52.33 0.792 37.5 0.792 37.5 0.609 -52.33
1971.792 0.603 -52.725 0.796 37.103 0.796 37.103 0.603 -52.725
1996.75 0.598 -53.114 0.8 36.711 0.8 36.711 0.598 -53.114
2021.708 0.592 -53.497 0.804 36.325 0.804 36.325 0.592 -53.497
2046.667 0.587 -53.876 0.808 35.944 0.808 35.944 0.587 -53.876
2071.625 0.582 -54.25 0.812 35.568 0.812 35.568 0.582 -54.25
2096.583 0.576 -54.618 0.815 35.197 0.815 35.197 0.576 -54.618
2121.542 0.571 -54.982 0.819 34.831 0.819 34.831 0.571 -54.982
2146.5 0.566 -55.341 0.823 34.469 0.823 34.469 0.566 -55.341
2171.458 0.561 -55.695 0.826 34.112 0.826 34.112 0.561 -55.695
2196.417 0.556 -56.045 0.829 33.76 0.829 33.76 0.556 -56.045
2221.375 0.551 -56.39 0.833 33.413 0.833 33.413 0.551 -56.39
2246.333 0.546 -56.73 0.836 33.069 0.836 33.069 0.546 -56.73
2271.292 0.541 -57.066 0.839 32.731 0.839 32.731 0.541 -57.066
2296.25 0.536 -57.398 0.842 32.396 0.842 32.396 0.536 -57.398
2321.208 0.531 -57.726 0.846 32.066 0.846 32.066 0.531 -57.726
2346.167 0.526 -58.049 0.849 31.74 0.849 31.74 0.526 -58.049
2371.125 0.521 -58.369 0.851 31.418 0.851 31.418 0.521 -58.369
2396.083 0.517 -58.684 0.854 31.1 0.854 31.1 0.517 -58.684
2421.042 0.512 -58.995 0.857 30.786 0.857 30.786 0.512 -58.995
2446 0.507 -59.303 0.86 30.476 0.86 30.476 0.507 -59.303
2470.958 0.503 -59.606 0.863 30.169 0.863 30.169 0.503 -59.606
2495.917 0.498 -59.906 0.865 29.867 0.865 29.867 0.498 -59.906
2520.875 0.493 -60.203 0.868 29.568 0.868 29.568 0.493 -60.203
2545.833 0.489 -60.495 0.87 29.272 0.87 29.272 0.489 -60.495
2570.792 0.485 -60.784 0.873 28.98 0.873 28.98 0.485 -60.784
2595.75 0.48 -61.07 0.875 28.692 0.875 28.692 0.48 -61.07
2620.708 0.476 -61.352 0.878 28.407 0.878 28.407 0.476 -61.352
2645.667 0.471 -61.631 0.88 28.125 0.88 28.125 0.471 -61.631
2670.625 0.467 -61.906 0.882 27.847 0.882 27.847 0.467 -61.906
2695.583 0.463 -62.178 0.884 27.572 0.884 27.572 0.463 -62.178
2720.542 0.459 -62.447 0.887 27.3 0.887 27.3 0.459 -62.447
2745.5 0.454 -62.713 0.889 27.032 0.889 27.032 0.454 -62.713
2770.458 0.45 -62.976 0.891 26.766 0.891 26.766 0.45 -62.976
2795.417 0.446 -63.235 0.893 26.503 0.893 26.503 0.446 -63.235
2820.375 0.442 -63.492 0.895 26.244 0.895 26.244 0.442 -63.492
2845.333 0.438 -63.746 0.897 25.987 0.897 25.987 0.438 -63.746
2870.292 0.434 -63.997 0.899 25.733 0.899 25.733 0.434 -63.997
2895.25 0.43 -64.245 0.901 25.482 0.901 25.482 0.43 -64.245
2920.208 0.426 -64.49 0.903 25.233 0.903 25.233 0.426 -64.49
2945.167 0.422 -64.732 0.904 24.988 0.904 24.988 0.422 -64.732
2970.125 0.419 -64.972 0.906 24.745 0.906 24.745 0.419 -64.972
2995.083 0.415 -65.209 0.908 24.505 0.908 24.505 0.415 -65.209
3020.042 0.411 -65.444 0.91 24.267 0.91 24.267 0.411 -65.444
3045 0.407 -65.676 0.911 24.032 0.911 24.032 0.407 -65.676
3069.958 0.404 -65.905 0.913 23.799 0.913 23.799 0.404 -65.905
3094.917 0.4 -66.132 0.914 23.569 0.914 23.569 0.4 -66.132
3119.875 0.396 -66.357 0.916 23.341 0.916 23.341 0.396 -66.357
3144.833 0.393 -66.579 0.918 23.116 0.918 23.116 0.393 -66.579
3169.792 0.389 -66.799 0.919 22.893 0.919 22.893 0.389 -66.799
3194.75 0.385 -67.016 0.921 22.672 0.921 22.672 0.385 -67.016
3219.708 0.382 -67.231 0.922 22.453 0.922 22.453 0.382 -67.231
3244.667 0.378 -67.444 0.924 22.237 0.924 22.237 0.378 -67.444
3269.625 0.375 -67.655 0.925 22.023 0.925 22.023 0.375 -67.655
3294.583 0.372 -67.863 0.926 21.811 0.926 21.811 0.372 -67.863
3319.542 0.368 -68.07 0.928 21.601 0.928 21.601 0.368 -68.07
3344.5 0.365 -68.274 0.929 21.393 0.929 21.393 0.365 -68.274
3369.458 0.361 -68.476 0.93 21.188 0.93 21.188 0.361 -68.476
3394.417 0.358 -68.676 0.932 20.984 0.932 20.984 0.358 -68.676
3419.375 0.355 -68.874 0.933 20.782 0.933 20.782 0.355 -68.874
3444.333 0.352 -69.071 0.934 20.582 0.934 20.582 0.352 -69.071
3469.292 0.348 -69.265 0.935 20.384 0.935 20.384 0.348 -69.265
3494.25 0.345 -69.457 0.936 20.188 0.936 20.188 0.345 -69.457
3519.208 0.342 -69.648 0.938 19.994 0.938 19.994 0.342 -69.648
3544.167 0.339 -69.836 0.939 19.802 0.939 19.802 0.339 -69.836
3569.125 0.336 -70.023 0.94 19.611 0.94 19.611 0.336 -70.023
3594.083 0.333 -70.208 0.941 19.422 0.941 19.422 0.333 -70.208
3619.042 0.329 -70.391 0.942 19.235 0.942 19.235 0.329 -70.391
3644 0.326 -70.572 0.943 19.05 0.943 19.05 0.326 -70.572
3668.958 0.323 -70.752 0.944 18.866 0.944 18.866 0.323 -70.752
3693.917 0.32 -70.93 0.945 18.684 0.945 18.684 0.32 -70.93
3718.875 0.317 -71.107 0.946 18.504 0.946 18.504 0.317 -71.107
3743.833 0.314 -71.281 0.947 18.325 0.947 18.325 0.314 -71.281
3768.792 0.311 -71.454 0.948 18.148 0.948 18.148 0.311 -71.454
3793.75 0.309 -71.626 0.949 17.972 0.949 17.972 0.309 -71.626
3818.708 0.306 -71.796 0.95 17.798 0.95 17.798 0.306 -71.796
3843.667 0.303 -71.964 0.951 17.626 0.951 17.626 0.303 -71.964
3868.625 0.3 -72.131 0.952 17.454 0.952 17.454 0.3 -72.131
3893.583 0.297 -72.296 0.953 17.285 0.953 17.285 0.297 -72.296
3918.542 0.294 -72.46 0.954 17.117 0.954 17.117 0.294 -72.46
3943.5 0.292 -72.622 0.954 16.95 0.954 16.95 0.292 -72.622
3968.458 0.289 -72.783 0.955 16.784 0.955 16.784 0.289 -72.783
3993.417 0.286 -72.943 0.956 16.62 0.956 16.62 0.286 -72.943
4018.375 0.283 -73.101 0.957 16.458 0.957 16.458 0.283 -73.101
4043.333 0.281 -73.258 0.958 16.296 0.958 16.296 0.281 -73.258
4068.292 0.278 -73.413 0.958 16.136 0.958 16.136 0.278 -73.413
4093.25 0.275 -73.567 0.959 15.978 0.959 15.978 0.275 -73.567
4118.208 0.273 -73.72 0.96 15.82 0.96 15.82 0.273 -73.72
4143.167 0.27 -73.871 0.961 15.664 0.961 15.664 0.27 -73.871
4168.125 0.267 -74.021 0.961 15.509 0.961 15.509 0.267 -74.021
4193.083 0.265 -74.17 0.962 15.355 0.962 15.355 0.265 -74.17
4218.042 0.262 -74.317 0.963 15.203 0.963 15.203 0.262 -74.317
4243 0.26 -74.464 0.963 15.052 0.963 15.052 0.26 -74.464
4267.958 0.257 -74.609 0.964 14.901 0.964 14.901 0.257 -74.609
4292.917 0.255 -74.752 0.965 14.752 0.965 14.752 0.255 -74.752
4317.875 0.252 -74.895 0.965 14.605 0.965 14.605 0.252 -74.895
4342.833 0.25 -75.037 0.966 14.458 0.966 14.458 0.25 -75.037
4367.792 0.247 -75.177 0.967 14.312 0.967 14.312 0.247 -75.177
4392.75 0.245 -75.316 0.967 14.168 0.967 14.168 0.245 -75.316
4417.708 0.242 -75.454 0.968 14.024 0.968 14.024 0.242 -75.454
4442.667 0.24 -75.591 0.969 13.882 0.969 13.882 0.24 -75.591
4467.625 0.238 -75.726 0.969 13.74 0.969 13.74 0.238 -75.726
4492.583 0.235 -75.861 0.97 13.6 0.97 13.6 0.235 -75.861
4517.542 0.233 -75.995 0.97 13.461 0.97 13.461 0.233 -75.995
4542.5 0.23 -76.127 0.971 13.323 0.971 13.323 0.23 -76.127
4567.458 0.228 -76.258 0.971 13.185 0.971 13.185 0.228 -76.258
4592.417 0.226 -76.389 0.972 13.049 0.972 13.049 0.226 -76.389
4617.375 0.223 -76.518 0.972 12.913 0.972 12.913 0.223 -76.518
4642.333 0.221 -76.646 0.973 12.779 0.973 12.779 0.221 -76.646
4667.292 0.219 -76.773 0.974 12.645 0.974 12.645 0.219 -76.773
4692.25 0.217 -76.9 0.974 12.513 0.974 12.513 0.217 -76.9
4717.208 0.214 -77.025 0.975 12.381 0.975 12.381 0.214 -77.025
4742.167 0.212 -77.149 0.975 12.25 0.975 12.25 0.212 -77.149
4767.125 0.21 -77.272 0.975 12.121 0.975 12.121 0.21 -77.272
4792.083 0.208 -77.395 0.976 11.992 0.976 11.992 0.208 -77.395
4817.042 0.206 -77.516 0.976 11.863 0.976 11.863 0.206 -77.516
4842 0.203 -77.636 0.977 11.736 0.977 11.736 0.203 -77.636
4866.958 0.201 -77.756 0.977 11.61 0.977 11.61 0.201 -77.756
4891.917 0.199 -77.874 0.978 11.484 0.978 11.484 0.199 -77.874
4916.875 0.197 -77.992 0.978 11.359 0.978 11.359 0.197 -77.992
4941.833 0.195 -78.109 0.979 11.235 0.979 11.235 0.195 -78.109
4966.792 0.193 -78.224 0.979 11.112 0.979 11.112 0.193 -78.224
4991.75 0.191 -78.339 0.979 10.99 0.979 10.99 0.191 -78.339
5016.708 0.189 -78.453 0.98 10.868 0.98 10.868 0.189 -78.453
5041.667 0.186 -78.566 0.98 10.747 0.98 10.747 0.186 -78.566
5066.625 0.184 -78.678 0.981 10.627 0.981 10.627 0.184 -78.678
5091.583 0.182 -78.79 0.981 10.508 0.981 10.508 0.182 -78.79
5116.542 0.18 -78.9 0.981 10.389 0.981 10.389 0.18 -78.9
5141.5 0.178 -79.01 0.982 10.271 0.982 10.271 0.178 -79.01
5166.458 0.176 -79.118 0.982 10.154 0.982 10.154 0.176 -79.118
5191.417 0.174 -79.226 0.982 10.037 0.982 10.037 0.174 -79.226
5216.375 0.172 -79.333 0.983 9.922 0.983 9.922 0.172 -79.333
5241.333 0.17 -79.439 0.983 9.807 0.983 9.807 0.17 -79.439
5266.292 0.168 -79.545 0.983 9.692 0.983 9.692 0.168 -79.545
5291.25 0.166 -79.649 0.984 9.578 0.984 9.578 0.166 -79.649
5316.208 0.164 -79.753 0.984 9.465 0.984 9.465 0.164 -79.753
5341.167 0.163 -79.856 0.984 9.353 0.984 9.353 0.163 -79.856
5366.125 0.161 -79.958 0.985 9.241 0.985 9.241 0.161 -79.958
5391.083 0.159 -80.059 0.985 9.13 0.985 9.13 0.159 -80.059
5416.042 0.157 -80.159 0.985 9.02 0.985 9.02 0.157 -80.159
5441 0.155 -80.259 0.986 8.91 0.986 8.91 0.155 -80.259
5465.958 0.153 -80.357 0.986 8.801 0.986 8.801 0.153 -80.357
5490.917 0.151 -80.455 0.986 8.692 0.986 8.692 0.151 -80.455
5515.875 0.149 -80.552 0.987 8.584 0.987 8.584 0.149 -80.552
5540.833 0.147 -80.649 0.987 8.477 0.987 8.477 0.147 -80.649
5565.792 0.146 -80.744 0.987 8.37 0.987 8.37 0.146 -80.744
5590.75 0.144 -80.839 0.987 8.264 0.987 8.264 0.144 -80.839
5615.708 0.142 -80.933 0.988 8.158 0.988 8.158 0.142 -80.933
5640.667 0.14 -81.026 0.988 8.053 0.988 8.053 0.14 -81.026
5665.625 0.138 -81.118 0.988 7.949 0.988 7.949 0.138 -81.118
5690.583 0.137 -81.209 0.988 7.845 0.988 7.845 0.137 -81.209
5715.542 0.135 -81.3 0.989 7.741 0.989 7.741 0.135 -81.3
5740.5 0.133 -81.39 0.989 7.638 0.989 7.638 0.133 -81.39
5765.458 0.131 -81.479 0.989 7.536 0.989 7.536 0.131 -81.479
5790.417 0.129 -81.567 0.989 7.434 0.989 7.434 0.129 -81.567
5815.375 0.128 -81.654 0.99 7.333 0.99 7.333 0.128 -81.654
5840.333 0.126 -81.74 0.99 7.232 0.99 7.232 0.126 -81.74
5865.292 0.124 -81.826 0.99 7.132 0.99 7.132 0.124 -81.826
5890.25 0.122 -81.911 0.99 7.033 0.99 7.033 0.122 -81.911
5915.208 0.121 -81.995 0.99 6.933 0.99 6.933 0.121 -81.995
5940.167 0.119 -82.078 0.991 6.835 0.991 6.835 0.119 -82.078
5965.125 0.117 -82.16 0.991 6.737 0.991 6.737 0.117 -82.16
5990.083 0.116 -82.241 0.991 6.639 0.991 6.639 0.116 -82.241
6015.042 0.114 -82.322 0.991 6.542 0.991 6.542 0.114 -82.322
6040 0.112 -82.401 0.991 6.445 0.991 6.445 0.112 -82.401
6064.958 0.111 -82.48 0.992 6.349 0.992 6.349 0.111 -82.48
6089.917 0.109 -82.558 0.992 6.253 0.992 6.253 0.109 -82.558
6114.875 0.107 -82.634 0.992 6.157 0.992 6.157 0.107 -82.634
6139.833 0.106 -82.71 0.992 6.062 0.992 6.062 0.106 -82.71
6164.792 0.104 -82.785 0.992 5.968 0.992 5.968 0.104 -82.785
6189.75 0.102 -82.859 0.992 5.874 0.992 5.874 0.102 -82.859
6214.708 0.101 -82.932 0.993 5.78 0.993 5.78 0.101 -82.932
6239.667 0.099 -83.004 0.993 5.687 0.993 5.687 0.099 -83.004
6264.625 0.098 -83.075 0.993 5.595 0.993 5.595 0.098 -83.075
6289.583 0.096 -83.145 0.993 5.502 0.993 5.502 0.096 -83.145
6314.542 0.094 -83.213 0.993 5.411 0.993 5.411 0.094 -83.213
6339.5 0.093 -83.281 0.993 5.319 0.993 5.319 0.093 -83.281
6364.458 0.091 -83.347 0.994 5.228 0.994 5.228 0.091 -83.347
6389.417 0.09 -83.413 0.994 5.138 0.994 5.138 0.09 -83.413
6414.375 0.088 -83.477 0.994 5.047 0.994 5.047 0.088 -83.477
6439.333 0.086 -83.54 0.994 4.958 0.994 4.958 0.086 -83.54
6464.292 0.085 -83.602 0.994 4.868 0.994 4.868 0.085 -83.602
6489.25 0.083 -83.662 0.994 4.779 0.994 4.779 0.083 -83.662
6514.208 0.082 -83.721 0.994 4.691 0.994 4.691 0.082 -83.721
6539.167 0.08 -83.779 0.995 4.602 0.995 4.602 0.08 -83.779
6564.125 0.079 -83.835 0.995 4.515 0.995 4.515 0.079 -83.835
6589.083 0.077 -83.89 0.995 4.427 0.995 4.427 0.077 -83.89
6614.042 0.076 -83.943 0.995 4.34 0.995 4.34 0.076 -83.943
6639 0.074 -83.994 0.995 4.253 0.995 4.253 0.074 -83.994
6663.958 0.073 -84.044 0.995 4.167 0.995 4.167 0.073 -84.044
6688.917 0.071 -84.093 0.995 4.081 0.995 4.081 0.071 -84.093
6713.875 0.07 -84.139 0.995 3.995 0.995 3.995 0.07 -84.139
6738.833 0.068 -84.183 0.995 3.91 0.995 3.91 0.068 -84.183
6763.792 0.067 -84.226 0.996 3.825 0.996 3.825 0.067 -84.226
6788.75 0.065 -84.266 0.996 3.74 0.996 3.74 0.065 -84.266
6813.708 0.064 -84.305 0.996 3.656 0.996 3.656 0.064 -84.305
6838.667 0.062 -84.34 0.996 3.572 0.996 3.572 0.062 -84.34
6863.625 0.061 -84.374 0.996 3.489 0.996 3.489 0.061 -84.374
6888.583 0.059 -84.405 0.996 3.406 0.996 3.406 0.059 -84.405
6913.542 0.058 -84.433 0.996 3.323 0.996 3.323 0.058 -84.433
6938.5 0.057 -84.458 0.996 3.24 0.996 3.24 0.057 -84.458
6963.458 0.055 -84.481 0.996 3.158 0.996 3.158 0.055 -84.481
6988.417 0.054 -84.5 0.996 3.076 0.996 3.076 0.054 -84.5
7013.375 0.052 -84.515 0.996 2.994 0.996 2.994 0.052 -84.515
7038.333 0.051 -84.527 0.996 2.913 0.996 2.913 0.051 -84.527
7063.292 0.049 -84.535 0.997 2.832 0.997 2.832 0.049 -84.535
7088.25 0.048 -84.538 0.997 2.751 0.997 2.751 0.048 -84.538
7113.208 0.047 -84.537 0.997 2.671 0.997 2.671 0.047 -84.537
7138.167 0.045 -84.531 0.997 2.591 0.997 2.591 0.045 -84.531
7163.125 0.044 -84.519 0.997 2.511 0.997 2.511 0.044 -84.519
7188.083 0.042 -84.502 0.997 2.432 0.997 2.432 0.042 -84.502
7213.042 0.041 -84.478 0.997 2.353 0.997 2.353 0.041 -84.478
7238 0.04 -84.447 0.997 2.274 0.997 2.274 0.04 -84.447
7262.958 0.038 -84.408 0.997 2.195 0.997 2.195 0.038 -84.408
7287.917 0.037 -84.361 0.997 2.117 0.997 2.117 0.037 -84.361
7312.875 0.036 -84.304 0.997 2.039 0.997 2.039 0.036 -84.304
7337.833 0.034 -84.237 0.997 1.961 0.997 1.961 0.034 -84.237
7362.792 0.033 -84.159 0.997 1.884 0.997 1.884 0.033 -84.159
7387.75 0.032 -84.068 0.997 1.807 0.997 1.807 0.032 -84.068
7412.708 0.03 -83.962 0.997 1.73 0.997 1.73 0.03 -83.962
7437.667 0.029 -83.839 0.997 1.653 0.997 1.653 0.029 -83.839
7462.625 0.028 -83.698 0.997 1.577 0.997 1.577 0.028 -83.698
7487.583 0.026 -83.536 0.997 1.501 0.997 1.501 0.026 -83.536
7512.542 0.025 -83.349 0.997 1.425 0.997 1.425 0.025 -83.349
7537.5 0.024 -83.133 0.997 1.349 0.997 1.349 0.024 -83.133
7562.458 0.022 -82.884 0.997 1.274 0.997 1.274 0.022 -82.884
7587.417 0.021 -82.597 0.998 1.199 0.998 1.199 0.021 -82.597
7612.375 0.02 -82.262 0.998 1.124 0.998 1.124 0.02 -82.262
7637.333 0.018 -81.871 0.998 1.05 0.998 1.05 0.018 -81.871
7662.292 0.017 -81.413 0.998 0.975 0.998 0.975 0.017 -81.413
7687.25 0.016 -80.869 0.998 0.901 0.998 0.901 0.016 -80.869
7712.208 0.015 -80.221 0.998 0.828 0.998 0.828 0.015 -80.221
7737.167 0.013 -79.437 0.998 0.754 0.998 0.754 0.013 -79.437
7762.125 0.012 -78.478 0.998 0.681 0.998 0.681 0.012 -78.478
7787.083 0.011 -77.284 0.998 0.608 0.998 0.608 0.011 -77.284
7812.042 9.607e-3 -75.767 0.998 0.535 0.998 0.535 9.607e-3 -75.767
7837 8.382e-3 -73.788 0.998 0.462 0.998 0.462 8.382e-3 -73.788
7861.958 7.175e-3 -71.122 0.998 0.39 0.998 0.39 7.175e-3 -71.122
7886.917 5.994e-3 -67.376 0.998 0.318 0.998 0.318 5.994e-3 -67.376
7911.875 4.857e-3 -61.821 0.998 0.246 0.998 0.246 4.857e-3 -61.821
7936.833 3.797e-3 -53.018 0.998 0.174 0.998 0.174 3.797e-3 -53.018
7961.792 2.897e-3 -38.148 0.998 0.103 0.998 0.103 2.897e-3 -38.148
7986.75 2.341e-3 -13.578 0.998 0.032 0.998 0.032 2.341e-3 -13.578
8011.708 2.377e-3 16.788 0.998 -0.039 0.998 -0.039 2.377e-3 16.788
8036.667 2.979e-3 40.098 0.998 -0.11 0.998 -0.11 2.979e-3 40.098
8061.625 3.889e-3 54.018 0.998 -0.181 0.998 -0.181 3.889e-3 54.018
8086.583 4.937e-3 62.31 0.998 -0.251 0.998 -0.251 4.937e-3 62.31
8111.542 6.05e-3 67.588 0.998 -0.321 0.998 -0.321 6.05e-3 67.588
8136.5 7.195e-3 71.175 0.998 -0.391 0.998 -0.391 7.195e-3 71.175
8161.458 8.358e-3 73.743 0.998 -0.461 0.998 -0.461 8.358e-3 73.743
8186.417 9.53e-3 75.658 0.998 -0.53 0.998 -0.53 9.53e-3 75.658
8211.375 0.011 77.134 0.998 -0.6 0.998 -0.6 0.011 77.134
8236.333 0.012 78.299 0.998 -0.669 0.998 -0.669 0.012 78.299
8261.292 0.013 79.239 0.998 -0.737 0.998 -0.737 0.013 79.239
8286.25 0.014 80.009 0.998 -0.806 0.998 -0.806 0.014 80.009
8311.208 0.015 80.648 0.998 -0.875 0.998 -0.875 0.015 80.648
8336.167 0.017 81.186 0.998 -0.943 0.998 -0.943 0.017 81.186
8361.125 0.018 81.642 0.998 -1.011 0.998 -1.011 0.018 81.642
8386.083 0.019 82.032 0.998 -1.079 0.998 -1.079 0.019 82.032
8411.042 0.02 82.367 0.998 -1.146 0.998 -1.146 0.02 82.367
8436 0.021 82.658 0.998 -1.214 0.998 -1.214 0.021 82.658
8460.958 0.022 82.91 0.997 -1.281 0.997 -1.281 0.022 82.91
8485.917 0.024 83.13 0.997 -1.348 0.997 -1.348 0.024 83.13
8510.875 0.025 83.323 0.997 -1.415 0.997 -1.415 0.025 83.323
8535.833 0.026 83.492 0.997 -1.482 0.997 -1.482 0.026 83.492
8560.792 0.027 83.64 0.997 -1.548 0.997 -1.548 0.027 83.64
8585.75 0.028 83.771 0.997 -1.615 0.997 -1.615 0.028 83.771
8610.708 0.029 83.886 0.997 -1.681 0.997 -1.681 0.029 83.886
8635.667 0.031 83.987 0.997 -1.747 0.997 -1.747 0.031 83.987
8660.625 0.032 84.075 0.997 -1.813 0.997 -1.813 0.032 84.075
8685.583 0.033 84.153 0.997 -1.878 0.997 -1.878 0.033 84.153
8710.542 0.034 84.221 0.997 -1.944 0.997 -1.944 0.034 84.221
8735.5 0.035 84.28 0.997 -2.009 0.997 -2.009 0.035 84.28
8760.458 0.036 84.331 0.997 -2.074 0.997 -2.074 0.036 84.331
8785.417 0.037 84.375 0.997 -2.139 0.997 -2.139 0.037 84.375
8810.375 0.039 84.413 0.997 -2.204 0.997 -2.204 0.039 84.413
8835.333 0.04 84.444 0.997 -2.268 0.997 -2.268 0.04 84.444
8860.292 0.041 84.471 0.997 -2.333 0.997 -2.333 0.041 84.471
8885.25 0.042 84.492 0.997 -2.397 0.997 -2.397 0.042 84.492
8910.208 0.043 84.509 0.997 -2.461 0.997 -2.461 0.043 84.509
8935.167 0.044 84.521 0.997 -2.525 0.997 -2.525 0.044 84.521
8960.125 0.045 84.53 0.997 -2.589 0.997 -2.589 0.045 84.53
8985.083 0.046 84.536 0.997 -2.652 0.997 -2.652 0.046 84.536
9010.042 0.047 84.538 0.997 -2.716 0.997 -2.716 0.047 84.538
9035 0.049 84.537 0.997 -2.779 0.997 -2.779 0.049 84.537
9059.958 0.05 84.534 0.996 -2.842 0.996 -2.842 0.05 84.534
9084.917 0.051 84.528 0.996 -2.905 0.996 -2.905 0.051 84.528
9109.875 0.052 84.519 0.996 -2.968 0.996 -2.968 0.052 84.519
9134.833 0.053 84.509 0.996 -3.03 0.996 -3.03 0.053 84.509
9159.792 0.054 84.496 0.996 -3.093 0.996 -3.093 0.054 84.496
9184.75 0.055 84.481 0.996 -3.155 0.996 -3.155 0.055 84.481
9209.708 0.056 84.465 0.996 -3.217 0.996 -3.217 0.056 84.465
9234.667 0.057 84.447 0.996 -3.279 0.996 -3.279 0.057 84.447
9259.625 0.058 84.427 0.996 -3.341 0.996 -3.341 0.058 84.427
9284.583 0.059 84.406 0.996 -3.403 0.996 -3.403 0.059 84.406
9309.542 0.06 84.383 0.996 -3.464 0.996 -3.464 0.06 84.383
9334.5 0.062 84.359 0.996 -3.526 0.996 -3.526 0.062 84.359
9359.458 0.063 84.334 0.996 -3.587 0.996 -3.587 0.063 84.334
9384.417 0.064 84.308 0.996 -3.648 0.996 -3.648 0.064 84.308
9409.375 0.065 84.281 0.996 -3.709 0.996 -3.709 0.065 84.281
9434.333 0.066 84.253 0.996 -3.77 0.996 -3.77 0.066 84.253
9459.292 0.067 84.223 0.995 -3.831 0.995 -3.831 0.067 84.223
9484.25 0.068 84.193 0.995 -3.891 0.995 -3.891 0.068 84.193
9509.208 0.069 84.162 0.995 -3.951 0.995 -3.951 0.069 84.162
9534.167 0.07 84.13 0.995 -4.012 0.995 -4.012 0.07 84.13
9559.125 0.071 84.098 0.995 -4.072 0.995 -4.072 0.071 84.098
9584.083 0.072 84.064 0.995 -4.132 0.995 -4.132 0.072 84.064
9609.042 0.073 84.03 0.995 -4.192 0.995 -4.192 0.073 84.03
9634 0.074 83.996 0.995 -4.251 0.995 -4.251 0.074 83.996
9658.958 0.075 83.96 0.995 -4.311 0.995 -4.311 0.075 83.96
9683.917 0.076 83.924 0.995 -4.37 0.995 -4.37 0.076 83.924
9708.875 0.077 83.888 0.995 -4.43 0.995 -4.43 0.077 83.888
9733.833 0.078 83.851 0.995 -4.489 0.995 -4.489 0.078 83.851
9758.792 0.079 83.814 0.995 -4.548 0.995 -4.548 0.079 83.814
9783.75 0.08 83.776 0.995 -4.607 0.995 -4.607 0.08 83.776
9808.708 0.081 83.738 0.994 -4.666 0.994 -4.666 0.081 83.738
9833.667 0.082 83.699 0.994 -4.724 0.994 -4.724 0.082 83.699
9858.625 0.083 83.66 0.994 -4.783 0.994 -4.783 0.083 83.66
9883.583 0.084 83.62 0.994 -4.841 0.994 -4.841 0.084 83.62
9908.542 0.085 83.58 0.994 -4.899 0.994 -4.899 0.085 83.58
9933.5 0.086 83.54 0.994 -4.958 0.994 -4.958 0.086 83.54
9958.458 0.087 83.499 0.994 -5.016 0.994 -5.016 0.087 83.499
9983.417 0.088 83.459 0.994 -5.073 0.994 -5.073 0.088 83.459
10008.375 0.089 83.417 0.994 -5.131 0.994 -5.131 0.089 83.417
10033.333 0.09 83.376 0.994 -5.189 0.994 -5.189 0.09 83.376
10058.292 0.091 83.334 0.994 -5.246 0.994 -5.246 0.091 83.334
10083.25 0.092 83.292 0.993 -5.304 0.993 -5.304 0.092 83.292
10108.208 0.093 83.25 0.993 -5.361 0.993 -5.361 0.093 83.25
10133.167 0.094 83.208 0.993 -5.418 0.993 -5.418 0.094 83.208
10158.125 0.095 83.165 0.993 -5.475 0.993 -5.475 0.095 83.165
10183.083 0.096 83.122 0.993 -5.532 0.993 -5.532 0.096 83.122
10208.042 0.097 83.079 0.993 -5.589 0.993 -5.589 0.097 83.079
10233 0.098 83.036 0.993 -5.646 0.993 -5.646 0.098 83.036
10257.958 0.099 82.992 0.993 -5.702 0.993 -5.702 0.099 82.992
10282.917 0.1 82.949 0.993 -5.759 0.993 -5.759 0.1 82.949
10307.875 0.101 82.905 0.993 -5.815 0.993 -5.815 0.101 82.905
10332.833 0.102 82.861 0.992 -5.871 0.992 -5.871 0.102 82.861
10357.792 0.103 82.817 0.992 -5.927 0.992 -5.927 0.103 82.817
10382.75 0.104 82.773 0.992 -5.983 0.992 -5.983 0.104 82.773
10407.708 0.105 82.729 0.992 -6.039 0.992 -6.039 0.105 82.729
10432.667 0.106 82.684 0.992 -6.095 0.992 -6.095 0.106 82.684
10457.625 0.107 82.64 0.992 -6.151 0.992 -6.151 0.107 82.64
10482.583 0.108 82.595 0.992 -6.206 0.992 -6.206 0.108 82.595
10507.542 0.109 82.55 0.992 -6.262 0.992 -6.262 0.109 82.55
10532.5 0.11 82.506 0.992 -6.317 0.992 -6.317 0.11 82.506
10557.458 0.111 82.461 0.992 -6.372 0.992 -6.372 0.111 82.461
10582.417 0.112 82.416 0.991 -6.427 0.991 -6.427 0.112 82.416
10607.375 0.113 82.37 0.991 -6.482 0.991 -6.482 0.113 82.37
10632.333 0.114 82.325 0.991 -6.537 0.991 -6.537 0.114 82.325
10657.292 0.115 82.28 0.991 -6.592 0.991 -6.592 0.115 82.28
10682.25 0.116 82.235 0.991 -6.647 0.991 -6.647 0.116 82.235
10707.208 0.117 82.189 0.991 -6.702 0.991 -6.702 0.117 82.189
10732.167 0.118 82.144 0.991 -6.756 0.991 -6.756 0.118 82.144
10757.125 0.119 82.098 0.991 -6.81 0.991 -6.81 0.119 82.098
10782.083 0.12 82.053 0.991 -6.865 0.991 -6.865 0.12 82.053
10807.042 0.12 82.007 0.99 -6.919 0.99 -6.919 0.12 82.007
10832 0.121 81.961 0.99 -6.973 0.99 -6.973 0.121 81.961
10856.958 0.122 81.916 0.99 -7.027 0.99 -7.027 0.122 81.916
10881.917 0.123 81.87 0.99 -7.081 0.99 -7.081 0.123 81.87
10906.875 0.124 81.824 0.99 -7.135 0.99 -7.135 0.124 81.824
10931.833 0.125 81.778 0.99 -7.188 0.99 -7.188 0.125 81.778
10956.792 0.126 81.732 0.99 -7.242 0.99 -7.242 0.126 81.732
10981.75 0.127 81.686 0.99 -7.295 0.99 -7.295 0.127 81.686
11006.708 0.128 81.64 0.99 -7.349 0.99 -7.349 0.128 81.64
11031.667 0.129 81.594 0.989 -7.402 0.989 -7.402 0.129 81.594
11056.625 0.13 81.549 0.989 -7.455 0.989 -7.455 0.13 81.549
11081.583 0.131 81.503 0.989 -7.509 0.989 -7.509 0.131 81.503
11106.542 0.132 81.457 0.989 -7.562 0.989 -7.562 0.132 81.457
11131.5 0.133 81.41 0.989 -7.614 0.989 -7.614 0.133 81.41
11156.458 0.133 81.364 0.989 -7.667 0.989 -7.667 0.133 81.364
11181.417 0.134 81.318 0.989 -7.72 0.989 -7.72 0.134 81.318
11206.375 0.135 81.272 0.989 -7.773 0.989 -7.773 0.135 81.272
11231.333 0.136 81.226 0.988 -7.825 0.988 -7.825 0.136 81.226
11256.292 0.137 81.18 0.988 -7.878 0.988 -7.878 0.137 81.18
11281.25 0.138 81.134 0.988 -7.93 0.988 -7.93 0.138 81.134
11306.208 0.139 81.088 0.988 -7.982 0.988 -7.982 0.139 81.088
11331.167 0.14 81.042 0.988 -8.035 0.988 -8.035 0.14 81.042
11356.125 0.141 80.996 0.988 -8.087 0.988 -8.087 0.141 80.996
11381.083 0.142 80.95 0.988 -8.139 0.988 -8.139 0.142 80.95
11406.042 0.142 80.904 0.988 -8.191 0.988 -8.191 0.142 80.904
11431 0.143 80.858 0.987 -8.242 0.987 -8.242 0.143 80.858
11455.958 0.144 80.812 0.987 -8.294 0.987 -8.294 0.144 80.812
11480.917 0.145 80.766 0.987 -8.346 0.987 -8.346 0.145 80.766
11505.875 0.146 80.72 0.987 -8.397 0.987 -8.397 0.146 80.72
11530.833 0.147 80.674 0.987 -8.449 0.987 -8.449 0.147 80.674
11555.792 0.148 80.628 0.987 -8.5 0.987 -8.5 0.148 80.628
11580.75 0.149 80.582 0.987 -8.552 0.987 -8.552 0.149 80.582
11605.708 0.15 80.536 0.986 -8.603 0.986 -8.603 0.15 80.536
11630.667 0.15 80.49 0.986 -8.654 0.986 -8.654 0.15 80.49
11655.625 0.151 80.444 0.986 -8.705 0.986 -8.705 0.151 80.444
11680.583 0.152 80.398 0.986 -8.756 0.986 -8.756 0.152 80.398
11705.542 0.153 80.352 0.986 -8.807 0.986 -8.807 0.153 80.352
11730.5 0.154 80.306 0.986 -8.858 0.986 -8.858 0.154 80.306
11755.458 0.155 80.26 0.986 -8.908 0.986 -8.908 0.155 80.26
11780.417 0.156 80.214 0.986 -8.959 0.986 -8.959 0.156 80.214
11805.375 0.157 80.168 0.985 -9.01 0.985 -9.01 0.157 80.168
11830.333 0.157 80.122 0.985 -9.06 0.985 -9.06 0.157 80.122
11855.292 0.158 80.077 0.985 -9.111 0.985 -9.111 0.158 80.077
11880.25 0.159 80.031 0.985 -9.161 0.985 -9.161 0.159 80.031
11905.208 0.16 79.985 0.985 -9.211 0.985 -9.211 0.16 79.985
11930.167 0.161 79.939 0.985 -9.261 0.985 -9.261 0.161 79.939
11955.125 0.162 79.894 0.985 -9.311 0.985 -9.311 0.162 79.894
11980.083 0.163 79.848 0.984 -9.361 0.984 -9.361 0.163 79.848
12005.042 0.164 79.802 0.984 -9.411 0.984 -9.411 0.164 79.802
12030 0.164 79.757 0.984 -9.461 0.984 -9.461 0.164 79.757
12054.958 0.165 79.711 0.984 -9.511 0.984 -9.511 0.165 79.711
12079.917 0.166 79.665 0.984 -9.561 0.984 -9.561 0.166 79.665
12104.875 0.167 79.62 0.984 -9.61 0.984 -9.61 0.167 79.62
12129.833 0.168 79.574 0.984 -9.66 0.984 -9.66 0.168 79.574
12154.792 0.169 79.529 0.983 -9.709 0.983 -9.709 0.169 79.529
12179.75 0.17 79.483 0.983 -9.759 0.983 -9.759 0.17 79.483
12204.708 0.17 79.438 0.983 -9.808 0.983 -9.808 0.17 79.438
12229.667 0.171 79.393 0.983 -9.857 0.983 -9.857 0.171 79.393
12254.625 0.172 79.347 0.983 -9.906 0.983 -9.906 0.172 79.347
12279.583 0.173 79.302 0.983 -9.955 0.983 -9.955 0.173 79.302
12304.542 0.174 79.257 0.983 -10.004 0.983 -10.004 0.174 79.257
12329.5 0.175 79.211 0.982 -10.053 0.982 -10.053 0.175 79.211
12354.458 0.175 79.166 0.982 -10.102 0.982 -10.102 0.175 79.166
12379.417 0.176 79.121 0.982 -10.151 0.982 -10.151 0.176 79.121
12404.375 0.177 79.076 0.982 -10.2 0.982 -10.2 0.177 79.076
12429.333 0.178 79.031 0.982 -10.248 0.982 -10.248 0.178 79.031
12454.292 0.179 78.986 0.982 -10.297 0.982 -10.297 0.179 78.986
12479.25 0.18 78.941 0.982 -10.345 0.982 -10.345 0.18 78.941
12504.208 0.18 78.895 0.981 -10.394 0.981 -10.394 0.18 78.895
12529.167 0.181 78.85 0.981 -10.442 0.981 -10.442 0.181 78.85
12554.125 0.182 78.806 0.981 -10.49 0.981 -10.49 0.182 78.806
12579.083 0.183 78.761 0.981 -10.539 0.981 -10.539 0.183 78.761
12604.042 0.184 78.716 0.981 -10.587 0.981 -10.587 0.184 78.716
12629 0.185 78.671 0.981 -10.635 0.981 -10.635 0.185 78.671
12653.958 0.185 78.626 0.98 -10.683 0.98 -10.683 0.185 78.626
12678.917 0.186 78.581 0.98 -10.731 0.98 -10.731 0.186 78.581
12703.875 0.187 78.537 0.98 -10.779 0.98 -10.779 0.187 78.537
12728.833 0.188 78.492 0.98 -10.827 0.98 -10.827 0.188 78.492
12753.792 0.189 78.447 0.98 -10.874 0.98 -10.874 0.189 78.447
12778.75 0.189 78.403 0.98 -10.922 0.98 -10.922 0.189 78.403
12803.708 0.19 78.358 0.979 -10.97 0.979 -10.97 0.19 78.358
12828.667 0.191 78.313 0.979 -11.017 0.979 -11.017 0.191 78.313
12853.625 0.192 78.269 0.979 -11.065 0.979 -11.065 0.192 78.269
12878.583 0.193 78.224 0.979 -11.112 0.979 -11.112 0.193 78.224
12903.542 0.194 78.18 0.979 -11.159 0.979 -11.159 0.194 78.18
12928.5 0.194 78.136 0.979 -11.207 0.979 -11.207 0.194 78.136
12953.458 0.195 78.091 0.979 -11.254 0.979 -11.254 0.195 78.091
12978.417 0.196 78.047 0.978 -11.301 0.978 -11.301 0.196 78.047
13003.375 0.197 78.003 0.978 -11.348 0.978 -11.348 0.197 78.003
13028.333 0.198 77.958 0.978 -11.395 0.978 -11.395 0.198 77.958
13053.292 0.198 77.914 0.978 -11.442 0.978 -11.442 0.198 77.914
13078.25 0.199 77.87 0.978 -11.489 0.978 -11.489 0.199 77.87
13103.208 0.2 77.826 0.978 -11.536 0.978 -11.536 0.2 77.826
13128.167 0.201 77.782 0.977 -11.582 0.977 -11.582 0.201 77.782
13153.125 0.202 77.738 0.977 -11.629 0.977 -11.629 0.202 77.738
13178.083 0.202 77.694 0.977 -11.676 0.977 -11.676 0.202 77.694
13203.042 0.203 77.65 0.977 -11.722 0.977 -11.722 0.203 77.65
13228 0.204 77.606 0.977 -11.769 0.977 -11.769 0.204 77.606
13252.958 0.205 77.562 0.977 -11.815 0.977 -11.815 0.205 77.562
13277.917 0.206 77.518 0.976 -11.861 0.976 -11.861 0.206 77.518
13302.875 0.206 77.474 0.976 -11.908 0.976 -11.908 0.206 77.474
13327.833 0.207 77.43 0.976 -11.954 0.976 -11.954 0.207 77.43
13352.792 0.208 77.387 0.976 -12 0.976 -12 0.208 77.387
13377.75 0.209 77.343 0.976 -12.046 0.976 -12.046 0.209 77.343
13402.708 0.209 77.299 0.976 -12.092 0.976 -12.092 0.209 77.299
13427.667 0.21 77.256 0.975 -12.138 0.975 -12.138 0.21 77.256
13452.625 0.211 77.212 0.975 -12.184 0.975 -12.184 0.211 77.212
13477.583 0.212 77.168 0.975 -12.23 0.975 -12.23 0.212 77.168
13502.542 0.213 77.125 0.975 -12.276 0.975 -12.276 0.213 77.125
13527.5 0.213 77.081 0.975 -12.322 0.975 -12.322 0.213 77.081
13552.458 0.214 77.038 0.975 -12.367 0.975 -12.367 0.214 77.038
13577.417 0.215 76.995 0.974 -12.413 0.974 -12.413 0.215 76.995
13602.375 0.216 76.951 0.974 -12.459 0.974 -12.459 0.216 76.951
13627.333 0.217 76.908 0.974 -12.504 0.974 -12.504 0.217 76.908
13652.292 0.217 76.865 0.974 -12.55 0.974 -12.55 0.217 76.865
13677.25 0.218 76.822 0.974 -12.595 0.974 -12.595 0.218 76.822
13702.208 0.219 76.778 0.974 -12.64 0.974 -12.64 0.219 76.778
13727.167 0.22 76.735 0.973 -12.686 0.973 -12.686 0.22 76.735
13752.125 0.22 76.692 0.973 -12.731 0.973 -12.731 0.22 76.692
13777.083 0.221 76.649 0.973 -12.776 0.973 -12.776 0.221 76.649
13802.042 0.222 76.606 0.973 -12.821 0.973 -12.821 0.222 76.606
13827 0.223 76.563 0.973 -12.866 0.973 -12.866 0.223 76.563
13851.958 0.223 76.52 0.972 -12.911 0.972 -12.911 0.223 76.52
13876.917 0.224 76.477 0.972 -12.956 0.972 -12.956 0.224 76.477
13901.875 0.225 76.434 0.972 -13.001 0.972 -13.001 0.225 76.434
13926.833 0.226 76.392 0.972 -13.046 0.972 -13.046 0.226 76.392
13951.792 0.227 76.349 0.972 -13.091 0.972 -13.091 0.227 76.349
13976.75 0.227 76.306 0.972 -13.135 0.972 -13.135 0.227 76.306
14001.708 0.228 76.263 0.971 -13.18 0.971 -13.18 0.228 76.263
14026.667 0.229 76.221 0.971 -13.225 0.971 -13.225 0.229 76.221
14051.625 0.23 76.178 0.971 -13.269 0.971 -13.269 0.23 76.178
14076.583 0.23 76.135 0.971 -13.314 0.971 -13.314 0.23 76.135
14101.542 0.231 76.093 0.971 -13.358 0.971 -13.358 0.231 76.093
14126.5 0.232 76.05 0.971 -13.403 0.971 -13.403 0.232 76.05
14151.458 0.233 76.008 0.97 -13.447 0.97 -13.447 0.233 76.008
14176.417 0.233 75.966 0.97 -13.491 0.97 -13.491 0.233 75.966
14201.375 0.234 75.923 0.97 -13.535 0.97 -13.535 0.234 75.923
14226.333 0.235 75.881 0.97 -13.58 0.97 -13.58 0.235 75.881
14251.292 0.236 75.838 0.97 -13.624 0.97 -13.624 0.236 75.838
14276.25 0.236 75.796 0.969 -13.668 0.969 -13.668 0.236 75.796
14301.208 0.237 75.754 0.969 -13.712 0.969 -13.712 0.237 75.754
14326.167 0.238 75.712 0.969 -13.756 0.969 -13.756 0.238 75.712
14351.125 0.239 75.67 0.969 -13.8 0.969 -13.8 0.239 75.67
14376.083 0.239 75.628 0.969 -13.843 0.969 -13.843 0.239 75.628
14401.042 0.24 75.586 0.969 -13.887 0.969 -13.887 0.24 75.586
14426 0.241 75.543 0.968 -13.931 0.968 -13.931 0.241 75.543
14450.958 0.242 75.502 0.968 -13.975 0.968 -13.975 0.242 75.502
14475.917 0.242 75.46 0.968 -14.018 0.968 -14.018 0.242 75.46
14500.875 0.243 75.418 0.968 -14.062 0.968 -14.062 0.243 75.418
14525.833 0.244 75.376 0.968 -14.105 0.968 -14.105 0.244 75.376
14550.792 0.244 75.334 0.967 -14.149 0.967 -14.149 0.244 75.334
14575.75 0.245 75.292 0.967 -14.192 0.967 -14.192 0.245 75.292
14600.708 0.246 75.25 0.967 -14.236 0.967 -14.236 0.246 75.25
14625.667 0.247 75.209 0.967 -14.279 0.967 -14.279 0.247 75.209
14650.625 0.247 75.167 0.967 -14.322 0.967 -14.322 0.247 75.167
14675.583 0.248 75.125 0.967 -14.366 0.967 -14.366 0.248 75.125
14700.542 0.249 75.084 0.966 -14.409 0.966 -14.409 0.249 75.084
14725.5 0.25 75.042 0.966 -14.452 0.966 -14.452 0.25 75.042
14750.458 0.25 75.001 0.966 -14.495 0.966 -14.495 0.25 75.001
14775.417 0.251 74.959 0.966 -14.538 0.966 -14.538 0.251 74.959
14800.375 0.252 74.918 0.966 -14.581 0.966 -14.581 0.252 74.918
14825.333 0.252 74.876 0.965 -14.624 0.965 -14.624 0.252 74.876
14850.292 0.253 74.835 0.965 -14.667 0.965 -14.667 0.253 74.835
14875.25 0.254 74.794 0.965 -14.71 0.965 -14.71 0.254 74.794
14900.208 0.255 74.752 0.965 -14.752 0.965 -14.752 0.255 74.752
14925.167 0.255 74.711 0.965 -14.795 0.965 -14.795 0.255 74.711
14950.125 0.256 74.67 0.964 -14.838 0.964 -14.838 0.256 74.67
14975.083 0.257 74.629 0.964 -14.881 0.964 -14.881 0.257 74.629
15000.042 0.258 74.588 0.964 -14.923 0.964 -14.923 0.258 74.588
15025 0.258 74.547 0.964 -14.966 0.964 -14.966 0.258 74.547
15049.958 0.259 74.506 0.964 -15.008 0.964 -15.008 0.259 74.506
15074.917 0.26 74.465 0.963 -15.051 0.963 -15.051 0.26 74.465
15099.875 0.26 74.424 0.963 -15.093 0.963 -15.093 0.26 74.424
15124.833 0.261 74.383 0.963 -15.135 0.963 -15.135 0.261 74.383
15149.792 0.262 74.342 0.963 -15.178 0.963 -15.178 0.262 74.342
15174.75 0.263 74.301 0.963 -15.22 0.963 -15.22 0.263 74.301
15199.708 0.263 74.26 0.963 -15.262 0.963 -15.262 0.263 74.26
15224.667 0.264 74.219 0.962 -15.304 0.962 -15.304 0.264 74.219
15249.625 0.265 74.179 0.962 -15.346 0.962 -15.346 0.265 74.179
15274.583 0.265 74.138 0.962 -15.388 0.962 -15.388 0.265 74.138
15299.542 0.266 74.097 0.962 -15.431 0.962 -15.431 0.266 74.097
15324.5 0.267 74.057 0.962 -15.472 0.962 -15.472 0.267 74.057
15349.458 0.267 74.016 0.961 -15.514 0.961 -15.514 0.267 74.016
15374.417 0.268 73.975 0.961 -15.556 0.961 -15.556 0.268 73.975
15399.375 0.269 73.935 0.961 -15.598 0.961 -15.598 0.269 73.935
15424.333 0.27 73.894 0.961 -15.64 0.961 -15.64 0.27 73.894
15449.292 0.27 73.854 0.961 -15.682 0.961 -15.682 0.27 73.854
15474.25 0.271 73.814 0.96 -15.723 0.96 -15.723 0.271 73.814
15499.208 0.272 73.773 0.96 -15.765 0.96 -15.765 0.272 73.773
15524.167 0.272 73.733 0.96 -15.807 0.96 -15.807 0.272 73.733
15549.125 0.273 73.693 0.96 -15.848 0.96 -15.848 0.273 73.693
15574.083 0.274 73.652 0.96 -15.89 0.96 -15.89 0.274 73.652
15599.042 0.274 73.612 0.959 -15.931 0.959 -15.931 0.274 73.612
15624 0.275 73.572 0.959 -15.973 0.959 -15.973 0.275 73.572
15648.958 0.276 73.532 0.959 -16.014 0.959 -16.014 0.276 73.532
15673.917 0.277 73.492 0.959 -16.055 0.959 -16.055 0.277 73.492
15698.875 0.277 73.452 0.959 -16.097 0.959 -16.097 0.277 73.452
15723.833 0.278 73.412 0.958 -16.138 0.958 -16.138 0.278 73.412
15748.792 0.279 73.372 0.958 -16.179 0.958 -16.179 0.279 73.372
15773.75 0.279 73.332 0.958 -16.22 0.958 -16.22 0.279 73.332
15798.708 0.28 73.292 0.958 -16.261 0.958 -16.261 0.28 73.292
15823.667 0.281 73.252 0.958 -16.303 0.958 -16.303 0.281 73.252
15848.625 0.281 73.212 0.957 -16.344 0.957 -16.344 0.281 73.212
15873.583 0.282 73.172 0.957 -16.385 0.957 -16.385 0.282 73.172
15898.542 0.283 73.132 0.957 -16.425 0.957 -16.425 0.283 73.132
15923.5 0.283 73.093 0.957 -16.466 0.957 -16.466 0.283 73.093
15948.458 0.284 73.053 0.957 -16.507 0.957 -16.507 0.284 73.053
15973.417 0.285 73.013 0.956 -16.548 0.956 -16.548 0.285 73.013
15998.375 0.286 72.974 0.956 -16.589 0.956 -16.589 0.286 72.974
16023.333 0.286 72.934 0.956 -16.63 0.956 -16.63 0.286 72.934
16048.292 0.287 72.894 0.956 -16.67 0.956 -16.67 0.287 72.894
16073.25 0.288 72.855 0.956 -16.711 0.956 -16.711 0.288 72.855
16098.208 0.288 72.815 0.955 -16.752 0.955 -16.752 0.288 72.815
16123.167 0.289 72.776 0.955 -16.792 0.955 -16.792 0.289 72.776
16148.125 0.29 72.736 0.955 -16.833 0.955 -16.833 0.29 72.736
16173.083 0.29 72.697 0.955 -16.873 0.955 -16.873 0.29 72.697
16198.042 0.291 72.658 0.955 -16.914 0.955 -16.914 0.291 72.658
16223 0.292 72.618 0.954 -16.954 0.954 -16.954 0.292 72.618
16247.958 0.292 72.579 0.954 -16.994 0.954 -16.994 0.292 72.579
16272.917 0.293 72.54 0.954 -17.035 0.954 -17.035 0.293 72.54
16297.875 0.294 72.501 0.954 -17.075 0.954 -17.075 0.294 72.501
16322.833 0.294 72.462 0.954 -17.115 0.954 -17.115 0.294 72.462
16347.792 0.295 72.422 0.953 -17.155 0.953 -17.155 0.295 72.422
16372.75 0.296 72.383 0.953 -17.195 0.953 -17.195 0.296 72.383
16397.708 0.296 72.344 0.953 -17.236 0.953 -17.236 0.296 72.344
16422.667 0.297 72.305 0.953 -17.276 0.953 -17.276 0.297 72.305
16447.625 0.298 72.266 0.953 -17.316 0.953 -17.316 0.298 72.266
16472.583 0.298 72.227 0.952 -17.356 0.952 -17.356 0.298 72.227
16497.542 0.299 72.188 0.952 -17.396 0.952 -17.396 0.299 72.188
16522.5 0.3 72.149 0.952 -17.435 0.952 -17.435 0.3 72.149
16547.458 0.3 72.111 0.952 -17.475 0.952 -17.475 0.3 72.111
16572.417 0.301 72.072 0.951 -17.515 0.951 -17.515 0.301 72.072
16597.375 0.302 72.033 0.951 -17.555 0.951 -17.555 0.302 72.033
16622.333 0.302 71.994 0.951 -17.595 0.951 -17.595 0.302 71.994
16647.292 0.303 71.956 0.951 -17.634 0.951 -17.634 0.303 71.956
16672.25 0.304 71.917 0.951 -17.674 0.951 -17.674 0.304 71.917
16697.208 0.304 71.878 0.95 -17.714 0.95 -17.714 0.304 71.878
16722.167 0.305 71.84 0.95 -17.753 0.95 -17.753 0.305 71.84
16747.125 0.306 71.801 0.95 -17.793 0.95 -17.793 0.306 71.801
16772.083 0.306 71.762 0.95 -17.832 0.95 -17.832 0.306 71.762
16797.042 0.307 71.724 0.95 -17.872 0.95 -17.872 0.307 71.724
16822 0.308 71.685 0.949 -17.911 0.949 -17.911 0.308 71.685
16846.958 0.308 71.647 0.949 -17.951 0.949 -17.951 0.308 71.647
16871.917 0.309 71.609 0.949 -17.99 0.949 -17.99 0.309 71.609
16896.875 0.31 71.57 0.949 -18.029 0.949 -18.029 0.31 71.57
16921.833 0.31 71.532 0.949 -18.069 0.949 -18.069 0.31 71.532
16946.792 0.311 71.494 0.948 -18.108 0.948 -18.108 0.311 71.494
16971.75 0.311 71.455 0.948 -18.147 0.948 -18.147 0.311 71.455
16996.708 0.312 71.417 0.948 -18.186 0.948 -18.186 0.312 71.417
17021.667 0.313 71.379 0.948 -18.225 0.948 -18.225 0.313 71.379
17046.625 0.313 71.341 0.947 -18.264 0.947 -18.264 0.313 71.341
17071.583 0.314 71.303 0.947 -18.303 0.947 -18.303 0.314 71.303
17096.542 0.315 71.264 0.947 -18.342 0.947 -18.342 0.315 71.264
17121.5 0.315 71.226 0.947 -18.381 0.947 -18.381 0.315 71.226
17146.458 0.316 71.188 0.947 -18.42 0.947 -18.42 0.316 71.188
17171.417 0.317 71.15 0.946 -18.459 0.946 -18.459 0.317 71.15
17196.375 0.317 71.112 0.946 -18.498 0.946 -18.498 0.317 71.112
17221.333 0.318 71.074 0.946 -18.537 0.946 -18.537 0.318 71.074
17246.292 0.319 71.037 0.946 -18.576 0.946 -18.576 0.319 71.037
17271.25 0.319 70.999 0.946 -18.614 0.946 -18.614 0.319 70.999
17296.208 0.32 70.961 0.945 -18.653 0.945 -18.653 0.32 70.961
17321.167 0.32 70.923 0.945 -18.692 0.945 -18.692 0.32 70.923
17346.125 0.321 70.885 0.945 -18.73 0.945 -18.73 0.321 70.885
17371.083 0.322 70.848 0.945 -18.769 0.945 -18.769 0.322 70.848
17396.042 0.322 70.81 0.944 -18.807 0.944 -18.807 0.322 70.81
17421 0.323 70.772 0.944 -18.846 0.944 -18.846 0.323 70.772
17445.958 0.324 70.734 0.944 -18.884 0.944 -18.884 0.324 70.734
17470.917 0.324 70.697 0.944 -18.923 0.944 -18.923 0.324 70.697
17495.875 0.325 70.659 0.944 -18.961 0.944 -18.961 0.325 70.659
17520.833 0.326 70.622 0.943 -19 0.943 -19 0.326 70.622
17545.792 0.326 70.584 0.943 -19.038 0.943 -19.038 0.326 70.584
17570.75 0.327 70.547 0.943 -19.076 0.943 -19.076 0.327 70.547
17595.708 0.327 70.509 0.943 -19.115 0.943 -19.115 0.327 70.509
17620.667 0.328 70.472 0.942 -19.153 0.942 -19.153 0.328 70.472
17645.625 0.329 70.435 0.942 -19.191 0.942 -19.191 0.329 70.435
17670.583 0.329 70.397 0.942 -19.229 0.942 -19.229 0.329 70.397
17695.542 0.33 70.36 0.942 -19.267 0.942 -19.267 0.33 70.36
17720.5 0.331 70.323 0.942 -19.305 0.942 -19.305 0.331 70.323
17745.458 0.331 70.285 0.941 -19.343 0.941 -19.343 0.331 70.285
17770.417 0.332 70.248 0.941 -19.381 0.941 -19.381 0.332 70.248
17795.375 0.332 70.211 0.941 -19.419 0.941 -19.419 0.332 70.211
17820.333 0.333 70.174 0.941 -19.457 0.941 -19.457 0.333 70.174
17845.292 0.334 70.137 0.941 -19.495 0.941 -19.495 0.334 70.137
17870.25 0.334 70.1 0.94 -19.533 0.94 -19.533 0.334 70.1
17895.208 0.335 70.062 0.94 -19.571 0.94 -19.571 0.335 70.062
17920.167 0.336 70.025 0.94 -19.609 0.94 -19.609 0.336 70.025
17945.125 0.336 69.988 0.94 -19.646 0.94 -19.646 0.336 69.988
17970.083 0.337 69.951 0.939 -19.684 0.939 -19.684 0.337 69.951
17995.042 0.337 69.915 0.939 -19.722 0.939 -19.722 0.337 69.915
18020 0.338 69.878 0.939 -19.759 0.939 -19.759 0.338 69.878
18044.958 0.339 69.841 0.939 -19.797 0.939 -19.797 0.339 69.841
18069.917 0.339 69.804 0.939 -19.835 0.939 -19.835 0.339 69.804
18094.875 0.34 69.767 0.938 -19.872 0.938 -19.872 0.34 69.767
18119.833 0.341 69.73 0.938 -19.91 0.938 -19.91 0.341 69.73
18144.792 0.341 69.694 0.938 -19.947 0.938 -19.947 0.341 69.694
18169.75 0.342 69.657 0.938 -19.985 0.938 -19.985 0.342 69.657
18194.708 0.342 69.62 0.937 -20.022 0.937 -20.022 0.342 69.62
18219.667 0.343 69.584 0.937 -20.059 0.937 -20.059 0.343 69.584
18244.625 0.344 69.547 0.937 -20.097 0.937 -20.097 0.344 69.547
18269.583 0.344 69.51 0.937 -20.134 0.937 -20.134 0.344 69.51
18294.542 0.345 69.474 0.937 -20.171 0.937 -20.171 0.345 69.474
18319.5 0.345 69.437 0.936 -20.209 0.936 -20.209 0.345 69.437
18344.458 0.346 69.401 0.936 -20.246 0.936 -20.246 0.346 69.401
18369.417 0.347 69.364 0.936 -20.283 0.936 -20.283 0.347 69.364
18394.375 0.347 69.328 0.936 -20.32 0.936 -20.32 0.347 69.328
18419.333 0.348 69.291 0.935 -20.357 0.935 -20.357 0.348 69.291
18444.292 0.348 69.255 0.935 -20.394 0.935 -20.394 0.348 69.255
18469.25 0.349 69.219 0.935 -20.431 0.935 -20.431 0.349 69.219
18494.208 0.35 69.182 0.935 -20.468 0.935 -20.468 0.35 69.182
18519.167 0.35 69.146 0.935 -20.505 0.935 -20.505 0.35 69.146
18544.125 0.351 69.11 0.934 -20.542 0.934 -20.542 0.351 69.11
18569.083 0.352 69.074 0.934 -20.579 0.934 -20.579 0.352 69.074
18594.042 0.352 69.037 0.934 -20.616 0.934 -20.616 0.352 69.037
18619 0.353 69.001 0.934 -20.653 0.934 -20.653 0.353 69.001
18643.958 0.353 68.965 0.933 -20.69 0.933 -20.69 0.353 68.965
18668.917 0.354 68.929 0.933 -20.726 0.933 -20.726 0.354 68.929
18693.875 0.355 68.893 0.933 -20.763 0.933 -20.763 0.355 68.893
18718.833 0.355 68.857 0.933 -20.8 0.933 -20.8 0.355 68.857
18743.792 0.356 68.821 0.932 -20.836 0.932 -20.836 0.356 68.821
18768.75 0.356 68.785 0.932 -20.873 0.932 -20.873 0.356 68.785
18793.708 0.357 68.749 0.932 -20.91 0.932 -20.91 0.357 68.749
18818.667 0.357 68.713 0.932 -20.946 0.932 -20.946 0.357 68.713
18843.625 0.358 68.677 0.932 -20.983 0.932 -20.983 0.358 68.677
18868.583 0.359 68.641 0.931 -21.019 0.931 -21.019 0.359 68.641
18893.542 0.359 68.606 0.931 -21.056 0.931 -21.056 0.359 68.606
18918.5 0.36 68.57 0.931 -21.092 0.931 -21.092 0.36 68.57
18943.458 0.36 68.534 0.931 -21.129 0.931 -21.129 0.36 68.534
18968.417 0.361 68.498 0.93 -21.165 0.93 -21.165 0.361 68.498
18993.375 0.362 68.463 0.93 -21.201 0.93 -21.201 0.362 68.463
19018.333 0.362 68.427 0.93 -21.238 0.93 -21.238 0.362 68.427
19043.292 0.363 68.391 0.93 -21.274 0.93 -21.274 0.363 68.391
19068.25 0.363 68.356 0.93 -21.31 0.93 -21.31 0.363 68.356
19093.208 0.364 68.32 0.929 -21.346 0.929 -21.346 0.364 68.32
19118.167 0.365 68.284 0.929 -21.383 0.929 -21.383 0.365 68.284
19143.125 0.365 68.249 0.929 -21.419 0.929 -21.419 0.365 68.249
19168.083 0.366 68.213 0.929 -21.455 0.929 -21.455 0.366 68.213
19193.042 0.366 68.178 0.928 -21.491 0.928 -21.491 0.366 68.178
19218 0.367 68.142 0.928 -21.527 0.928 -21.527 0.367 68.142
19242.958 0.368 68.107 0.928 -21.563 0.928 -21.563 0.368 68.107
19267.917 0.368 68.072 0.928 -21.599 0.928 -21.599 0.368 68.072
19292.875 0.369 68.036 0.927 -21.635 0.927 -21.635 0.369 68.036
19317.833 0.369 68.001 0.927 -21.671 0.927 -21.671 0.369 68.001
19342.792 0.37 67.966 0.927 -21.707 0.927 -21.707 0.37 67.966
19367.75 0.37 67.93 0.927 -21.743 0.927 -21.743 0.37 67.93
19392.708 0.371 67.895 0.927 -21.779 0.927 -21.779 0.371 67.895
19417.667 0.372 67.86 0.926 -21.814 0.926 -21.814 0.372 67.86
19442.625 0.372 67.825 0.926 -21.85 0.926 -21.85 0.372 67.825
19467.583 0.373 67.79 0.926 -21.886 0.926 -21.886 0.373 67.79
19492.542 0.373 67.754 0.926 -21.922 0.926 -21.922 0.373 67.754
19517.5 0.374 67.719 0.925 -21.957 0.925 -21.957 0.374 67.719
19542.458 0.374 67.684 0.925 -21.993 0.925 -21.993 0.374 67.684
19567.417 0.375 67.649 0.925 -22.029 0.925 -22.029 0.375 67.649
19592.375 0.376 67.614 0.925 -22.064 0.925 -22.064 0.376 67.614
19617.333 0.376 67.579 0.924 -22.1 0.924 -22.1 0.376 67.579
19642.292 0.377 67.544 0.924 -22.135 0.924 -22.135 0.377 67.544
19667.25 0.377 67.509 0.924 -22.171 0.924 -22.171 0.377 67.509
19692.208 0.378 67.474 0.924 -22.206 0.924 -22.206 0.378 67.474
19717.167 0.379 67.44 0.923 -22.242 0.923 -22.242 0.379 67.44
19742.125 0.379 67.405 0.923 -22.277 0.923 -22.277 0.379 67.405
19767.083 0.38 67.37 0.923 -22.312 0.923 -22.312 0.38 67.37
19792.042 0.38 67.335 0.923 -22.348 0.923 -22.348 0.38 67.335
19817 0.381 67.3 0.923 -22.383 0.923 -22.383 0.381 67.3
19841.958 0.381 67.266 0.922 -22.418 0.922 -22.418 0.381 67.266
19866.917 0.382 67.231 0.922 -22.454 0.922 -22.454 0.382 67.231
19891.875 0.383 67.196 0.922 -22.489 0.922 -22.489 0.383 67.196
19916.833 0.383 67.162 0.922 -22.524 0.922 -22.524 0.383 67.162
19941.792 0.384 67.127 0.921 -22.559 0.921 -22.559 0.384 67.127
19966.75 0.384 67.092 0.921 -22.594 0.921 -22.594 0.384 67.092
19991.708 0.385 67.058 0.921 -22.629 0.921 -22.629 0.385 67.058
20016.667 0.385 67.023 0.921 -22.664 0.921 -22.664 0.385 67.023
20041.625 0.386 66.989 0.92 -22.699 0.92 -22.699 0.386 66.989
20066.583 0.386 66.954 0.92 -22.734 0.92 -22.734 0.386 66.954
20091.542 0.387 66.92 0.92 -22.769 0.92 -22.769 0.387 66.92
20116.5 0.388 66.886 0.92 -22.804 0.92 -22.804 0.388 66.886
20141.458 0.388 66.851 0.92 -22.839 0.92 -22.839 0.388 66.851
20166.417 0.389 66.817 0.919 -22.874 0.919 -22.874 0.389 66.817
20191.375 0.389 66.782 0.919 -22.909 0.919 -22.909 0.389 66.782
20216.333 0.39 66.748 0.919 -22.944 0.919 -22.944 0.39 66.748
20241.292 0.39 66.714 0.919 -22.979 0.919 -22.979 0.39 66.714
20266.25 0.391 66.68 0.918 -23.013 0.918 -23.013 0.391 66.68
20291.208 0.392 66.645 0.918 -23.048 0.918 -23.048 0.392 66.645
20316.167 0.392 66.611 0.918 -23.083 0.918 -23.083 0.392 66.611
20341.125 0.393 66.577 0.918 -23.118 0.918 -23.118 0.393 66.577
20366.083 0.393 66.543 0.917 -23.152 0.917 -23.152 0.393 66.543
20391.042 0.394 66.509 0.917 -23.187 0.917 -23.187 0.394 66.509
20416 0.394 66.475 0.917 -23.221 0.917 -23.221 0.394 66.475
20440.958 0.395 66.441 0.917 -23.256 0.917 -23.256 0.395 66.441
20465.917 0.395 66.407 0.916 -23.291 0.916 -23.291 0.395 66.407
20490.875 0.396 66.373 0.916 -23.325 0.916 -23.325 0.396 66.373
20515.833 0.397 66.339 0.916 -23.36 0.916 -23.36 0.397 66.339
20540.792 0.397 66.305 0.916 -23.394 0.916 -23.394 0.397 66.305
20565.75 0.398 66.271 0.915 -23.428 0.915 -23.428 0.398 66.271
20590.708 0.398 66.237 0.915 -23.463 0.915 -23.463 0.398 66.237
20615.667 0.399 66.203 0.915 -23.497 0.915 -23.497 0.399 66.203
20640.625 0.399 66.169 0.915 -23.532 0.915 -23.532 0.399 66.169
20665.583 0.4 66.135 0.915 -23.566 0.915 -23.566 0.4 66.135
20690.542 0.4 66.101 0.914 -23.6 0.914 -23.6 0.4 66.101
20715.5 0.401 66.068 0.914 -23.634 0.914 -23.634 0.401 66.068
20740.458 0.401 66.034 0.914 -23.669 0.914 -23.669 0.401 66.034
20765.417 0.402 66 0.914 -23.703 0.914 -23.703 0.402 66
20790.375 0.403 65.967 0.913 -23.737 0.913 -23.737 0.403 65.967
20815.333 0.403 65.933 0.913 -23.771 0.913 -23.771 0.403 65.933
20840.292 0.404 65.899 0.913 -23.805 0.913 -23.805 0.404 65.899
20865.25 0.404 65.866 0.913 -23.839 0.913 -23.839 0.404 65.866
20890.208 0.405 65.832 0.912 -23.873 0.912 -23.873 0.405 65.832
20915.167 0.405 65.799 0.912 -23.907 0.912 -23.907 0.405 65.799
20940.125 0.406 65.765 0.912 -23.941 0.912 -23.941 0.406 65.765
20965.083 0.406 65.732 0.912 -23.975 0.912 -23.975 0.406 65.732
20990.042 0.407 65.698 0.911 -24.009 0.911 -24.009 0.407 65.698
21015 0.407 65.665 0.911 -24.043 0.911 -24.043 0.407 65.665
21039.958 0.408 65.631 0.911 -24.077 0.911 -24.077 0.408 65.631
21064.917 0.409 65.598 0.911 -24.111 0.911 -24.111 0.409 65.598
21089.875 0.409 65.564 0.91 -24.145 0.91 -24.145 0.409 65.564
21114.833 0.41 65.531 0.91 -24.179 0.91 -24.179 0.41 65.531
21139.792 0.41 65.498 0.91 -24.212 0.91 -24.212 0.41 65.498
21164.75 0.411 65.465 0.91 -24.246 0.91 -24.246 0.411 65.465
21189.708 0.411 65.431 0.909 -24.28 0.909 -24.28 0.411 65.431
21214.667 0.412 65.398 0.909 -24.313 0.909 -24.313 0.412 65.398
21239.625 0.412 65.365 0.909 -24.347 0.909 -24.347 0.412 65.365
21264.583 0.413 65.332 0.909 -24.381 0.909 -24.381 0.413 65.332
21289.542 0.413 65.298 0.909 -24.414 0.909 -24.414 0.413 65.298
21314.5 0.414 65.265 0.908 -24.448 0.908 -24.448 0.414 65.265
21339.458 0.414 65.232 0.908 -24.481 0.908 -24.481 0.414 65.232
21364.417 0.415 65.199 0.908 -24.515 0.908 -24.515 0.415 65.199
21389.375 0.415 65.166 0.908 -24.548 0.908 -24.548 0.415 65.166
21414.333 0.416 65.133 0.907 -24.582 0.907 -24.582 0.416 65.133
21439.292 0.417 65.1 0.907 -24.615 0.907 -24.615 0.417 65.1
21464.25 0.417 65.067 0.907 -24.649 0.907 -24.649 0.417 65.067
21489.208 0.418 65.034 0.907 -24.682 0.907 -24.682 0.418 65.034
21514.167 0.418 65.001 0.906 -24.715 0.906 -24.715 0.418 65.001
21539.125 0.419 64.968 0.906 -24.749 0.906 -24.749 0.419 64.968
21564.083 0.419 64.935 0.906 -24.782 0.906 -24.782 0.419 64.935
21589.042 0.42 64.903 0.906 -24.815 0.906 -24.815 0.42 64.903
21614 0.42 64.87 0.905 -24.849 0.905 -24.849 0.42 64.87
21638.958 0.421 64.837 0.905 -24.882 0.905 -24.882 0.421 64.837
21663.917 0.421 64.804 0.905 -24.915 0.905 -24.915 0.421 64.804
21688.875 0.422 64.772 0.905 -24.948 0.905 -24.948 0.422 64.772
21713.833 0.422 64.739 0.904 -24.981 0.904 -24.981 0.422 64.739
21738.792 0.423 64.706 0.904 -25.014 0.904 -25.014 0.423 64.706
21763.75 0.423 64.673 0.904 -25.048 0.904 -25.048 0.423 64.673
21788.708 0.424 64.641 0.904 -25.081 0.904 -25.081 0.424 64.641
21813.667 0.424 64.608 0.903 -25.114 0.903 -25.114 0.424 64.608
21838.625 0.425 64.576 0.903 -25.147 0.903 -25.147 0.425 64.576
21863.583 0.425 64.543 0.903 -25.18 0.903 -25.18 0.425 64.543
21888.542 0.426 64.511 0.903 -25.213 0.903 -25.213 0.426 64.511
21913.5 0.427 64.478 0.902 -25.246 0.902 -25.246 0.427 64.478
21938.458 0.427 64.446 0.902 -25.278 0.902 -25.278 0.427 64.446
21963.417 0.428 64.413 0.902 -25.311 0.902 -25.311 0.428 64.413
21988.375 0.428 64.381 0.902 -25.344 0.902 -25.344 0.428 64.381
22013.333 0.429 64.348 0.901 -25.377 0.901 -25.377 0.429 64.348
22038.292 0.429 64.316 0.901 -25.41 0.901 -25.41 0.429 64.316
22063.25 0.43 64.283 0.901 -25.442 0.901 -25.442 0.43 64.283
22088.208 0.43 64.251 0.901 -25.475 0.901 -25.475 0.43 64.251
22113.167 0.431 64.219 0.9 -25.508 0.9 -25.508 0.431 64.219
22138.125 0.431 64.187 0.9 -25.541 0.9 -25.541 0.431 64.187
22163.083 0.432 64.154 0.9 -25.573 0.9 -25.573 0.432 64.154
22188.042 0.432 64.122 0.9 -25.606 0.9 -25.606 0.432 64.122
22213 0.433 64.09 0.899 -25.639 0.899 -25.639 0.433 64.09
22237.958 0.433 64.058 0.899 -25.671 0.899 -25.671 0.433 64.058
22262.917 0.434 64.025 0.899 -25.704 0.899 -25.704 0.434 64.025
22287.875 0.434 63.993 0.899 -25.736 0.899 -25.736 0.434 63.993
22312.833 0.435 63.961 0.899 -25.769 0.899 -25.769 0.435 63.961
22337.792 0.435 63.929 0.898 -25.801 0.898 -25.801 0.435 63.929
22362.75 0.436 63.897 0.898 -25.834 0.898 -25.834 0.436 63.897
22387.708 0.436 63.865 0.898 -25.866 0.898 -25.866 0.436 63.865
22412.667 0.437 63.833 0.898 -25.898 0.898 -25.898 0.437 63.833
22437.625 0.437 63.801 0.897 -25.931 0.897 -25.931 0.437 63.801
22462.583 0.438 63.769 0.897 -25.963 0.897 -25.963 0.438 63.769
22487.542 0.438 63.737 0.897 -25.995 0.897 -25.995 0.438 63.737
22512.5 0.439 63.705 0.897 -26.028 0.897 -26.028 0.439 63.705
22537.458 0.439 63.673 0.896 -26.06 0.896 -26.06 0.439 63.673
22562.417 0.44 63.641 0.896 -26.092 0.896 -26.092 0.44 63.641
22587.375 0.44 63.61 0.896 -26.125 0.896 -26.125 0.44 63.61
22612.333 0.441 63.578 0.896 -26.157 0.896 -26.157 0.441 63.578
22637.292 0.441 63.546 0.895 -26.189 0.895 -26.189 0.441 63.546
22662.25 0.442 63.514 0.895 -26.221 0.895 -26.221 0.442 63.514
22687.208 0.442 63.483 0.895 -26.253 0.895 -26.253 0.442 63.483
22712.167 0.443 63.451 0.895 -26.285 0.895 -26.285 0.443 63.451
22737.125 0.443 63.419 0.894 -26.317 0.894 -26.317 0.443 63.419
22762.083 0.444 63.387 0.894 -26.349 0.894 -26.349 0.444 63.387
22787.042 0.444 63.356 0.894 -26.381 0.894 -26.381 0.444 63.356
22812 0.445 63.324 0.894 -26.413 0.894 -26.413 0.445 63.324
22836.958 0.445 63.293 0.893 -26.445 0.893 -26.445 0.445 63.293
22861.917 0.446 63.261 0.893 -26.477 0.893 -26.477 0.446 63.261
22886.875 0.446 63.229 0.893 -26.509 0.893 -26.509 0.446 63.229
22911.833 0.447 63.198 0.893 -26.541 0.893 -26.541 0.447 63.198
22936.792 0.447 63.166 0.892 -26.573 0.892 -26.573 0.447 63.166
22961.75 0.448 63.135 0.892 -26.605 0.892 -26.605 0.448 63.135
22986.708 0.448 63.104 0.892 -26.637 0.892 -26.637 0.448 63.104
23011.667 0.449 63.072 0.892 -26.668 0.892 -26.668 0.449 63.072
23036.625 0.449 63.041 0.891 -26.7 0.891 -26.7 0.449 63.041
23061.583 0.45 63.009 0.891 -26.732 0.891 -26.732 0.45 63.009
23086.542 0.45 62.978 0.891 -26.764 0.891 -26.764 0.45 62.978
23111.5 0.451 62.947 0.891 -26.795 0.891 -26.795 0.451 62.947
23136.458 0.451 62.915 0.89 -26.827 0.89 -26.827 0.451 62.915
23161.417 0.452 62.884 0.89 -26.858 0.89 -26.858 0.452 62.884
23186.375 0.452 62.853 0.89 -26.89 0.89 -26.89 0.452 62.853
23211.333 0.453 62.822 0.89 -26.922 0.89 -26.922 0.453 62.822
23236.292 0.453 62.79 0.889 -26.953 0.889 -26.953 0.453 62.79
23261.25 0.454 62.759 0.889 -26.985 0.889 -26.985 0.454 62.759
23286.208 0.454 62.728 0.889 -27.016 0.889 -27.016 0.454 62.728
23311.167 0.455 62.697 0.889 -27.048 0.889 -27.048 0.455 62.697
23336.125 0.455 62.666 0.888 -27.079 0.888 -27.079 0.455 62.666
23361.083 0.456 62.635 0.888 -27.111 0.888 -27.111 0.456 62.635
23386.042 0.456 62.604 0.888 -27.142 0.888 -27.142 0.456 62.604
23411 0.457 62.573 0.888 -27.173 0.888 -27.173 0.457 62.573
23435.958 0.457 62.542 0.887 -27.205 0.887 -27.205 0.457 62.542
23460.917 0.458 62.511 0.887 -27.236 0.887 -27.236 0.458 62.511
23485.875 0.458 62.48 0.887 -27.267 0.887 -27.267 0.458 62.48
23510.833 0.459 62.449 0.887 -27.299 0.887 -27.299 0.459 62.449
23535.792 0.459 62.418 0.886 -27.33 0.886 -27.33 0.459 62.418
23560.75 0.46 62.387 0.886 -27.361 0.886 -27.361 0.46 62.387
23585.708 0.46 62.356 0.886 -27.392 0.886 -27.392 0.46 62.356
23610.667 0.461 62.325 0.886 -27.424 0.886 -27.424 0.461 62.325
23635.625 0.461 62.294 0.885 -27.455 0.885 -27.455 0.461 62.294
23660.583 0.462 62.263 0.885 -27.486 0.885 -27.486 0.462 62.263
23685.542 0.462 62.233 0.885 -27.517 0.885 -27.517 0.462 62.233
23710.5 0.462 62.202 0.885 -27.548 0.885 -27.548 0.462 62.202
23735.458 0.463 62.171 0.884 -27.579 0.884 -27.579 0.463 62.171
23760.417 0.463 62.14 0.884 -27.61 0.884 -27.61 0.463 62.14
23785.375 0.464 62.11 0.884 -27.641 0.884 -27.641 0.464 62.11
23810.333 0.464 62.079 0.884 -27.672 0.884 -27.672 0.464 62.079
23835.292 0.465 62.048 0.883 -27.703 0.883 -27.703 0.465 62.048
23860.25 0.465 62.018 0.883 -27.734 0.883 -27.734 0.465 62.018
23885.208 0.466 61.987 0.883 -27.765 0.883 -27.765 0.466 61.987
23910.167 0.466 61.957 0.883 -27.796 0.883 -27.796 0.466 61.957
23935.125 0.467 61.926 0.882 -27.827 0.882 -27.827 0.467 61.926
23960.083 0.467 61.896 0.882 -27.858 0.882 -27.858 0.467 61.896
23985.042 0.468 61.865 0.882 -27.889 0.882 -27.889 0.468 61.865
24010 0.468 61.835 0.882 -27.919 0.882 -27.919 0.468 61.835
24034.958 0.469 61.804 0.881 -27.95 0.881 -27.95 0.469 61.804
24059.917 0.469 61.774 0.881 -27.981 0.881 -27.981 0.469 61.774
24084.875 0.47 61.743 0.881 -28.012 0.881 -28.012 0.47 61.743
24109.833 0.47 61.713 0.881 -28.042 0.881 -28.042 0.47 61.713
24134.792 0.471 61.682 0.88 -28.073 0.88 -28.073 0.471 61.682
24159.75 0.471 61.652 0.88 -28.104 0.88 -28.104 0.471 61.652
24184.708 0.472 61.622 0.88 -28.134 0.88 -28.134 0.472 61.622
24209.667 0.472 61.591 0.88 -28.165 0.88 -28.165 0.472 61.591
24234.625 0.472 61.561 0.879 -28.196 0.879 -28.196 0.472 61.561
24259.583 0.473 61.531 0.879 -28.226 0.879 -28.226 0.473 61.531
24284.542 0.473 61.501 0.879 -28.257 0.879 -28.257 0.473 61.501
24309.5 0.474 61.471 0.879 -28.287 0.879 -28.287 0.474 61.471
24334.458 0.474 61.44 0.878 -28.318 0.878 -28.318 0.474 61.44
24359.417 0.475 61.41 0.878 -28.348 0.878 -28.348 0.475 61.41
24384.375 0.475 61.38 0.878 -28.379 0.878 -28.379 0.475 61.38
24409.333 0.476 61.35 0.878 -28.409 0.878 -28.409 0.476 61.35
24434.292 0.476 61.32 0.877 -28.439 0.877 -28.439 0.476 61.32
24459.25 0.477 61.29 0.877 -28.47 0.877 -28.47 0.477 61.29
24484.208 0.477 61.26 0.877 -28.5 0.877 -28.5 0.477 61.26
24509.167 0.478 61.23 0.877 -28.531 0.877 -28.531 0.478 61.23
24534.125 0.478 61.2 0.876 -28.561 0.876 -28.561 0.478 61.2
24559.083 0.479 61.17 0.876 -28.591 0.876 -28.591 0.479 61.17
24584.042 0.479 61.14 0.876 -28.621 0.876 -28.621 0.479 61.14
24609 0.479 61.11 0.876 -28.652 0.876 -28.652 0.479 61.11
24633.958 0.48 61.08 0.875 -28.682 0.875 -28.682 0.48 61.08
24658.917 0.48 61.05 0.875 -28.712 0.875 -28.712 0.48 61.05
24683.875 0.481 61.02 0.875 -28.742 0.875 -28.742 0.481 61.02
24708.833 0.481 60.99 0.875 -28.772 0.875 -28.772 0.481 60.99
24733.792 0.482 60.96 0.874 -28.802 0.874 -28.802 0.482 60.96
24758.75 0.482 60.931 0.874 -28.833 0.874 -28.833 0.482 60.931
24783.708 0.483 60.901 0.874 -28.863 0.874 -28.863 0.483 60.901
24808.667 0.483 60.871 0.874 -28.893 0.874 -28.893 0.483 60.871
24833.625 0.484 60.841 0.873 -28.923 0.873 -28.923 0.484 60.841
24858.583 0.484 60.812 0.873 -28.953 0.873 -28.953 0.484 60.812
24883.542 0.485 60.782 0.873 -28.983 0.873 -28.983 0.485 60.782
24908.5 0.485 60.752 0.873 -29.013 0.873 -29.013 0.485 60.752
24933.458 0.485 60.723 0.872 -29.043 0.872 -29.043 0.485 60.723
24958.417 0.486 60.693 0.872 -29.073 0.872 -29.073 0.486 60.693
24983.375 0.486 60.663 0.872 -29.102 0.872 -29.102 0.486 60.663
25008.333 0.487 60.634 0.872 -29.132 0.872 -29.132 0.487 60.634
25033.292 0.487 60.604 0.871 -29.162 0.871 -29.162 0.487 60.604
25058.25 0.488 60.575 0.871 -29.192 0.871 -29.192 0.488 60.575
25083.208 0.488 60.545 0.871 -29.222 0.871 -29.222 0.488 60.545
25108.167 0.489 60.516 0.87 -29.252 0.87 -29.252 0.489 60.516
25133.125 0.489 60.486 0.87 -29.281 0.87 -29.281 0.489 60.486
25158.083 0.49 60.457 0.87 -29.311 0.87 -29.311 0.49 60.457
25183.042 0.49 60.427 0.87 -29.341 0.87 -29.341 0.49 60.427
25208 0.49 60.398 0.869 -29.37 0.869 -29.37 0.49 60.398
25232.958 0.491 60.369 0.869 -29.4 0.869 -29.4 0.491 60.369
25257.917 0.491 60.339 0.869 -29.43 0.869 -29.43 0.491 60.339
25282.875 0.492 60.31 0.869 -29.459 0.869 -29.459 0.492 60.31
25307.833 0.492 60.281 0.868 -29.489 0.868 -29.489 0.492 60.281
25332.792 0.493 60.251 0.868 -29.518 0.868 -29.518 0.493 60.251
25357.75 0.493 60.222 0.868 -29.548 0.868 -29.548 0.493 60.222
25382.708 0.494 60.193 0.868 -29.578 0.868 -29.578 0.494 60.193
25407.667 0.494 60.163 0.867 -29.607 0.867 -29.607 0.494 60.163
25432.625 0.495 60.134 0.867 -29.637 0.867 -29.637 0.495 60.134
25457.583 0.495 60.105 0.867 -29.666 0.867 -29.666 0.495 60.105
25482.542 0.495 60.076 0.867 -29.695 0.867 -29.695 0.495 60.076
25507.5 0.496 60.047 0.866 -29.725 0.866 -29.725 0.496 60.047
25532.458 0.496 60.018 0.866 -29.754 0.866 -29.754 0.496 60.018
25557.417 0.497 59.989 0.866 -29.784 0.866 -29.784 0.497 59.989
25582.375 0.497 59.959 0.866 -29.813 0.866 -29.813 0.497 59.959
25607.333 0.498 59.93 0.865 -29.842 0.865 -29.842 0.498 59.93
25632.292 0.498 59.901 0.865 -29.872 0.865 -29.872 0.498 59.901
25657.25 0.499 59.872 0.865 -29.901 0.865 -29.901 0.499 59.872
25682.208 0.499 59.843 0.865 -29.93 0.865 -29.93 0.499 59.843
25707.167 0.499 59.814 0.864 -29.959 0.864 -29.959 0.499 59.814
25732.125 0.5 59.785 0.864 -29.989 0.864 -29.989 0.5 59.785
25757.083 0.5 59.757 0.864 -30.018 0.864 -30.018 0.5 59.757
25782.042 0.501 59.728 0.864 -30.047 0.864 -30.047 0.501 59.728
25807 0.501 59.699 0.863 -30.076 0.863 -30.076 0.501 59.699
25831.958 0.502 59.67 0.863 -30.105 0.863 -30.105 0.502 59.67
25856.917 0.502 59.641 0.863 -30.134 0.863 -30.134 0.502 59.641
25881.875 0.502 59.612 0.863 -30.163 0.863 -30.163 0.502 59.612
25906.833 0.503 59.583 0.862 -30.192 0.862 -30.192 0.503 59.583
25931.792 0.503 59.555 0.862 -30.222 0.862 -30.222 0.503 59.555
25956.75 0.504 59.526 0.862 -30.251 0.862 -30.251 0.504 59.526
25981.708 0.504 59.497 0.862 -30.28 0.862 -30.28 0.504 59.497
26006.667 0.505 59.468 0.861 -30.308 0.861 -30.308 0.505 59.468
26031.625 0.505 59.44 0.861 -30.337 0.861 -30.337 0.505 59.44
26056.583 0.506 59.411 0.861 -30.366 0.861 -30.366 0.506 59.411
26081.542 0.506 59.382 0.861 -30.395 0.861 -30.395 0.506 59.382
26106.5 0.506 59.354 0.86 -30.424 0.86 -30.424 0.506 59.354
26131.458 0.507 59.325 0.86 -30.453 0.86 -30.453 0.507 59.325
26156.417 0.507 59.297 0.86 -30.482 0.86 -30.482 0.507 59.297
26181.375 0.508 59.268 0.86 -30.511 0.86 -30.511 0.508 59.268
26206.333 0.508 59.24 0.859 -30.539 0.859 -30.539 0.508 59.24
26231.292 0.509 59.211 0.859 -30.568 0.859 -30.568 0.509 59.211
26256.25 0.509 59.183 0.859 -30.597 0.859 -30.597 0.509 59.183
26281.208 0.509 59.154 0.859 -30.626 0.859 -30.626 0.509 59.154
26306.167 0.51 59.126 0.858 -30.654 0.858 -30.654 0.51 59.126
26331.125 0.51 59.097 0.858 -30.683 0.858 -30.683 0.51 59.097
26356.083 0.511 59.069 0.858 -30.712 0.858 -30.712 0.511 59.069
26381.042 0.511 59.04 0.858 -30.74 0.858 -30.74 0.511 59.04
26406 0.512 59.012 0.857 -30.769 0.857 -30.769 0.512 59.012
26430.958 0.512 58.984 0.857 -30.798 0.857 -30.798 0.512 58.984
26455.917 0.512 58.955 0.857 -30.826 0.857 -30.826 0.512 58.955
26480.875 0.513 58.927 0.857 -30.855 0.857 -30.855 0.513 58.927
26505.833 0.513 58.899 0.856 -30.883 0.856 -30.883 0.513 58.899
26530.792 0.514 58.87 0.856 -30.912 0.856 -30.912 0.514 58.87
26555.75 0.514 58.842 0.856 -30.94 0.856 -30.94 0.514 58.842
26580.708 0.515 58.814 0.855 -30.969 0.855 -30.969 0.515 58.814
26605.667 0.515 58.786 0.855 -30.997 0.855 -30.997 0.515 58.786
26630.625 0.515 58.758 0.855 -31.026 0.855 -31.026 0.515 58.758
26655.583 0.516 58.729 0.855 -31.054 0.855 -31.054 0.516 58.729
26680.542 0.516 58.701 0.854 -31.083 0.854 -31.083 0.516 58.701
26705.5 0.517 58.673 0.854 -31.111 0.854 -31.111 0.517 58.673
26730.458 0.517 58.645 0.854 -31.139 0.854 -31.139 0.517 58.645
26755.417 0.518 58.617 0.854 -31.168 0.854 -31.168 0.518 58.617
26780.375 0.518 58.589 0.853 -31.196 0.853 -31.196 0.518 58.589
26805.333 0.518 58.561 0.853 -31.224 0.853 -31.224 0.518 58.561
26830.292 0.519 58.533 0.853 -31.252 0.853 -31.252 0.519 58.533
26855.25 0.519 58.505 0.853 -31.281 0.853 -31.281 0.519 58.505
26880.208 0.52 58.477 0.852 -31.309 0.852 -31.309 0.52 58.477
26905.167 0.52 58.449 0.852 -31.337 0.852 -31.337 0.52 58.449
26930.125 0.52 58.421 0.852 -31.365 0.852 -31.365 0.52 58.421
26955.083 0.521 58.393 0.852 -31.393 0.852 -31.393 0.521 58.393
26980.042 0.521 58.365 0.851 -31.422 0.851 -31.422 0.521 58.365
27005 0.522 58.337 0.851 -31.45 0.851 -31.45 0.522 58.337
27029.958 0.522 58.309 0.851 -31.478 0.851 -31.478 0.522 58.309
27054.917 0.523 58.281 0.851 -31.506 0.851 -31.506 0.523 58.281
27079.875 0.523 58.254 0.85 -31.534 0.85 -31.534 0.523 58.254
27104.833 0.523 58.226 0.85 -31.562 0.85 -31.562 0.523 58.226
27129.792 0.524 58.198 0.85 -31.59 0.85 -31.59 0.524 58.198
27154.75 0.524 58.17 0.85 -31.618 0.85 -31.618 0.524 58.17
27179.708 0.525 58.143 0.849 -31.646 0.849 -31.646 0.525 58.143
27204.667 0.525 58.115 0.849 -31.674 0.849 -31.674 0.525 58.115
27229.625 0.526 58.087 0.849 -31.702 0.849 -31.702 0.526 58.087
27254.583 0.526 58.06 0.849 -31.73 0.849 -31.73 0.526 58.06
27279.542 0.526 58.032 0.848 -31.757 0.848 -31.757 0.526 58.032
27304.5 0.527 58.004 0.848 -31.785 0.848 -31.785 0.527 58.004
27329.458 0.527 57.977 0.848 -31.813 0.848 -31.813 0.527 57.977
27354.417 0.528 57.949 0.848 -31.841 0.848 -31.841 0.528 57.949
27379.375 0.528 57.921 0.847 -31.869 0.847 -31.869 0.528 57.921
27404.333 0.528 57.894 0.847 -31.897 0.847 -31.897 0.528 57.894
27429.292 0.529 57.866 0.847 -31.924 0.847 -31.924 0.529 57.866
27454.25 0.529 57.839 0.847 -31.952 0.847 -31.952 0.529 57.839
27479.208 0.53 57.811 0.846 -31.98 0.846 -31.98 0.53 57.811
27504.167 0.53 57.784 0.846 -32.007 0.846 -32.007 0.53 57.784
27529.125 0.53 57.756 0.846 -32.035 0.846 -32.035 0.53 57.756
27554.083 0.531 57.729 0.846 -32.063 0.846 -32.063 0.531 57.729
27579.042 0.531 57.702 0.845 -32.09 0.845 -32.09 0.531 57.702
27604 0.532 57.674 0.845 -32.118 0.845 -32.118 0.532 57.674
27628.958 0.532 57.647 0.845 -32.146 0.845 -32.146 0.532 57.647
27653.917 0.532 57.62 0.845 -32.173 0.845 -32.173 0.532 57.62
27678.875 0.533 57.592 0.844 -32.201 0.844 -32.201 0.533 57.592
27703.833 0.533 57.565 0.844 -32.228 0.844 -32.228 0.533 57.565
27728.792 0.534 57.538 0.844 -32.256 0.844 -32.256 0.534 57.538
27753.75 0.534 57.51 0.843 -32.283 0.843 -32.283 0.534 57.51
27778.708 0.535 57.483 0.843 -32.311 0.843 -32.311 0.535 57.483
27803.667 0.535 57.456 0.843 -32.338 0.843 -32.338 0.535 57.456
27828.625 0.535 57.429 0.843 -32.366 0.843 -32.366 0.535 57.429
27853.583 0.536 57.401 0.842 -32.393 0.842 -32.393 0.536 57.401
27878.542 0.536 57.374 0.842 -32.42 0.842 -32.42 0.536 57.374
27903.5 0.537 57.347 0.842 -32.448 0.842 -32.448 0.537 57.347
27928.458 0.537 57.32 0.842 -32.475 0.842 -32.475 0.537 57.32
27953.417 0.537 57.293 0.841 -32.503 0.841 -32.503 0.537 57.293
27978.375 0.538 57.266 0.841 -32.53 0.841 -32.53 0.538 57.266
28003.333 0.538 57.239 0.841 -32.557 0.841 -32.557 0.538 57.239
28028.292 0.539 57.212 0.841 -32.584 0.841 -32.584 0.539 57.212
28053.25 0.539 57.185 0.84 -32.612 0.84 -32.612 0.539 57.185
28078.208 0.539 57.158 0.84 -32.639 0.84 -32.639 0.539 57.158
28103.167 0.54 57.131 0.84 -32.666 0.84 -32.666 0.54 57.131
28128.125 0.54 57.104 0.84 -32.693 0.84 -32.693 0.54 57.104
28153.083 0.541 57.077 0.839 -32.72 0.839 -32.72 0.541 57.077
28178.042 0.541 57.05 0.839 -32.748 0.839 -32.748 0.541 57.05
28203 0.541 57.023 0.839 -32.775 0.839 -32.775 0.541 57.023
28227.958 0.542 56.996 0.839 -32.802 0.839 -32.802 0.542 56.996
28252.917 0.542 56.969 0.838 -32.829 0.838 -32.829 0.542 56.969
28277.875 0.543 56.942 0.838 -32.856 0.838 -32.856 0.543 56.942
28302.833 0.543 56.915 0.838 -32.883 0.838 -32.883 0.543 56.915
28327.792 0.543 56.889 0.838 -32.91 0.838 -32.91 0.543 56.889
28352.75 0.544 56.862 0.837 -32.937 0.837 -32.937 0.544 56.862
28377.708 0.544 56.835 0.837 -32.964 0.837 -32.964 0.544 56.835
28402.667 0.545 56.808 0.837 -32.991 0.837 -32.991 0.545 56.808
28427.625 0.545 56.781 0.837 -33.018 0.837 -33.018 0.545 56.781
28452.583 0.545 56.755 0.836 -33.045 0.836 -33.045 0.545 56.755
28477.542 0.546 56.728 0.836 -33.072 0.836 -33.072 0.546 56.728
28502.5 0.546 56.701 0.836 -33.099 0.836 -33.099 0.546 56.701
28527.458 0.546 56.675 0.836 -33.125 0.836 -33.125 0.546 56.675
28552.417 0.547 56.648 0.835 -33.152 0.835 -33.152 0.547 56.648
28577.375 0.547 56.621 0.835 -33.179 0.835 -33.179 0.547 56.621
28602.333 0.548 56.595 0.835 -33.206 0.835 -33.206 0.548 56.595
28627.292 0.548 56.568 0.835 -33.233 0.835 -33.233 0.548 56.568
28652.25 0.548 56.542 0.834 -33.259 0.834 -33.259 0.548 56.542
28677.208 0.549 56.515 0.834 -33.286 0.834 -33.286 0.549 56.515
28702.167 0.549 56.489 0.834 -33.313 0.834 -33.313 0.549 56.489
28727.125 0.55 56.462 0.834 -33.34 0.834 -33.34 0.55 56.462
28752.083 0.55 56.436 0.833 -33.366 0.833 -33.366 0.55 56.436
28777.042 0.55 56.409 0.833 -33.393 0.833 -33.393 0.55 56.409
28802 0.551 56.383 0.833 -33.42 0.833 -33.42 0.551 56.383
28826.958 0.551 56.356 0.833 -33.446 0.833 -33.446 0.551 56.356
28851.917 0.552 56.33 0.832 -33.473 0.832 -33.473 0.552 56.33
28876.875 0.552 56.304 0.832 -33.499 0.832 -33.499 0.552 56.304
28901.833 0.552 56.277 0.832 -33.526 0.832 -33.526 0.552 56.277
28926.792 0.553 56.251 0.831 -33.553 0.831 -33.553 0.553 56.251
28951.75 0.553 56.224 0.831 -33.579 0.831 -33.579 0.553 56.224
28976.708 0.553 56.198 0.831 -33.606 0.831 -33.606 0.553 56.198
29001.667 0.554 56.172 0.831 -33.632 0.831 -33.632 0.554 56.172
29026.625 0.554 56.146 0.83 -33.659 0.83 -33.659 0.554 56.146
29051.583 0.555 56.119 0.83 -33.685 0.83 -33.685 0.555 56.119
29076.542 0.555 56.093 0.83 -33.712 0.83 -33.712 0.555 56.093
29101.5 0.555 56.067 0.83 -33.738 0.83 -33.738 0.555 56.067
29126.458 0.556 56.041 0.829 -33.764 0.829 -33.764 0.556 56.041
29151.417 0.556 56.014 0.829 -33.791 0.829 -33.791 0.556 56.014
29176.375 0.557 55.988 0.829 -33.817 0.829 -33.817 0.557 55.988
29201.333 0.557 55.962 0.829 -33.843 0.829 -33.843 0.557 55.962
29226.292 0.557 55.936 0.828 -33.87 0.828 -33.87 0.557 55.936
29251.25 0.558 55.91 0.828 -33.896 0.828 -33.896 0.558 55.91
29276.208 0.558 55.884 0.828 -33.922 0.828 -33.922 0.558 55.884
29301.167 0.558 55.858 0.828 -33.949 0.828 -33.949 0.558 55.858
29326.125 0.559 55.832 0.827 -33.975 0.827 -33.975 0.559 55.832
29351.083 0.559 55.806 0.827 -34.001 0.827 -34.001 0.559 55.806
29376.042 0.56 55.78 0.827 -34.027 0.827 -34.027 0.56 55.78
29401 0.56 55.754 0.827 -34.053 0.827 -34.053 0.56 55.754
29425.958 0.56 55.728 0.826 -34.08 0.826 -34.08 0.56 55.728
29450.917 0.561 55.702 0.826 -34.106 0.826 -34.106 0.561 55.702
29475.875 0.561 55.676 0.826 -34.132 0.826 -34.132 0.561 55.676
29500.833 0.561 55.65 0.826 -34.158 0.826 -34.158 0.561 55.65
29525.792 0.562 55.624 0.825 -34.184 0.825 -34.184 0.562 55.624
29550.75 0.562 55.598 0.825 -34.21 0.825 -34.21 0.562 55.598
29575.708 0.563 55.572 0.825 -34.236 0.825 -34.236 0.563 55.572
29600.667 0.563 55.546 0.825 -34.262 0.825 -34.262 0.563 55.546
29625.625 0.563 55.521 0.824 -34.288 0.824 -34.288 0.563 55.521
29650.583 0.564 55.495 0.824 -34.314 0.824 -34.314 0.564 55.495
29675.542 0.564 55.469 0.824 -34.34 0.824 -34.34 0.564 55.469
29700.5 0.564 55.443 0.824 -34.366 0.824 -34.366 0.564 55.443
29725.458 0.565 55.418 0.823 -34.392 0.823 -34.392 0.565 55.418
29750.417 0.565 55.392 0.823 -34.418 0.823 -34.418 0.565 55.392
29775.375 0.566 55.366 0.823 -34.444 0.823 -34.444 0.566 55.366
29800.333 0.566 55.34 0.823 -34.47 0.823 -34.47 0.566 55.34
29825.292 0.566 55.315 0.822 -34.496 0.822 -34.496 0.566 55.315
29850.25 0.567 55.289 0.822 -34.521 0.822 -34.521 0.567 55.289
29875.208 0.567 55.263 0.822 -34.547 0.822 -34.547 0.567 55.263
29900.167 0.567 55.238 0.822 -34.573 0.822 -34.573 0.567 55.238
29925.125 0.568 55.212 0.821 -34.599 0.821 -34.599 0.568 55.212
29950.083 0.568 55.187 0.821 -34.625 0.821 -34.625 0.568 55.187
29975.042 0.569 55.161 0.821 -34.65 0.821 -34.65 0.569 55.161
30000 0.569 55.136 0.821 -34.676 0.821 -34.676 0.569 55.136
