!	AVX Thin Film Operation 	Date: April 2014		
!	Description: Accu-P® Series, Thin Film  SMD RF Capacitor
!	Part Number: 04023K220FBSTR					
!
# MHZ S MA R 50

50 0.822 -34.666 0.569 55.317 0.569 55.317 0.822 -34.666
74.958 0.694 -46.055 0.72 43.92 0.72 43.92 0.694 -46.055
99.917 0.585 -54.159 0.811 35.808 0.811 35.808 0.585 -54.159
124.875 0.499 -60.007 0.866 29.951 0.866 29.951 0.499 -60.007
149.833 0.432 -64.347 0.901 25.603 0.901 25.603 0.432 -64.347
174.792 0.379 -67.663 0.925 22.278 0.925 22.278 0.379 -67.663
199.75 0.337 -70.264 0.941 19.668 0.941 19.668 0.337 -70.264
224.708 0.302 -72.354 0.953 17.57 0.953 17.57 0.302 -72.354
249.667 0.273 -74.066 0.962 15.849 0.962 15.849 0.273 -74.066
274.625 0.249 -75.493 0.968 14.413 0.968 14.413 0.249 -75.493
299.583 0.228 -76.7 0.973 13.197 0.973 13.197 0.228 -76.7
324.542 0.211 -77.735 0.977 12.153 0.977 12.153 0.211 -77.735
349.5 0.195 -78.631 0.98 11.248 0.98 11.248 0.195 -78.631
374.458 0.181 -79.416 0.983 10.454 0.983 10.454 0.181 -79.416
399.417 0.169 -80.108 0.985 9.752 0.985 9.752 0.169 -80.108
424.375 0.159 -80.724 0.987 9.126 0.987 9.126 0.159 -80.724
449.333 0.149 -81.276 0.988 8.565 0.988 8.565 0.149 -81.276
474.292 0.14 -81.773 0.99 8.057 0.99 8.057 0.14 -81.773
499.25 0.132 -82.223 0.991 7.597 0.991 7.597 0.132 -82.223
524.208 0.125 -82.633 0.992 7.176 0.992 7.176 0.125 -82.633
549.167 0.118 -83.009 0.993 6.789 0.993 6.789 0.118 -83.009
574.125 0.112 -83.353 0.993 6.433 0.993 6.433 0.112 -83.353
599.083 0.106 -83.671 0.994 6.104 0.994 6.104 0.106 -83.671
624.042 0.101 -83.965 0.994 5.798 0.994 5.798 0.101 -83.965
649 0.096 -84.239 0.995 5.512 0.995 5.512 0.096 -84.239
673.958 0.091 -84.493 0.995 5.245 0.995 5.245 0.091 -84.493
698.917 0.087 -84.73 0.996 4.995 0.996 4.995 0.087 -84.73
723.875 0.083 -84.952 0.996 4.759 0.996 4.759 0.083 -84.952
748.833 0.079 -85.16 0.996 4.537 0.996 4.537 0.079 -85.16
773.792 0.075 -85.355 0.997 4.327 0.997 4.327 0.075 -85.355
798.75 0.072 -85.539 0.997 4.128 0.997 4.128 0.072 -85.539
823.708 0.069 -85.712 0.997 3.939 0.997 3.939 0.069 -85.712
848.667 0.066 -85.875 0.997 3.759 0.997 3.759 0.066 -85.875
873.625 0.063 -86.029 0.998 3.587 0.998 3.587 0.063 -86.029
898.583 0.06 -86.175 0.998 3.423 0.998 3.423 0.06 -86.175
923.542 0.057 -86.312 0.998 3.266 0.998 3.266 0.057 -86.312
948.5 0.054 -86.442 0.998 3.116 0.998 3.116 0.054 -86.442
973.458 0.052 -86.565 0.998 2.971 0.998 2.971 0.052 -86.565
998.417 0.049 -86.681 0.998 2.833 0.998 2.833 0.049 -86.681
1023.375 0.047 -86.791 0.998 2.699 0.998 2.699 0.047 -86.791
1048.333 0.045 -86.894 0.999 2.57 0.999 2.57 0.045 -86.894
1073.292 0.043 -86.991 0.999 2.445 0.999 2.445 0.043 -86.991
1098.25 0.041 -87.083 0.999 2.325 0.999 2.325 0.041 -87.083
1123.208 0.039 -87.168 0.999 2.208 0.999 2.208 0.039 -87.168
1148.167 0.037 -87.247 0.999 2.095 0.999 2.095 0.037 -87.247
1173.125 0.035 -87.32 0.999 1.986 0.999 1.986 0.035 -87.32
1198.083 0.033 -87.387 0.999 1.88 0.999 1.88 0.033 -87.387
1223.042 0.031 -87.448 0.999 1.776 0.999 1.776 0.031 -87.448
1248 0.029 -87.502 0.999 1.676 0.999 1.676 0.029 -87.502
1272.958 0.028 -87.549 0.999 1.578 0.999 1.578 0.028 -87.549
1297.917 0.026 -87.588 0.999 1.482 0.999 1.482 0.026 -87.588
1322.875 0.024 -87.619 0.999 1.389 0.999 1.389 0.024 -87.619
1347.833 0.023 -87.64 0.999 1.299 0.999 1.299 0.023 -87.64
1372.792 0.021 -87.651 0.999 1.21 0.999 1.21 0.021 -87.651
1397.75 0.02 -87.65 0.999 1.123 0.999 1.123 0.02 -87.65
1422.708 0.018 -87.634 0.999 1.038 0.999 1.038 0.018 -87.634
1447.667 0.017 -87.602 0.999 0.955 0.999 0.955 0.017 -87.602
1472.625 0.015 -87.549 0.999 0.874 0.999 0.874 0.015 -87.549
1497.583 0.014 -87.471 0.999 0.794 0.999 0.794 0.014 -87.471
1522.542 0.013 -87.36 1 0.716 1 0.716 0.013 -87.36
1547.5 0.011 -87.205 1 0.639 1 0.639 0.011 -87.205
1572.458 9.85e-3 -86.993 1 0.564 1 0.564 9.85e-3 -86.993
1597.417 8.559e-3 -86.698 1 0.49 1 0.49 8.559e-3 -86.698
1622.375 7.291e-3 -86.281 1 0.417 1 0.417 7.291e-3 -86.281
1647.333 6.044e-3 -85.671 1 0.345 1 0.345 6.044e-3 -85.671
1672.292 4.819e-3 -84.727 1 0.275 1 0.275 4.819e-3 -84.727
1697.25 3.616e-3 -83.126 1 0.206 1 0.206 3.616e-3 -83.126
1722.208 2.437e-3 -79.94 1 0.138 1 0.138 2.437e-3 -79.94
1747.167 1.297e-3 -71.035 1 0.07 1 0.07 1.297e-3 -71.035
1772.125 425.7e-6 -9.487 1 4.022e-3 1 4.022e-3 425.7e-6 -9.487
1797.083 1.15e-3 68.516 1 -0.061 1 -0.061 1.15e-3 68.516
1822.042 2.235e-3 79.045 1 -0.126 1 -0.126 2.235e-3 79.045
1847 3.332e-3 82.57 1 -0.189 1 -0.189 3.332e-3 82.57
1871.958 4.421e-3 84.298 1 -0.252 1 -0.252 4.421e-3 84.298
1896.917 5.499e-3 85.306 1 -0.314 1 -0.314 5.499e-3 85.306
1921.875 6.565e-3 85.957 1 -0.375 1 -0.375 6.565e-3 85.957
1946.833 7.619e-3 86.405 1 -0.436 1 -0.436 7.619e-3 86.405
1971.792 8.661e-3 86.726 1 -0.496 1 -0.496 8.661e-3 86.726
1996.75 9.692e-3 86.962 1 -0.555 1 -0.555 9.692e-3 86.962
2021.708 0.011 87.14 1 -0.613 1 -0.613 0.011 87.14
2046.667 0.012 87.276 1 -0.671 1 -0.671 0.012 87.276
2071.625 0.013 87.38 0.999 -0.728 0.999 -0.728 0.013 87.38
2096.583 0.014 87.46 0.999 -0.785 0.999 -0.785 0.014 87.46
2121.542 0.015 87.521 0.999 -0.841 0.999 -0.841 0.015 87.521
2146.5 0.016 87.567 0.999 -0.897 0.999 -0.897 0.016 87.567
2171.458 0.017 87.6 0.999 -0.952 0.999 -0.952 0.017 87.6
2196.417 0.018 87.624 0.999 -1.006 0.999 -1.006 0.018 87.624
2221.375 0.019 87.64 0.999 -1.06 0.999 -1.06 0.019 87.64
2246.333 0.019 87.649 0.999 -1.114 0.999 -1.114 0.019 87.649
2271.292 0.02 87.652 0.999 -1.167 0.999 -1.167 0.02 87.652
2296.25 0.021 87.65 0.999 -1.22 0.999 -1.22 0.021 87.65
2321.208 0.022 87.645 0.999 -1.272 0.999 -1.272 0.022 87.645
2346.167 0.023 87.635 0.999 -1.324 0.999 -1.324 0.023 87.635
2371.125 0.024 87.623 0.999 -1.375 0.999 -1.375 0.024 87.623
2396.083 0.025 87.608 0.999 -1.426 0.999 -1.426 0.025 87.608
2421.042 0.026 87.59 0.999 -1.477 0.999 -1.477 0.026 87.59
2446 0.027 87.57 0.999 -1.527 0.999 -1.527 0.027 87.57
2470.958 0.028 87.549 0.999 -1.577 0.999 -1.577 0.028 87.549
2495.917 0.028 87.526 0.999 -1.627 0.999 -1.627 0.028 87.526
2520.875 0.029 87.502 0.999 -1.676 0.999 -1.676 0.029 87.502
2545.833 0.03 87.476 0.999 -1.725 0.999 -1.725 0.03 87.476
2570.792 0.031 87.449 0.999 -1.774 0.999 -1.774 0.031 87.449
2595.75 0.032 87.422 0.999 -1.822 0.999 -1.822 0.032 87.422
2620.708 0.033 87.393 0.999 -1.87 0.999 -1.87 0.033 87.393
2645.667 0.033 87.364 0.999 -1.918 0.999 -1.918 0.033 87.364
2670.625 0.034 87.334 0.999 -1.965 0.999 -1.965 0.034 87.334
2695.583 0.035 87.303 0.999 -2.012 0.999 -2.012 0.035 87.303
2720.542 0.036 87.272 0.999 -2.059 0.999 -2.059 0.036 87.272
2745.5 0.037 87.24 0.999 -2.106 0.999 -2.106 0.037 87.24
2770.458 0.038 87.208 0.999 -2.152 0.999 -2.152 0.038 87.208
2795.417 0.038 87.175 0.999 -2.198 0.999 -2.198 0.038 87.175
2820.375 0.039 87.142 0.999 -2.244 0.999 -2.244 0.039 87.142
2845.333 0.04 87.108 0.999 -2.29 0.999 -2.29 0.04 87.108
2870.292 0.041 87.075 0.999 -2.336 0.999 -2.336 0.041 87.075
2895.25 0.042 87.041 0.999 -2.381 0.999 -2.381 0.042 87.041
2920.208 0.042 87.006 0.999 -2.426 0.999 -2.426 0.042 87.006
2945.167 0.043 86.972 0.999 -2.471 0.999 -2.471 0.043 86.972
2970.125 0.044 86.937 0.999 -2.515 0.999 -2.515 0.044 86.937
2995.083 0.045 86.902 0.999 -2.56 0.999 -2.56 0.045 86.902
3020.042 0.045 86.867 0.999 -2.604 0.999 -2.604 0.045 86.867
3045 0.046 86.832 0.999 -2.648 0.999 -2.648 0.046 86.832
3069.958 0.047 86.797 0.998 -2.692 0.998 -2.692 0.047 86.797
3094.917 0.048 86.761 0.998 -2.735 0.998 -2.735 0.048 86.761
3119.875 0.048 86.725 0.998 -2.779 0.998 -2.779 0.048 86.725
3144.833 0.049 86.69 0.998 -2.822 0.998 -2.822 0.049 86.69
3169.792 0.05 86.654 0.998 -2.865 0.998 -2.865 0.05 86.654
3194.75 0.051 86.618 0.998 -2.908 0.998 -2.908 0.051 86.618
3219.708 0.051 86.582 0.998 -2.951 0.998 -2.951 0.051 86.582
3244.667 0.052 86.546 0.998 -2.994 0.998 -2.994 0.052 86.546
3269.625 0.053 86.51 0.998 -3.036 0.998 -3.036 0.053 86.51
3294.583 0.054 86.474 0.998 -3.079 0.998 -3.079 0.054 86.474
3319.542 0.054 86.438 0.998 -3.121 0.998 -3.121 0.054 86.438
3344.5 0.055 86.402 0.998 -3.163 0.998 -3.163 0.055 86.402
3369.458 0.056 86.366 0.998 -3.205 0.998 -3.205 0.056 86.366
3394.417 0.057 86.329 0.998 -3.247 0.998 -3.247 0.057 86.329
3419.375 0.057 86.293 0.998 -3.288 0.998 -3.288 0.057 86.293
3444.333 0.058 86.257 0.998 -3.33 0.998 -3.33 0.058 86.257
3469.292 0.059 86.22 0.998 -3.371 0.998 -3.371 0.059 86.22
3494.25 0.06 86.184 0.998 -3.412 0.998 -3.412 0.06 86.184
3519.208 0.06 86.148 0.998 -3.453 0.998 -3.453 0.06 86.148
3544.167 0.061 86.112 0.998 -3.494 0.998 -3.494 0.061 86.112
3569.125 0.062 86.075 0.998 -3.535 0.998 -3.535 0.062 86.075
3594.083 0.062 86.039 0.998 -3.576 0.998 -3.576 0.062 86.039
3619.042 0.063 86.003 0.998 -3.617 0.998 -3.617 0.063 86.003
3644 0.064 85.966 0.998 -3.657 0.998 -3.657 0.064 85.966
3668.958 0.064 85.93 0.997 -3.698 0.997 -3.698 0.064 85.93
3693.917 0.065 85.894 0.997 -3.738 0.997 -3.738 0.065 85.894
3718.875 0.066 85.857 0.997 -3.778 0.997 -3.778 0.066 85.857
3743.833 0.067 85.821 0.997 -3.818 0.997 -3.818 0.067 85.821
3768.792 0.067 85.785 0.997 -3.858 0.997 -3.858 0.067 85.785
3793.75 0.068 85.749 0.997 -3.898 0.997 -3.898 0.068 85.749
3818.708 0.069 85.712 0.997 -3.938 0.997 -3.938 0.069 85.712
3843.667 0.069 85.676 0.997 -3.978 0.997 -3.978 0.069 85.676
3868.625 0.07 85.64 0.997 -4.018 0.997 -4.018 0.07 85.64
3893.583 0.071 85.604 0.997 -4.057 0.997 -4.057 0.071 85.604
3918.542 0.071 85.567 0.997 -4.097 0.997 -4.097 0.071 85.567
3943.5 0.072 85.531 0.997 -4.136 0.997 -4.136 0.072 85.531
3968.458 0.073 85.495 0.997 -4.175 0.997 -4.175 0.073 85.495
3993.417 0.073 85.459 0.997 -4.214 0.997 -4.214 0.073 85.459
4018.375 0.074 85.423 0.997 -4.253 0.997 -4.253 0.074 85.423
4043.333 0.075 85.387 0.997 -4.293 0.997 -4.293 0.075 85.387
4068.292 0.076 85.351 0.997 -4.331 0.997 -4.331 0.076 85.351
4093.25 0.076 85.315 0.997 -4.37 0.997 -4.37 0.076 85.315
4118.208 0.077 85.279 0.997 -4.409 0.997 -4.409 0.077 85.279
4143.167 0.078 85.243 0.997 -4.448 0.997 -4.448 0.078 85.243
4168.125 0.078 85.207 0.997 -4.486 0.997 -4.486 0.078 85.207
4193.083 0.079 85.171 0.996 -4.525 0.996 -4.525 0.079 85.171
4218.042 0.08 85.135 0.996 -4.563 0.996 -4.563 0.08 85.135
4243 0.08 85.099 0.996 -4.602 0.996 -4.602 0.08 85.099
4267.958 0.081 85.063 0.996 -4.64 0.996 -4.64 0.081 85.063
4292.917 0.082 85.028 0.996 -4.678 0.996 -4.678 0.082 85.028
4317.875 0.082 84.992 0.996 -4.717 0.996 -4.717 0.082 84.992
4342.833 0.083 84.956 0.996 -4.755 0.996 -4.755 0.083 84.956
4367.792 0.084 84.92 0.996 -4.793 0.996 -4.793 0.084 84.92
4392.75 0.084 84.885 0.996 -4.831 0.996 -4.831 0.084 84.885
4417.708 0.085 84.849 0.996 -4.869 0.996 -4.869 0.085 84.849
4442.667 0.086 84.813 0.996 -4.907 0.996 -4.907 0.086 84.813
4467.625 0.086 84.778 0.996 -4.944 0.996 -4.944 0.086 84.778
4492.583 0.087 84.742 0.996 -4.982 0.996 -4.982 0.087 84.742
4517.542 0.088 84.706 0.996 -5.02 0.996 -5.02 0.088 84.706
4542.5 0.088 84.671 0.996 -5.057 0.996 -5.057 0.088 84.671
4567.458 0.089 84.635 0.996 -5.095 0.996 -5.095 0.089 84.635
4592.417 0.089 84.6 0.996 -5.132 0.996 -5.132 0.089 84.6
4617.375 0.09 84.564 0.996 -5.17 0.996 -5.17 0.09 84.564
4642.333 0.091 84.529 0.995 -5.207 0.995 -5.207 0.091 84.529
4667.292 0.091 84.493 0.995 -5.245 0.995 -5.245 0.091 84.493
4692.25 0.092 84.458 0.995 -5.282 0.995 -5.282 0.092 84.458
4717.208 0.093 84.422 0.995 -5.319 0.995 -5.319 0.093 84.422
4742.167 0.093 84.387 0.995 -5.356 0.995 -5.356 0.093 84.387
4767.125 0.094 84.352 0.995 -5.393 0.995 -5.393 0.094 84.352
4792.083 0.095 84.316 0.995 -5.43 0.995 -5.43 0.095 84.316
4817.042 0.095 84.281 0.995 -5.467 0.995 -5.467 0.095 84.281
4842 0.096 84.246 0.995 -5.504 0.995 -5.504 0.096 84.246
4866.958 0.097 84.211 0.995 -5.541 0.995 -5.541 0.097 84.211
4891.917 0.097 84.175 0.995 -5.578 0.995 -5.578 0.097 84.175
4916.875 0.098 84.14 0.995 -5.615 0.995 -5.615 0.098 84.14
4941.833 0.098 84.105 0.995 -5.652 0.995 -5.652 0.098 84.105
4966.792 0.099 84.07 0.995 -5.689 0.995 -5.689 0.099 84.07
4991.75 0.1 84.035 0.995 -5.725 0.995 -5.725 0.1 84.035
5016.708 0.1 84 0.995 -5.762 0.995 -5.762 0.1 84
5041.667 0.101 83.965 0.994 -5.798 0.994 -5.798 0.101 83.965
5066.625 0.102 83.93 0.994 -5.835 0.994 -5.835 0.102 83.93
5091.583 0.102 83.895 0.994 -5.871 0.994 -5.871 0.102 83.895
5116.542 0.103 83.86 0.994 -5.908 0.994 -5.908 0.103 83.86
5141.5 0.104 83.825 0.994 -5.944 0.994 -5.944 0.104 83.825
5166.458 0.104 83.79 0.994 -5.981 0.994 -5.981 0.104 83.79
5191.417 0.105 83.755 0.994 -6.017 0.994 -6.017 0.105 83.755
5216.375 0.105 83.72 0.994 -6.053 0.994 -6.053 0.105 83.72
5241.333 0.106 83.685 0.994 -6.09 0.994 -6.09 0.106 83.685
5266.292 0.107 83.65 0.994 -6.126 0.994 -6.126 0.107 83.65
5291.25 0.107 83.615 0.994 -6.162 0.994 -6.162 0.107 83.615
5316.208 0.108 83.58 0.994 -6.198 0.994 -6.198 0.108 83.58
5341.167 0.109 83.546 0.994 -6.234 0.994 -6.234 0.109 83.546
5366.125 0.109 83.511 0.994 -6.27 0.994 -6.27 0.109 83.511
5391.083 0.11 83.476 0.994 -6.306 0.994 -6.306 0.11 83.476
5416.042 0.11 83.441 0.993 -6.342 0.993 -6.342 0.11 83.441
5441 0.111 83.407 0.993 -6.378 0.993 -6.378 0.111 83.407
5465.958 0.112 83.372 0.993 -6.414 0.993 -6.414 0.112 83.372
5490.917 0.112 83.337 0.993 -6.45 0.993 -6.45 0.112 83.337
5515.875 0.113 83.303 0.993 -6.486 0.993 -6.486 0.113 83.303
5540.833 0.114 83.268 0.993 -6.521 0.993 -6.521 0.114 83.268
5565.792 0.114 83.233 0.993 -6.557 0.993 -6.557 0.114 83.233
5590.75 0.115 83.199 0.993 -6.593 0.993 -6.593 0.115 83.199
5615.708 0.115 83.164 0.993 -6.629 0.993 -6.629 0.115 83.164
5640.667 0.116 83.13 0.993 -6.664 0.993 -6.664 0.116 83.13
5665.625 0.117 83.095 0.993 -6.7 0.993 -6.7 0.117 83.095
5690.583 0.117 83.061 0.993 -6.735 0.993 -6.735 0.117 83.061
5715.542 0.118 83.026 0.993 -6.771 0.993 -6.771 0.118 83.026
5740.5 0.119 82.992 0.993 -6.807 0.993 -6.807 0.119 82.992
5765.458 0.119 82.957 0.992 -6.842 0.992 -6.842 0.119 82.957
5790.417 0.12 82.923 0.992 -6.877 0.992 -6.877 0.12 82.923
5815.375 0.12 82.889 0.992 -6.913 0.992 -6.913 0.12 82.889
5840.333 0.121 82.854 0.992 -6.948 0.992 -6.948 0.121 82.854
5865.292 0.122 82.82 0.992 -6.984 0.992 -6.984 0.122 82.82
5890.25 0.122 82.786 0.992 -7.019 0.992 -7.019 0.122 82.786
5915.208 0.123 82.751 0.992 -7.054 0.992 -7.054 0.123 82.751
5940.167 0.123 82.717 0.992 -7.09 0.992 -7.09 0.123 82.717
5965.125 0.124 82.683 0.992 -7.125 0.992 -7.125 0.124 82.683
5990.083 0.125 82.648 0.992 -7.16 0.992 -7.16 0.125 82.648
6015.042 0.125 82.614 0.992 -7.195 0.992 -7.195 0.125 82.614
6040 0.126 82.58 0.992 -7.23 0.992 -7.23 0.126 82.58
6064.958 0.126 82.546 0.992 -7.265 0.992 -7.265 0.126 82.546
6089.917 0.127 82.512 0.991 -7.301 0.991 -7.301 0.127 82.512
6114.875 0.128 82.477 0.991 -7.336 0.991 -7.336 0.128 82.477
6139.833 0.128 82.443 0.991 -7.371 0.991 -7.371 0.128 82.443
6164.792 0.129 82.409 0.991 -7.406 0.991 -7.406 0.129 82.409
6189.75 0.13 82.375 0.991 -7.441 0.991 -7.441 0.13 82.375
6214.708 0.13 82.341 0.991 -7.476 0.991 -7.476 0.13 82.341
6239.667 0.131 82.307 0.991 -7.511 0.991 -7.511 0.131 82.307
6264.625 0.131 82.273 0.991 -7.546 0.991 -7.546 0.131 82.273
6289.583 0.132 82.239 0.991 -7.58 0.991 -7.58 0.132 82.239
6314.542 0.133 82.205 0.991 -7.615 0.991 -7.615 0.133 82.205
6339.5 0.133 82.171 0.991 -7.65 0.991 -7.65 0.133 82.171
6364.458 0.134 82.137 0.991 -7.685 0.991 -7.685 0.134 82.137
6389.417 0.134 82.103 0.991 -7.72 0.991 -7.72 0.134 82.103
6414.375 0.135 82.069 0.99 -7.754 0.99 -7.754 0.135 82.069
6439.333 0.136 82.035 0.99 -7.789 0.99 -7.789 0.136 82.035
6464.292 0.136 82.001 0.99 -7.824 0.99 -7.824 0.136 82.001
6489.25 0.137 81.967 0.99 -7.859 0.99 -7.859 0.137 81.967
6514.208 0.137 81.933 0.99 -7.893 0.99 -7.893 0.137 81.933
6539.167 0.138 81.899 0.99 -7.928 0.99 -7.928 0.138 81.899
6564.125 0.139 81.866 0.99 -7.962 0.99 -7.962 0.139 81.866
6589.083 0.139 81.832 0.99 -7.997 0.99 -7.997 0.139 81.832
6614.042 0.14 81.798 0.99 -8.032 0.99 -8.032 0.14 81.798
6639 0.14 81.764 0.99 -8.066 0.99 -8.066 0.14 81.764
6663.958 0.141 81.73 0.99 -8.101 0.99 -8.101 0.141 81.73
6688.917 0.142 81.697 0.99 -8.135 0.99 -8.135 0.142 81.697
6713.875 0.142 81.663 0.989 -8.17 0.989 -8.17 0.142 81.663
6738.833 0.143 81.629 0.989 -8.204 0.989 -8.204 0.143 81.629
6763.792 0.143 81.595 0.989 -8.238 0.989 -8.238 0.143 81.595
6788.75 0.144 81.562 0.989 -8.273 0.989 -8.273 0.144 81.562
6813.708 0.144 81.528 0.989 -8.307 0.989 -8.307 0.144 81.528
6838.667 0.145 81.494 0.989 -8.342 0.989 -8.342 0.145 81.494
6863.625 0.146 81.461 0.989 -8.376 0.989 -8.376 0.146 81.461
6888.583 0.146 81.427 0.989 -8.41 0.989 -8.41 0.146 81.427
6913.542 0.147 81.393 0.989 -8.444 0.989 -8.444 0.147 81.393
6938.5 0.147 81.36 0.989 -8.479 0.989 -8.479 0.147 81.36
6963.458 0.148 81.326 0.989 -8.513 0.989 -8.513 0.148 81.326
6988.417 0.149 81.293 0.988 -8.547 0.988 -8.547 0.149 81.293
7013.375 0.149 81.259 0.988 -8.581 0.988 -8.581 0.149 81.259
7038.333 0.15 81.226 0.988 -8.616 0.988 -8.616 0.15 81.226
7063.292 0.15 81.192 0.988 -8.65 0.988 -8.65 0.15 81.192
7088.25 0.151 81.159 0.988 -8.684 0.988 -8.684 0.151 81.159
7113.208 0.152 81.125 0.988 -8.718 0.988 -8.718 0.152 81.125
7138.167 0.152 81.092 0.988 -8.752 0.988 -8.752 0.152 81.092
7163.125 0.153 81.058 0.988 -8.786 0.988 -8.786 0.153 81.058
7188.083 0.153 81.025 0.988 -8.82 0.988 -8.82 0.153 81.025
7213.042 0.154 80.991 0.988 -8.854 0.988 -8.854 0.154 80.991
7238 0.155 80.958 0.988 -8.888 0.988 -8.888 0.155 80.958
7262.958 0.155 80.924 0.987 -8.922 0.987 -8.922 0.155 80.924
7287.917 0.156 80.891 0.987 -8.956 0.987 -8.956 0.156 80.891
7312.875 0.156 80.858 0.987 -8.99 0.987 -8.99 0.156 80.858
7337.833 0.157 80.824 0.987 -9.024 0.987 -9.024 0.157 80.824
7362.792 0.157 80.791 0.987 -9.058 0.987 -9.058 0.157 80.791
7387.75 0.158 80.758 0.987 -9.092 0.987 -9.092 0.158 80.758
7412.708 0.159 80.724 0.987 -9.126 0.987 -9.126 0.159 80.724
7437.667 0.159 80.691 0.987 -9.16 0.987 -9.16 0.159 80.691
7462.625 0.16 80.658 0.987 -9.194 0.987 -9.194 0.16 80.658
7487.583 0.16 80.624 0.987 -9.228 0.987 -9.228 0.16 80.624
7512.542 0.161 80.591 0.987 -9.261 0.987 -9.261 0.161 80.591
7537.5 0.162 80.558 0.986 -9.295 0.986 -9.295 0.162 80.558
7562.458 0.162 80.525 0.986 -9.329 0.986 -9.329 0.162 80.525
7587.417 0.163 80.491 0.986 -9.363 0.986 -9.363 0.163 80.491
7612.375 0.163 80.458 0.986 -9.396 0.986 -9.396 0.163 80.458
7637.333 0.164 80.425 0.986 -9.43 0.986 -9.43 0.164 80.425
7662.292 0.164 80.392 0.986 -9.464 0.986 -9.464 0.164 80.392
7687.25 0.165 80.359 0.986 -9.498 0.986 -9.498 0.165 80.359
7712.208 0.166 80.325 0.986 -9.531 0.986 -9.531 0.166 80.325
7737.167 0.166 80.292 0.986 -9.565 0.986 -9.565 0.166 80.292
7762.125 0.167 80.259 0.986 -9.598 0.986 -9.598 0.167 80.259
7787.083 0.167 80.226 0.985 -9.632 0.985 -9.632 0.167 80.226
7812.042 0.168 80.193 0.985 -9.666 0.985 -9.666 0.168 80.193
7837 0.168 80.16 0.985 -9.699 0.985 -9.699 0.168 80.16
7861.958 0.169 80.127 0.985 -9.733 0.985 -9.733 0.169 80.127
7886.917 0.17 80.094 0.985 -9.766 0.985 -9.766 0.17 80.094
7911.875 0.17 80.061 0.985 -9.8 0.985 -9.8 0.17 80.061
7936.833 0.171 80.028 0.985 -9.833 0.985 -9.833 0.171 80.028
7961.792 0.171 79.995 0.985 -9.867 0.985 -9.867 0.171 79.995
7986.75 0.172 79.962 0.985 -9.9 0.985 -9.9 0.172 79.962
8011.708 0.173 79.929 0.985 -9.934 0.985 -9.934 0.173 79.929
8036.667 0.173 79.896 0.984 -9.967 0.984 -9.967 0.173 79.896
8061.625 0.174 79.863 0.984 -10.001 0.984 -10.001 0.174 79.863
8086.583 0.174 79.83 0.984 -10.034 0.984 -10.034 0.174 79.83
8111.542 0.175 79.797 0.984 -10.068 0.984 -10.068 0.175 79.797
8136.5 0.175 79.764 0.984 -10.101 0.984 -10.101 0.175 79.764
8161.458 0.176 79.731 0.984 -10.134 0.984 -10.134 0.176 79.731
8186.417 0.177 79.698 0.984 -10.168 0.984 -10.168 0.177 79.698
8211.375 0.177 79.665 0.984 -10.201 0.984 -10.201 0.177 79.665
8236.333 0.178 79.632 0.984 -10.234 0.984 -10.234 0.178 79.632
8261.292 0.178 79.6 0.984 -10.268 0.984 -10.268 0.178 79.6
8286.25 0.179 79.567 0.983 -10.301 0.983 -10.301 0.179 79.567
8311.208 0.179 79.534 0.983 -10.334 0.983 -10.334 0.179 79.534
8336.167 0.18 79.501 0.983 -10.367 0.983 -10.367 0.18 79.501
8361.125 0.181 79.468 0.983 -10.401 0.983 -10.401 0.181 79.468
8386.083 0.181 79.435 0.983 -10.434 0.983 -10.434 0.181 79.435
8411.042 0.182 79.403 0.983 -10.467 0.983 -10.467 0.182 79.403
8436 0.182 79.37 0.983 -10.5 0.983 -10.5 0.182 79.37
8460.958 0.183 79.337 0.983 -10.533 0.983 -10.533 0.183 79.337
8485.917 0.183 79.304 0.983 -10.567 0.983 -10.567 0.183 79.304
8510.875 0.184 79.272 0.983 -10.6 0.983 -10.6 0.184 79.272
8535.833 0.185 79.239 0.982 -10.633 0.982 -10.633 0.185 79.239
8560.792 0.185 79.206 0.982 -10.666 0.982 -10.666 0.185 79.206
8585.75 0.186 79.173 0.982 -10.699 0.982 -10.699 0.186 79.173
8610.708 0.186 79.141 0.982 -10.732 0.982 -10.732 0.186 79.141
8635.667 0.187 79.108 0.982 -10.765 0.982 -10.765 0.187 79.108
8660.625 0.187 79.075 0.982 -10.798 0.982 -10.798 0.187 79.075
8685.583 0.188 79.043 0.982 -10.831 0.982 -10.831 0.188 79.043
8710.542 0.188 79.01 0.982 -10.864 0.982 -10.864 0.188 79.01
8735.5 0.189 78.978 0.982 -10.897 0.982 -10.897 0.189 78.978
8760.458 0.19 78.945 0.981 -10.93 0.981 -10.93 0.19 78.945
8785.417 0.19 78.912 0.981 -10.963 0.981 -10.963 0.19 78.912
8810.375 0.191 78.88 0.981 -10.996 0.981 -10.996 0.191 78.88
8835.333 0.191 78.847 0.981 -11.029 0.981 -11.029 0.191 78.847
8860.292 0.192 78.815 0.981 -11.062 0.981 -11.062 0.192 78.815
8885.25 0.192 78.782 0.981 -11.095 0.981 -11.095 0.192 78.782
8910.208 0.193 78.75 0.981 -11.128 0.981 -11.128 0.193 78.75
8935.167 0.194 78.717 0.981 -11.161 0.981 -11.161 0.194 78.717
8960.125 0.194 78.685 0.981 -11.194 0.981 -11.194 0.194 78.685
8985.083 0.195 78.652 0.98 -11.227 0.98 -11.227 0.195 78.652
9010.042 0.195 78.62 0.98 -11.26 0.98 -11.26 0.195 78.62
9035 0.196 78.587 0.98 -11.292 0.98 -11.292 0.196 78.587
9059.958 0.196 78.555 0.98 -11.325 0.98 -11.325 0.196 78.555
9084.917 0.197 78.522 0.98 -11.358 0.98 -11.358 0.197 78.522
9109.875 0.198 78.49 0.98 -11.391 0.98 -11.391 0.198 78.49
9134.833 0.198 78.457 0.98 -11.424 0.98 -11.424 0.198 78.457
9159.792 0.199 78.425 0.98 -11.456 0.98 -11.456 0.199 78.425
9184.75 0.199 78.392 0.98 -11.489 0.98 -11.489 0.199 78.392
9209.708 0.2 78.36 0.979 -11.522 0.979 -11.522 0.2 78.36
9234.667 0.2 78.328 0.979 -11.555 0.979 -11.555 0.2 78.328
9259.625 0.201 78.295 0.979 -11.587 0.979 -11.587 0.201 78.295
9284.583 0.201 78.263 0.979 -11.62 0.979 -11.62 0.201 78.263
9309.542 0.202 78.231 0.979 -11.653 0.979 -11.653 0.202 78.231
9334.5 0.203 78.198 0.979 -11.685 0.979 -11.685 0.203 78.198
9359.458 0.203 78.166 0.979 -11.718 0.979 -11.718 0.203 78.166
9384.417 0.204 78.134 0.979 -11.751 0.979 -11.751 0.204 78.134
9409.375 0.204 78.101 0.979 -11.783 0.979 -11.783 0.204 78.101
9434.333 0.205 78.069 0.978 -11.816 0.978 -11.816 0.205 78.069
9459.292 0.205 78.037 0.978 -11.848 0.978 -11.848 0.205 78.037
9484.25 0.206 78.005 0.978 -11.881 0.978 -11.881 0.206 78.005
9509.208 0.206 77.972 0.978 -11.914 0.978 -11.914 0.206 77.972
9534.167 0.207 77.94 0.978 -11.946 0.978 -11.946 0.207 77.94
9559.125 0.208 77.908 0.978 -11.979 0.978 -11.979 0.208 77.908
9584.083 0.208 77.876 0.978 -12.011 0.978 -12.011 0.208 77.876
9609.042 0.209 77.843 0.978 -12.044 0.978 -12.044 0.209 77.843
9634 0.209 77.811 0.977 -12.076 0.977 -12.076 0.209 77.811
9658.958 0.21 77.779 0.977 -12.109 0.977 -12.109 0.21 77.779
9683.917 0.21 77.747 0.977 -12.141 0.977 -12.141 0.21 77.747
9708.875 0.211 77.715 0.977 -12.174 0.977 -12.174 0.211 77.715
9733.833 0.211 77.683 0.977 -12.206 0.977 -12.206 0.211 77.683
9758.792 0.212 77.65 0.977 -12.239 0.977 -12.239 0.212 77.65
9783.75 0.213 77.618 0.977 -12.271 0.977 -12.271 0.213 77.618
9808.708 0.213 77.586 0.977 -12.303 0.977 -12.303 0.213 77.586
9833.667 0.214 77.554 0.977 -12.336 0.977 -12.336 0.214 77.554
9858.625 0.214 77.522 0.976 -12.368 0.976 -12.368 0.214 77.522
9883.583 0.215 77.49 0.976 -12.401 0.976 -12.401 0.215 77.49
9908.542 0.215 77.458 0.976 -12.433 0.976 -12.433 0.215 77.458
9933.5 0.216 77.426 0.976 -12.465 0.976 -12.465 0.216 77.426
9958.458 0.216 77.394 0.976 -12.498 0.976 -12.498 0.216 77.394
9983.417 0.217 77.362 0.976 -12.53 0.976 -12.53 0.217 77.362
10008.375 0.218 77.33 0.976 -12.562 0.976 -12.562 0.218 77.33
10033.333 0.218 77.298 0.976 -12.595 0.976 -12.595 0.218 77.298
10058.292 0.219 77.266 0.975 -12.627 0.975 -12.627 0.219 77.266
10083.25 0.219 77.234 0.975 -12.659 0.975 -12.659 0.219 77.234
10108.208 0.22 77.202 0.975 -12.691 0.975 -12.691 0.22 77.202
10133.167 0.22 77.17 0.975 -12.724 0.975 -12.724 0.22 77.17
10158.125 0.221 77.138 0.975 -12.756 0.975 -12.756 0.221 77.138
10183.083 0.221 77.106 0.975 -12.788 0.975 -12.788 0.221 77.106
10208.042 0.222 77.074 0.975 -12.82 0.975 -12.82 0.222 77.074
10233 0.222 77.042 0.975 -12.852 0.975 -12.852 0.222 77.042
10257.958 0.223 77.01 0.974 -12.885 0.974 -12.885 0.223 77.01
10282.917 0.224 76.978 0.974 -12.917 0.974 -12.917 0.224 76.978
10307.875 0.224 76.946 0.974 -12.949 0.974 -12.949 0.224 76.946
10332.833 0.225 76.915 0.974 -12.981 0.974 -12.981 0.225 76.915
10357.792 0.225 76.883 0.974 -13.013 0.974 -13.013 0.225 76.883
10382.75 0.226 76.851 0.974 -13.045 0.974 -13.045 0.226 76.851
10407.708 0.226 76.819 0.974 -13.077 0.974 -13.077 0.226 76.819
10432.667 0.227 76.787 0.974 -13.11 0.974 -13.11 0.227 76.787
10457.625 0.227 76.755 0.973 -13.142 0.973 -13.142 0.227 76.755
10482.583 0.228 76.724 0.973 -13.174 0.973 -13.174 0.228 76.724
10507.542 0.228 76.692 0.973 -13.206 0.973 -13.206 0.228 76.692
10532.5 0.229 76.66 0.973 -13.238 0.973 -13.238 0.229 76.66
10557.458 0.23 76.628 0.973 -13.27 0.973 -13.27 0.23 76.628
10582.417 0.23 76.596 0.973 -13.302 0.973 -13.302 0.23 76.596
10607.375 0.231 76.565 0.973 -13.334 0.973 -13.334 0.231 76.565
10632.333 0.231 76.533 0.973 -13.366 0.973 -13.366 0.231 76.533
10657.292 0.232 76.501 0.972 -13.398 0.972 -13.398 0.232 76.501
10682.25 0.232 76.47 0.972 -13.43 0.972 -13.43 0.232 76.47
10707.208 0.233 76.438 0.972 -13.462 0.972 -13.462 0.233 76.438
10732.167 0.233 76.406 0.972 -13.494 0.972 -13.494 0.233 76.406
10757.125 0.234 76.374 0.972 -13.526 0.972 -13.526 0.234 76.374
10782.083 0.234 76.343 0.972 -13.557 0.972 -13.557 0.234 76.343
10807.042 0.235 76.311 0.972 -13.589 0.972 -13.589 0.235 76.311
10832 0.236 76.279 0.971 -13.621 0.971 -13.621 0.236 76.279
10856.958 0.236 76.248 0.971 -13.653 0.971 -13.653 0.236 76.248
10881.917 0.237 76.216 0.971 -13.685 0.971 -13.685 0.237 76.216
10906.875 0.237 76.185 0.971 -13.717 0.971 -13.717 0.237 76.185
10931.833 0.238 76.153 0.971 -13.749 0.971 -13.749 0.238 76.153
10956.792 0.238 76.121 0.971 -13.78 0.971 -13.78 0.238 76.121
10981.75 0.239 76.09 0.971 -13.812 0.971 -13.812 0.239 76.09
11006.708 0.239 76.058 0.971 -13.844 0.971 -13.844 0.239 76.058
11031.667 0.24 76.027 0.97 -13.876 0.97 -13.876 0.24 76.027
11056.625 0.24 75.995 0.97 -13.908 0.97 -13.908 0.24 75.995
11081.583 0.241 75.964 0.97 -13.939 0.97 -13.939 0.241 75.964
11106.542 0.241 75.932 0.97 -13.971 0.97 -13.971 0.241 75.932
11131.5 0.242 75.901 0.97 -14.003 0.97 -14.003 0.242 75.901
11156.458 0.243 75.869 0.97 -14.035 0.97 -14.035 0.243 75.869
11181.417 0.243 75.838 0.97 -14.066 0.97 -14.066 0.243 75.838
11206.375 0.244 75.806 0.969 -14.098 0.969 -14.098 0.244 75.806
11231.333 0.244 75.775 0.969 -14.13 0.969 -14.13 0.244 75.775
11256.292 0.245 75.743 0.969 -14.161 0.969 -14.161 0.245 75.743
11281.25 0.245 75.712 0.969 -14.193 0.969 -14.193 0.245 75.712
11306.208 0.246 75.68 0.969 -14.225 0.969 -14.225 0.246 75.68
11331.167 0.246 75.649 0.969 -14.256 0.969 -14.256 0.246 75.649
11356.125 0.247 75.618 0.969 -14.288 0.969 -14.288 0.247 75.618
11381.083 0.247 75.586 0.969 -14.32 0.969 -14.32 0.247 75.586
11406.042 0.248 75.555 0.968 -14.351 0.968 -14.351 0.248 75.555
11431 0.248 75.523 0.968 -14.383 0.968 -14.383 0.248 75.523
11455.958 0.249 75.492 0.968 -14.414 0.968 -14.414 0.249 75.492
11480.917 0.249 75.461 0.968 -14.446 0.968 -14.446 0.249 75.461
11505.875 0.25 75.429 0.968 -14.477 0.968 -14.477 0.25 75.429
11530.833 0.251 75.398 0.968 -14.509 0.968 -14.509 0.251 75.398
11555.792 0.251 75.367 0.968 -14.541 0.968 -14.541 0.251 75.367
11580.75 0.252 75.335 0.967 -14.572 0.967 -14.572 0.252 75.335
11605.708 0.252 75.304 0.967 -14.604 0.967 -14.604 0.252 75.304
11630.667 0.253 75.273 0.967 -14.635 0.967 -14.635 0.253 75.273
11655.625 0.253 75.241 0.967 -14.667 0.967 -14.667 0.253 75.241
11680.583 0.254 75.21 0.967 -14.698 0.967 -14.698 0.254 75.21
11705.542 0.254 75.179 0.967 -14.729 0.967 -14.729 0.254 75.179
11730.5 0.255 75.148 0.967 -14.761 0.967 -14.761 0.255 75.148
11755.458 0.255 75.116 0.966 -14.792 0.966 -14.792 0.255 75.116
11780.417 0.256 75.085 0.966 -14.824 0.966 -14.824 0.256 75.085
11805.375 0.256 75.054 0.966 -14.855 0.966 -14.855 0.256 75.054
11830.333 0.257 75.023 0.966 -14.887 0.966 -14.887 0.257 75.023
11855.292 0.257 74.992 0.966 -14.918 0.966 -14.918 0.257 74.992
11880.25 0.258 74.96 0.966 -14.949 0.966 -14.949 0.258 74.96
11905.208 0.258 74.929 0.966 -14.981 0.966 -14.981 0.258 74.929
11930.167 0.259 74.898 0.965 -15.012 0.965 -15.012 0.259 74.898
11955.125 0.26 74.867 0.965 -15.043 0.965 -15.043 0.26 74.867
11980.083 0.26 74.836 0.965 -15.075 0.965 -15.075 0.26 74.836
12005.042 0.261 74.805 0.965 -15.106 0.965 -15.106 0.261 74.805
12030 0.261 74.774 0.965 -15.137 0.965 -15.137 0.261 74.774
12054.958 0.262 74.743 0.965 -15.169 0.965 -15.169 0.262 74.743
12079.917 0.262 74.711 0.965 -15.2 0.965 -15.2 0.262 74.711
12104.875 0.263 74.68 0.964 -15.231 0.964 -15.231 0.263 74.68
12129.833 0.263 74.649 0.964 -15.262 0.964 -15.262 0.263 74.649
12154.792 0.264 74.618 0.964 -15.294 0.964 -15.294 0.264 74.618
12179.75 0.264 74.587 0.964 -15.325 0.964 -15.325 0.264 74.587
12204.708 0.265 74.556 0.964 -15.356 0.964 -15.356 0.265 74.556
12229.667 0.265 74.525 0.964 -15.387 0.964 -15.387 0.265 74.525
12254.625 0.266 74.494 0.964 -15.419 0.964 -15.419 0.266 74.494
12279.583 0.266 74.463 0.963 -15.45 0.963 -15.45 0.266 74.463
12304.542 0.267 74.432 0.963 -15.481 0.963 -15.481 0.267 74.432
12329.5 0.267 74.401 0.963 -15.512 0.963 -15.512 0.267 74.401
12354.458 0.268 74.37 0.963 -15.543 0.963 -15.543 0.268 74.37
12379.417 0.268 74.339 0.963 -15.574 0.963 -15.574 0.268 74.339
12404.375 0.269 74.308 0.963 -15.605 0.963 -15.605 0.269 74.308
12429.333 0.27 74.277 0.963 -15.637 0.963 -15.637 0.27 74.277
12454.292 0.27 74.247 0.962 -15.668 0.962 -15.668 0.27 74.247
12479.25 0.271 74.216 0.962 -15.699 0.962 -15.699 0.271 74.216
12504.208 0.271 74.185 0.962 -15.73 0.962 -15.73 0.271 74.185
12529.167 0.272 74.154 0.962 -15.761 0.962 -15.761 0.272 74.154
12554.125 0.272 74.123 0.962 -15.792 0.962 -15.792 0.272 74.123
12579.083 0.273 74.092 0.962 -15.823 0.962 -15.823 0.273 74.092
12604.042 0.273 74.061 0.962 -15.854 0.962 -15.854 0.273 74.061
12629 0.274 74.03 0.961 -15.885 0.961 -15.885 0.274 74.03
12653.958 0.274 74 0.961 -15.916 0.961 -15.916 0.274 74
12678.917 0.275 73.969 0.961 -15.947 0.961 -15.947 0.275 73.969
12703.875 0.275 73.938 0.961 -15.978 0.961 -15.978 0.275 73.938
12728.833 0.276 73.907 0.961 -16.009 0.961 -16.009 0.276 73.907
12753.792 0.276 73.876 0.961 -16.04 0.961 -16.04 0.276 73.876
12778.75 0.277 73.846 0.961 -16.071 0.961 -16.071 0.277 73.846
12803.708 0.277 73.815 0.96 -16.102 0.96 -16.102 0.277 73.815
12828.667 0.278 73.784 0.96 -16.133 0.96 -16.133 0.278 73.784
12853.625 0.278 73.753 0.96 -16.164 0.96 -16.164 0.278 73.753
12878.583 0.279 73.723 0.96 -16.194 0.96 -16.194 0.279 73.723
12903.542 0.279 73.692 0.96 -16.225 0.96 -16.225 0.279 73.692
12928.5 0.28 73.661 0.96 -16.256 0.96 -16.256 0.28 73.661
12953.458 0.28 73.631 0.959 -16.287 0.959 -16.287 0.28 73.631
12978.417 0.281 73.6 0.959 -16.318 0.959 -16.318 0.281 73.6
13003.375 0.281 73.569 0.959 -16.349 0.959 -16.349 0.281 73.569
13028.333 0.282 73.539 0.959 -16.38 0.959 -16.38 0.282 73.539
13053.292 0.283 73.508 0.959 -16.41 0.959 -16.41 0.283 73.508
13078.25 0.283 73.477 0.959 -16.441 0.959 -16.441 0.283 73.477
13103.208 0.284 73.447 0.959 -16.472 0.959 -16.472 0.284 73.447
13128.167 0.284 73.416 0.958 -16.503 0.958 -16.503 0.284 73.416
13153.125 0.285 73.385 0.958 -16.534 0.958 -16.534 0.285 73.385
13178.083 0.285 73.355 0.958 -16.564 0.958 -16.564 0.285 73.355
13203.042 0.286 73.324 0.958 -16.595 0.958 -16.595 0.286 73.324
13228 0.286 73.294 0.958 -16.626 0.958 -16.626 0.286 73.294
13252.958 0.287 73.263 0.958 -16.656 0.958 -16.656 0.287 73.263
13277.917 0.287 73.233 0.957 -16.687 0.957 -16.687 0.287 73.233
13302.875 0.288 73.202 0.957 -16.718 0.957 -16.718 0.288 73.202
13327.833 0.288 73.171 0.957 -16.749 0.957 -16.749 0.288 73.171
13352.792 0.289 73.141 0.957 -16.779 0.957 -16.779 0.289 73.141
13377.75 0.289 73.11 0.957 -16.81 0.957 -16.81 0.289 73.11
13402.708 0.29 73.08 0.957 -16.841 0.957 -16.841 0.29 73.08
13427.667 0.29 73.049 0.957 -16.871 0.957 -16.871 0.29 73.049
13452.625 0.291 73.019 0.956 -16.902 0.956 -16.902 0.291 73.019
13477.583 0.291 72.989 0.956 -16.932 0.956 -16.932 0.291 72.989
13502.542 0.292 72.958 0.956 -16.963 0.956 -16.963 0.292 72.958
13527.5 0.292 72.928 0.956 -16.994 0.956 -16.994 0.292 72.928
13552.458 0.293 72.897 0.956 -17.024 0.956 -17.024 0.293 72.897
13577.417 0.293 72.867 0.956 -17.055 0.956 -17.055 0.293 72.867
13602.375 0.294 72.836 0.955 -17.085 0.955 -17.085 0.294 72.836
13627.333 0.294 72.806 0.955 -17.116 0.955 -17.116 0.294 72.806
13652.292 0.295 72.776 0.955 -17.146 0.955 -17.146 0.295 72.776
13677.25 0.295 72.745 0.955 -17.177 0.955 -17.177 0.295 72.745
13702.208 0.296 72.715 0.955 -17.207 0.955 -17.207 0.296 72.715
13727.167 0.296 72.685 0.955 -17.238 0.955 -17.238 0.296 72.685
13752.125 0.297 72.654 0.955 -17.268 0.955 -17.268 0.297 72.654
13777.083 0.297 72.624 0.954 -17.299 0.954 -17.299 0.297 72.624
13802.042 0.298 72.594 0.954 -17.329 0.954 -17.329 0.298 72.594
13827 0.298 72.563 0.954 -17.36 0.954 -17.36 0.298 72.563
13851.958 0.299 72.533 0.954 -17.39 0.954 -17.39 0.299 72.533
13876.917 0.299 72.503 0.954 -17.421 0.954 -17.421 0.299 72.503
13901.875 0.3 72.472 0.954 -17.451 0.954 -17.451 0.3 72.472
13926.833 0.3 72.442 0.953 -17.481 0.953 -17.481 0.3 72.442
13951.792 0.301 72.412 0.953 -17.512 0.953 -17.512 0.301 72.412
13976.75 0.301 72.382 0.953 -17.542 0.953 -17.542 0.301 72.382
14001.708 0.302 72.352 0.953 -17.572 0.953 -17.572 0.302 72.352
14026.667 0.302 72.321 0.953 -17.603 0.953 -17.603 0.302 72.321
14051.625 0.303 72.291 0.953 -17.633 0.953 -17.633 0.303 72.291
14076.583 0.303 72.261 0.952 -17.663 0.952 -17.663 0.303 72.261
14101.542 0.304 72.231 0.952 -17.694 0.952 -17.694 0.304 72.231
14126.5 0.304 72.201 0.952 -17.724 0.952 -17.724 0.304 72.201
14151.458 0.305 72.17 0.952 -17.754 0.952 -17.754 0.305 72.17
14176.417 0.305 72.14 0.952 -17.785 0.952 -17.785 0.305 72.14
14201.375 0.306 72.11 0.952 -17.815 0.952 -17.815 0.306 72.11
14226.333 0.306 72.08 0.951 -17.845 0.951 -17.845 0.306 72.08
14251.292 0.307 72.05 0.951 -17.875 0.951 -17.875 0.307 72.05
14276.25 0.307 72.02 0.951 -17.906 0.951 -17.906 0.307 72.02
14301.208 0.308 71.99 0.951 -17.936 0.951 -17.936 0.308 71.99
14326.167 0.308 71.96 0.951 -17.966 0.951 -17.966 0.308 71.96
14351.125 0.309 71.93 0.951 -17.996 0.951 -17.996 0.309 71.93
14376.083 0.309 71.9 0.951 -18.026 0.951 -18.026 0.309 71.9
14401.042 0.31 71.87 0.95 -18.057 0.95 -18.057 0.31 71.87
14426 0.31 71.84 0.95 -18.087 0.95 -18.087 0.31 71.84
14450.958 0.311 71.81 0.95 -18.117 0.95 -18.117 0.311 71.81
14475.917 0.311 71.779 0.95 -18.147 0.95 -18.147 0.311 71.779
14500.875 0.312 71.75 0.95 -18.177 0.95 -18.177 0.312 71.75
14525.833 0.312 71.72 0.95 -18.207 0.95 -18.207 0.312 71.72
14550.792 0.313 71.69 0.949 -18.237 0.949 -18.237 0.313 71.69
14575.75 0.313 71.66 0.949 -18.267 0.949 -18.267 0.313 71.66
14600.708 0.314 71.63 0.949 -18.298 0.949 -18.298 0.314 71.63
14625.667 0.314 71.6 0.949 -18.328 0.949 -18.328 0.314 71.6
14650.625 0.315 71.57 0.949 -18.358 0.949 -18.358 0.315 71.57
14675.583 0.315 71.54 0.949 -18.388 0.949 -18.388 0.315 71.54
14700.542 0.316 71.51 0.948 -18.418 0.948 -18.418 0.316 71.51
14725.5 0.316 71.48 0.948 -18.448 0.948 -18.448 0.316 71.48
14750.458 0.317 71.45 0.948 -18.478 0.948 -18.478 0.317 71.45
14775.417 0.317 71.42 0.948 -18.508 0.948 -18.508 0.317 71.42
14800.375 0.318 71.39 0.948 -18.538 0.948 -18.538 0.318 71.39
14825.333 0.318 71.361 0.948 -18.568 0.948 -18.568 0.318 71.361
14850.292 0.319 71.331 0.947 -18.598 0.947 -18.598 0.319 71.331
14875.25 0.319 71.301 0.947 -18.628 0.947 -18.628 0.319 71.301
14900.208 0.32 71.271 0.947 -18.658 0.947 -18.658 0.32 71.271
14925.167 0.32 71.241 0.947 -18.687 0.947 -18.687 0.32 71.241
14950.125 0.321 71.212 0.947 -18.717 0.947 -18.717 0.321 71.212
14975.083 0.321 71.182 0.947 -18.747 0.947 -18.747 0.321 71.182
15000.042 0.322 71.152 0.946 -18.777 0.946 -18.777 0.322 71.152
15025 0.322 71.122 0.946 -18.807 0.946 -18.807 0.322 71.122
15049.958 0.323 71.093 0.946 -18.837 0.946 -18.837 0.323 71.093
15074.917 0.323 71.063 0.946 -18.867 0.946 -18.867 0.323 71.063
15099.875 0.324 71.033 0.946 -18.897 0.946 -18.897 0.324 71.033
15124.833 0.324 71.003 0.946 -18.926 0.946 -18.926 0.324 71.003
15149.792 0.325 70.974 0.945 -18.956 0.945 -18.956 0.325 70.974
15174.75 0.325 70.944 0.945 -18.986 0.945 -18.986 0.325 70.944
15199.708 0.326 70.914 0.945 -19.016 0.945 -19.016 0.326 70.914
15224.667 0.326 70.885 0.945 -19.046 0.945 -19.046 0.326 70.885
15249.625 0.327 70.855 0.945 -19.075 0.945 -19.075 0.327 70.855
15274.583 0.327 70.825 0.945 -19.105 0.945 -19.105 0.327 70.825
15299.542 0.328 70.796 0.944 -19.135 0.944 -19.135 0.328 70.796
15324.5 0.328 70.766 0.944 -19.165 0.944 -19.165 0.328 70.766
15349.458 0.329 70.737 0.944 -19.194 0.944 -19.194 0.329 70.737
15374.417 0.329 70.707 0.944 -19.224 0.944 -19.224 0.329 70.707
15399.375 0.33 70.677 0.944 -19.254 0.944 -19.254 0.33 70.677
15424.333 0.33 70.648 0.944 -19.283 0.944 -19.283 0.33 70.648
15449.292 0.331 70.618 0.943 -19.313 0.943 -19.313 0.331 70.618
15474.25 0.331 70.589 0.943 -19.343 0.943 -19.343 0.331 70.589
15499.208 0.332 70.559 0.943 -19.372 0.943 -19.372 0.332 70.559
15524.167 0.332 70.53 0.943 -19.402 0.943 -19.402 0.332 70.53
15549.125 0.333 70.5 0.943 -19.432 0.943 -19.432 0.333 70.5
15574.083 0.333 70.471 0.942 -19.461 0.942 -19.461 0.333 70.471
15599.042 0.334 70.441 0.942 -19.491 0.942 -19.491 0.334 70.441
15624 0.334 70.412 0.942 -19.52 0.942 -19.52 0.334 70.412
15648.958 0.335 70.382 0.942 -19.55 0.942 -19.55 0.335 70.382
15673.917 0.335 70.353 0.942 -19.579 0.942 -19.579 0.335 70.353
15698.875 0.336 70.323 0.942 -19.609 0.942 -19.609 0.336 70.323
15723.833 0.336 70.294 0.941 -19.639 0.941 -19.639 0.336 70.294
15748.792 0.337 70.265 0.941 -19.668 0.941 -19.668 0.337 70.265
15773.75 0.337 70.235 0.941 -19.698 0.941 -19.698 0.337 70.235
15798.708 0.338 70.206 0.941 -19.727 0.941 -19.727 0.338 70.206
15823.667 0.338 70.176 0.941 -19.757 0.941 -19.757 0.338 70.176
15848.625 0.339 70.147 0.941 -19.786 0.941 -19.786 0.339 70.147
15873.583 0.339 70.118 0.94 -19.815 0.94 -19.815 0.339 70.118
15898.542 0.339 70.088 0.94 -19.845 0.94 -19.845 0.339 70.088
15923.5 0.34 70.059 0.94 -19.874 0.94 -19.874 0.34 70.059
15948.458 0.34 70.03 0.94 -19.904 0.94 -19.904 0.34 70.03
15973.417 0.341 70 0.94 -19.933 0.94 -19.933 0.341 70
15998.375 0.341 69.971 0.94 -19.963 0.94 -19.963 0.341 69.971
16023.333 0.342 69.942 0.939 -19.992 0.939 -19.992 0.342 69.942
16048.292 0.342 69.913 0.939 -20.021 0.939 -20.021 0.342 69.913
16073.25 0.343 69.883 0.939 -20.051 0.939 -20.051 0.343 69.883
16098.208 0.343 69.854 0.939 -20.08 0.939 -20.08 0.343 69.854
16123.167 0.344 69.825 0.939 -20.109 0.939 -20.109 0.344 69.825
16148.125 0.344 69.796 0.938 -20.139 0.938 -20.139 0.344 69.796
16173.083 0.345 69.766 0.938 -20.168 0.938 -20.168 0.345 69.766
16198.042 0.345 69.737 0.938 -20.197 0.938 -20.197 0.345 69.737
16223 0.346 69.708 0.938 -20.227 0.938 -20.227 0.346 69.708
16247.958 0.346 69.679 0.938 -20.256 0.938 -20.256 0.346 69.679
16272.917 0.347 69.65 0.938 -20.285 0.938 -20.285 0.347 69.65
16297.875 0.347 69.62 0.937 -20.315 0.937 -20.315 0.347 69.62
16322.833 0.348 69.591 0.937 -20.344 0.937 -20.344 0.348 69.591
16347.792 0.348 69.562 0.937 -20.373 0.937 -20.373 0.348 69.562
16372.75 0.349 69.533 0.937 -20.402 0.937 -20.402 0.349 69.533
16397.708 0.349 69.504 0.937 -20.431 0.937 -20.431 0.349 69.504
16422.667 0.35 69.475 0.937 -20.461 0.937 -20.461 0.35 69.475
16447.625 0.35 69.446 0.936 -20.49 0.936 -20.49 0.35 69.446
16472.583 0.351 69.417 0.936 -20.519 0.936 -20.519 0.351 69.417
16497.542 0.351 69.388 0.936 -20.548 0.936 -20.548 0.351 69.388
16522.5 0.351 69.359 0.936 -20.577 0.936 -20.577 0.351 69.359
16547.458 0.352 69.33 0.936 -20.606 0.936 -20.606 0.352 69.33
16572.417 0.352 69.301 0.935 -20.636 0.935 -20.636 0.352 69.301
16597.375 0.353 69.272 0.935 -20.665 0.935 -20.665 0.353 69.272
16622.333 0.353 69.243 0.935 -20.694 0.935 -20.694 0.353 69.243
16647.292 0.354 69.214 0.935 -20.723 0.935 -20.723 0.354 69.214
16672.25 0.354 69.185 0.935 -20.752 0.935 -20.752 0.354 69.185
16697.208 0.355 69.156 0.935 -20.781 0.935 -20.781 0.355 69.156
16722.167 0.355 69.127 0.934 -20.81 0.934 -20.81 0.355 69.127
16747.125 0.356 69.098 0.934 -20.839 0.934 -20.839 0.356 69.098
16772.083 0.356 69.069 0.934 -20.868 0.934 -20.868 0.356 69.069
16797.042 0.357 69.04 0.934 -20.897 0.934 -20.897 0.357 69.04
16822 0.357 69.011 0.934 -20.926 0.934 -20.926 0.357 69.011
16846.958 0.358 68.982 0.933 -20.955 0.933 -20.955 0.358 68.982
16871.917 0.358 68.953 0.933 -20.984 0.933 -20.984 0.358 68.953
16896.875 0.359 68.924 0.933 -21.013 0.933 -21.013 0.359 68.924
16921.833 0.359 68.895 0.933 -21.042 0.933 -21.042 0.359 68.895
16946.792 0.36 68.867 0.933 -21.071 0.933 -21.071 0.36 68.867
16971.75 0.36 68.838 0.933 -21.1 0.933 -21.1 0.36 68.838
16996.708 0.36 68.809 0.932 -21.129 0.932 -21.129 0.36 68.809
17021.667 0.361 68.78 0.932 -21.158 0.932 -21.158 0.361 68.78
17046.625 0.361 68.751 0.932 -21.187 0.932 -21.187 0.361 68.751
17071.583 0.362 68.723 0.932 -21.215 0.932 -21.215 0.362 68.723
17096.542 0.362 68.694 0.932 -21.244 0.932 -21.244 0.362 68.694
17121.5 0.363 68.665 0.931 -21.273 0.931 -21.273 0.363 68.665
17146.458 0.363 68.636 0.931 -21.302 0.931 -21.302 0.363 68.636
17171.417 0.364 68.607 0.931 -21.331 0.931 -21.331 0.364 68.607
17196.375 0.364 68.579 0.931 -21.36 0.931 -21.36 0.364 68.579
17221.333 0.365 68.55 0.931 -21.389 0.931 -21.389 0.365 68.55
17246.292 0.365 68.521 0.931 -21.417 0.931 -21.417 0.365 68.521
17271.25 0.366 68.493 0.93 -21.446 0.93 -21.446 0.366 68.493
17296.208 0.366 68.464 0.93 -21.475 0.93 -21.475 0.366 68.464
17321.167 0.367 68.435 0.93 -21.504 0.93 -21.504 0.367 68.435
17346.125 0.367 68.407 0.93 -21.532 0.93 -21.532 0.367 68.407
17371.083 0.367 68.378 0.93 -21.561 0.93 -21.561 0.367 68.378
17396.042 0.368 68.349 0.929 -21.59 0.929 -21.59 0.368 68.349
17421 0.368 68.321 0.929 -21.619 0.929 -21.619 0.368 68.321
17445.958 0.369 68.292 0.929 -21.647 0.929 -21.647 0.369 68.292
17470.917 0.369 68.264 0.929 -21.676 0.929 -21.676 0.369 68.264
17495.875 0.37 68.235 0.929 -21.705 0.929 -21.705 0.37 68.235
17520.833 0.37 68.206 0.929 -21.733 0.929 -21.733 0.37 68.206
17545.792 0.371 68.178 0.928 -21.762 0.928 -21.762 0.371 68.178
17570.75 0.371 68.149 0.928 -21.791 0.928 -21.791 0.371 68.149
17595.708 0.372 68.121 0.928 -21.819 0.928 -21.819 0.372 68.121
17620.667 0.372 68.092 0.928 -21.848 0.928 -21.848 0.372 68.092
17645.625 0.373 68.064 0.928 -21.876 0.928 -21.876 0.373 68.064
17670.583 0.373 68.035 0.927 -21.905 0.927 -21.905 0.373 68.035
17695.542 0.374 68.007 0.927 -21.934 0.927 -21.934 0.374 68.007
17720.5 0.374 67.978 0.927 -21.962 0.927 -21.962 0.374 67.978
17745.458 0.374 67.95 0.927 -21.991 0.927 -21.991 0.374 67.95
17770.417 0.375 67.921 0.927 -22.019 0.927 -22.019 0.375 67.921
17795.375 0.375 67.893 0.926 -22.048 0.926 -22.048 0.375 67.893
17820.333 0.376 67.864 0.926 -22.076 0.926 -22.076 0.376 67.864
17845.292 0.376 67.836 0.926 -22.105 0.926 -22.105 0.376 67.836
17870.25 0.377 67.808 0.926 -22.133 0.926 -22.133 0.377 67.808
17895.208 0.377 67.779 0.926 -22.162 0.926 -22.162 0.377 67.779
17920.167 0.378 67.751 0.926 -22.19 0.926 -22.19 0.378 67.751
17945.125 0.378 67.722 0.925 -22.219 0.925 -22.219 0.378 67.722
17970.083 0.379 67.694 0.925 -22.247 0.925 -22.247 0.379 67.694
17995.042 0.379 67.666 0.925 -22.275 0.925 -22.275 0.379 67.666
18020 0.38 67.637 0.925 -22.304 0.925 -22.304 0.38 67.637
18044.958 0.38 67.609 0.925 -22.332 0.925 -22.332 0.38 67.609
18069.917 0.38 67.581 0.924 -22.361 0.924 -22.361 0.38 67.581
18094.875 0.381 67.552 0.924 -22.389 0.924 -22.389 0.381 67.552
18119.833 0.381 67.524 0.924 -22.417 0.924 -22.417 0.381 67.524
18144.792 0.382 67.496 0.924 -22.446 0.924 -22.446 0.382 67.496
18169.75 0.382 67.468 0.924 -22.474 0.924 -22.474 0.382 67.468
18194.708 0.383 67.439 0.923 -22.502 0.923 -22.502 0.383 67.439
18219.667 0.383 67.411 0.923 -22.531 0.923 -22.531 0.383 67.411
18244.625 0.384 67.383 0.923 -22.559 0.923 -22.559 0.384 67.383
18269.583 0.384 67.355 0.923 -22.587 0.923 -22.587 0.384 67.355
18294.542 0.385 67.327 0.923 -22.616 0.923 -22.616 0.385 67.327
18319.5 0.385 67.298 0.923 -22.644 0.923 -22.644 0.385 67.298
18344.458 0.385 67.27 0.922 -22.672 0.922 -22.672 0.385 67.27
18369.417 0.386 67.242 0.922 -22.7 0.922 -22.7 0.386 67.242
18394.375 0.386 67.214 0.922 -22.729 0.922 -22.729 0.386 67.214
18419.333 0.387 67.186 0.922 -22.757 0.922 -22.757 0.387 67.186
18444.292 0.387 67.158 0.922 -22.785 0.922 -22.785 0.387 67.158
18469.25 0.388 67.13 0.921 -22.813 0.921 -22.813 0.388 67.13
18494.208 0.388 67.101 0.921 -22.841 0.921 -22.841 0.388 67.101
18519.167 0.389 67.073 0.921 -22.87 0.921 -22.87 0.389 67.073
18544.125 0.389 67.045 0.921 -22.898 0.921 -22.898 0.389 67.045
18569.083 0.39 67.017 0.921 -22.926 0.921 -22.926 0.39 67.017
18594.042 0.39 66.989 0.92 -22.954 0.92 -22.954 0.39 66.989
18619 0.39 66.961 0.92 -22.982 0.92 -22.982 0.39 66.961
18643.958 0.391 66.933 0.92 -23.01 0.92 -23.01 0.391 66.933
18668.917 0.391 66.905 0.92 -23.038 0.92 -23.038 0.391 66.905
18693.875 0.392 66.877 0.92 -23.066 0.92 -23.066 0.392 66.877
18718.833 0.392 66.849 0.919 -23.095 0.919 -23.095 0.392 66.849
18743.792 0.393 66.821 0.919 -23.123 0.919 -23.123 0.393 66.821
18768.75 0.393 66.793 0.919 -23.151 0.919 -23.151 0.393 66.793
18793.708 0.394 66.765 0.919 -23.179 0.919 -23.179 0.394 66.765
18818.667 0.394 66.737 0.919 -23.207 0.919 -23.207 0.394 66.737
18843.625 0.394 66.709 0.919 -23.235 0.919 -23.235 0.394 66.709
18868.583 0.395 66.681 0.918 -23.263 0.918 -23.263 0.395 66.681
18893.542 0.395 66.653 0.918 -23.291 0.918 -23.291 0.395 66.653
18918.5 0.396 66.626 0.918 -23.319 0.918 -23.319 0.396 66.626
18943.458 0.396 66.598 0.918 -23.347 0.918 -23.347 0.396 66.598
18968.417 0.397 66.57 0.918 -23.375 0.918 -23.375 0.397 66.57
18993.375 0.397 66.542 0.917 -23.402 0.917 -23.402 0.397 66.542
19018.333 0.398 66.514 0.917 -23.43 0.917 -23.43 0.398 66.514
19043.292 0.398 66.486 0.917 -23.458 0.917 -23.458 0.398 66.486
19068.25 0.399 66.458 0.917 -23.486 0.917 -23.486 0.399 66.458
19093.208 0.399 66.431 0.917 -23.514 0.917 -23.514 0.399 66.431
19118.167 0.399 66.403 0.916 -23.542 0.916 -23.542 0.399 66.403
19143.125 0.4 66.375 0.916 -23.57 0.916 -23.57 0.4 66.375
19168.083 0.4 66.347 0.916 -23.598 0.916 -23.598 0.4 66.347
19193.042 0.401 66.319 0.916 -23.625 0.916 -23.625 0.401 66.319
19218 0.401 66.292 0.916 -23.653 0.916 -23.653 0.401 66.292
19242.958 0.402 66.264 0.915 -23.681 0.915 -23.681 0.402 66.264
19267.917 0.402 66.236 0.915 -23.709 0.915 -23.709 0.402 66.236
19292.875 0.403 66.209 0.915 -23.737 0.915 -23.737 0.403 66.209
19317.833 0.403 66.181 0.915 -23.764 0.915 -23.764 0.403 66.181
19342.792 0.403 66.153 0.915 -23.792 0.915 -23.792 0.403 66.153
19367.75 0.404 66.125 0.914 -23.82 0.914 -23.82 0.404 66.125
19392.708 0.404 66.098 0.914 -23.848 0.914 -23.848 0.404 66.098
19417.667 0.405 66.07 0.914 -23.875 0.914 -23.875 0.405 66.07
19442.625 0.405 66.043 0.914 -23.903 0.914 -23.903 0.405 66.043
19467.583 0.406 66.015 0.914 -23.931 0.914 -23.931 0.406 66.015
19492.542 0.406 65.987 0.913 -23.959 0.913 -23.959 0.406 65.987
19517.5 0.407 65.96 0.913 -23.986 0.913 -23.986 0.407 65.96
19542.458 0.407 65.932 0.913 -24.014 0.913 -24.014 0.407 65.932
19567.417 0.407 65.905 0.913 -24.041 0.913 -24.041 0.407 65.905
19592.375 0.408 65.877 0.913 -24.069 0.913 -24.069 0.408 65.877
19617.333 0.408 65.849 0.912 -24.097 0.912 -24.097 0.408 65.849
19642.292 0.409 65.822 0.912 -24.124 0.912 -24.124 0.409 65.822
19667.25 0.409 65.794 0.912 -24.152 0.912 -24.152 0.409 65.794
19692.208 0.41 65.767 0.912 -24.18 0.912 -24.18 0.41 65.767
19717.167 0.41 65.739 0.912 -24.207 0.912 -24.207 0.41 65.739
19742.125 0.41 65.712 0.911 -24.235 0.911 -24.235 0.41 65.712
19767.083 0.411 65.684 0.911 -24.262 0.911 -24.262 0.411 65.684
19792.042 0.411 65.657 0.911 -24.29 0.911 -24.29 0.411 65.657
19817 0.412 65.629 0.911 -24.317 0.911 -24.317 0.412 65.629
19841.958 0.412 65.602 0.911 -24.345 0.911 -24.345 0.412 65.602
19866.917 0.413 65.575 0.911 -24.372 0.911 -24.372 0.413 65.575
19891.875 0.413 65.547 0.91 -24.4 0.91 -24.4 0.413 65.547
19916.833 0.414 65.52 0.91 -24.427 0.91 -24.427 0.414 65.52
19941.792 0.414 65.492 0.91 -24.455 0.91 -24.455 0.414 65.492
19966.75 0.414 65.465 0.91 -24.482 0.91 -24.482 0.414 65.465
19991.708 0.415 65.438 0.91 -24.51 0.91 -24.51 0.415 65.438
20016.667 0.415 65.41 0.909 -24.537 0.909 -24.537 0.415 65.41
20041.625 0.416 65.383 0.909 -24.564 0.909 -24.564 0.416 65.383
20066.583 0.416 65.356 0.909 -24.592 0.909 -24.592 0.416 65.356
20091.542 0.417 65.328 0.909 -24.619 0.909 -24.619 0.417 65.328
20116.5 0.417 65.301 0.909 -24.647 0.909 -24.647 0.417 65.301
20141.458 0.417 65.274 0.908 -24.674 0.908 -24.674 0.417 65.274
20166.417 0.418 65.246 0.908 -24.701 0.908 -24.701 0.418 65.246
20191.375 0.418 65.219 0.908 -24.729 0.908 -24.729 0.418 65.219
20216.333 0.419 65.192 0.908 -24.756 0.908 -24.756 0.419 65.192
20241.292 0.419 65.165 0.908 -24.783 0.908 -24.783 0.419 65.165
20266.25 0.42 65.137 0.907 -24.811 0.907 -24.811 0.42 65.137
20291.208 0.42 65.11 0.907 -24.838 0.907 -24.838 0.42 65.11
20316.167 0.42 65.083 0.907 -24.865 0.907 -24.865 0.42 65.083
20341.125 0.421 65.056 0.907 -24.892 0.907 -24.892 0.421 65.056
20366.083 0.421 65.029 0.907 -24.92 0.907 -24.92 0.421 65.029
20391.042 0.422 65.001 0.906 -24.947 0.906 -24.947 0.422 65.001
20416 0.422 64.974 0.906 -24.974 0.906 -24.974 0.422 64.974
20440.958 0.423 64.947 0.906 -25.001 0.906 -25.001 0.423 64.947
20465.917 0.423 64.92 0.906 -25.028 0.906 -25.028 0.423 64.92
20490.875 0.423 64.893 0.906 -25.056 0.906 -25.056 0.423 64.893
20515.833 0.424 64.866 0.905 -25.083 0.905 -25.083 0.424 64.866
20540.792 0.424 64.839 0.905 -25.11 0.905 -25.11 0.424 64.839
20565.75 0.425 64.812 0.905 -25.137 0.905 -25.137 0.425 64.812
20590.708 0.425 64.784 0.905 -25.164 0.905 -25.164 0.425 64.784
20615.667 0.426 64.757 0.905 -25.191 0.905 -25.191 0.426 64.757
20640.625 0.426 64.73 0.904 -25.218 0.904 -25.218 0.426 64.73
20665.583 0.426 64.703 0.904 -25.246 0.904 -25.246 0.426 64.703
20690.542 0.427 64.676 0.904 -25.273 0.904 -25.273 0.427 64.676
20715.5 0.427 64.649 0.904 -25.3 0.904 -25.3 0.427 64.649
20740.458 0.428 64.622 0.904 -25.327 0.904 -25.327 0.428 64.622
20765.417 0.428 64.595 0.903 -25.354 0.903 -25.354 0.428 64.595
20790.375 0.429 64.568 0.903 -25.381 0.903 -25.381 0.429 64.568
20815.333 0.429 64.541 0.903 -25.408 0.903 -25.408 0.429 64.541
20840.292 0.429 64.514 0.903 -25.435 0.903 -25.435 0.429 64.514
20865.25 0.43 64.488 0.902 -25.462 0.902 -25.462 0.43 64.488
20890.208 0.43 64.461 0.902 -25.489 0.902 -25.489 0.43 64.461
20915.167 0.431 64.434 0.902 -25.516 0.902 -25.516 0.431 64.434
20940.125 0.431 64.407 0.902 -25.543 0.902 -25.543 0.431 64.407
20965.083 0.432 64.38 0.902 -25.57 0.902 -25.57 0.432 64.38
20990.042 0.432 64.353 0.901 -25.597 0.901 -25.597 0.432 64.353
21015 0.432 64.326 0.901 -25.624 0.901 -25.624 0.432 64.326
21039.958 0.433 64.299 0.901 -25.651 0.901 -25.651 0.433 64.299
21064.917 0.433 64.272 0.901 -25.677 0.901 -25.677 0.433 64.272
21089.875 0.434 64.246 0.901 -25.704 0.901 -25.704 0.434 64.246
21114.833 0.434 64.219 0.9 -25.731 0.9 -25.731 0.434 64.219
21139.792 0.435 64.192 0.9 -25.758 0.9 -25.758 0.435 64.192
21164.75 0.435 64.165 0.9 -25.785 0.9 -25.785 0.435 64.165
21189.708 0.435 64.139 0.9 -25.812 0.9 -25.812 0.435 64.139
21214.667 0.436 64.112 0.9 -25.839 0.9 -25.839 0.436 64.112
21239.625 0.436 64.085 0.899 -25.865 0.899 -25.865 0.436 64.085
21264.583 0.437 64.058 0.899 -25.892 0.899 -25.892 0.437 64.058
21289.542 0.437 64.032 0.899 -25.919 0.899 -25.919 0.437 64.032
21314.5 0.438 64.005 0.899 -25.946 0.899 -25.946 0.438 64.005
21339.458 0.438 63.978 0.899 -25.972 0.899 -25.972 0.438 63.978
21364.417 0.438 63.951 0.898 -25.999 0.898 -25.999 0.438 63.951
21389.375 0.439 63.925 0.898 -26.026 0.898 -26.026 0.439 63.925
21414.333 0.439 63.898 0.898 -26.053 0.898 -26.053 0.439 63.898
21439.292 0.44 63.871 0.898 -26.079 0.898 -26.079 0.44 63.871
21464.25 0.44 63.845 0.898 -26.106 0.898 -26.106 0.44 63.845
21489.208 0.44 63.818 0.897 -26.133 0.897 -26.133 0.44 63.818
21514.167 0.441 63.792 0.897 -26.159 0.897 -26.159 0.441 63.792
21539.125 0.441 63.765 0.897 -26.186 0.897 -26.186 0.441 63.765
21564.083 0.442 63.738 0.897 -26.213 0.897 -26.213 0.442 63.738
21589.042 0.442 63.712 0.897 -26.239 0.897 -26.239 0.442 63.712
21614 0.443 63.685 0.896 -26.266 0.896 -26.266 0.443 63.685
21638.958 0.443 63.659 0.896 -26.293 0.896 -26.293 0.443 63.659
21663.917 0.443 63.632 0.896 -26.319 0.896 -26.319 0.443 63.632
21688.875 0.444 63.606 0.896 -26.346 0.896 -26.346 0.444 63.606
21713.833 0.444 63.579 0.896 -26.372 0.896 -26.372 0.444 63.579
21738.792 0.445 63.553 0.895 -26.399 0.895 -26.399 0.445 63.553
21763.75 0.445 63.526 0.895 -26.425 0.895 -26.425 0.445 63.526
21788.708 0.445 63.5 0.895 -26.452 0.895 -26.452 0.445 63.5
21813.667 0.446 63.473 0.895 -26.478 0.895 -26.478 0.446 63.473
21838.625 0.446 63.447 0.895 -26.505 0.895 -26.505 0.446 63.447
21863.583 0.447 63.42 0.894 -26.531 0.894 -26.531 0.447 63.42
21888.542 0.447 63.394 0.894 -26.558 0.894 -26.558 0.447 63.394
21913.5 0.448 63.368 0.894 -26.584 0.894 -26.584 0.448 63.368
21938.458 0.448 63.341 0.894 -26.611 0.894 -26.611 0.448 63.341
21963.417 0.448 63.315 0.893 -26.637 0.893 -26.637 0.448 63.315
21988.375 0.449 63.288 0.893 -26.664 0.893 -26.664 0.449 63.288
22013.333 0.449 63.262 0.893 -26.69 0.893 -26.69 0.449 63.262
22038.292 0.45 63.236 0.893 -26.716 0.893 -26.716 0.45 63.236
22063.25 0.45 63.209 0.893 -26.743 0.893 -26.743 0.45 63.209
22088.208 0.45 63.183 0.892 -26.769 0.892 -26.769 0.45 63.183
22113.167 0.451 63.157 0.892 -26.796 0.892 -26.796 0.451 63.157
22138.125 0.451 63.13 0.892 -26.822 0.892 -26.822 0.451 63.13
22163.083 0.452 63.104 0.892 -26.848 0.892 -26.848 0.452 63.104
22188.042 0.452 63.078 0.892 -26.875 0.892 -26.875 0.452 63.078
22213 0.452 63.052 0.891 -26.901 0.891 -26.901 0.452 63.052
22237.958 0.453 63.025 0.891 -26.927 0.891 -26.927 0.453 63.025
22262.917 0.453 62.999 0.891 -26.954 0.891 -26.954 0.453 62.999
22287.875 0.454 62.973 0.891 -26.98 0.891 -26.98 0.454 62.973
22312.833 0.454 62.947 0.891 -27.006 0.891 -27.006 0.454 62.947
22337.792 0.454 62.92 0.89 -27.032 0.89 -27.032 0.454 62.92
22362.75 0.455 62.894 0.89 -27.059 0.89 -27.059 0.455 62.894
22387.708 0.455 62.868 0.89 -27.085 0.89 -27.085 0.455 62.868
22412.667 0.456 62.842 0.89 -27.111 0.89 -27.111 0.456 62.842
22437.625 0.456 62.816 0.89 -27.137 0.89 -27.137 0.456 62.816
22462.583 0.457 62.79 0.889 -27.163 0.889 -27.163 0.457 62.79
22487.542 0.457 62.764 0.889 -27.19 0.889 -27.19 0.457 62.764
22512.5 0.457 62.737 0.889 -27.216 0.889 -27.216 0.457 62.737
22537.458 0.458 62.711 0.889 -27.242 0.889 -27.242 0.458 62.711
22562.417 0.458 62.685 0.888 -27.268 0.888 -27.268 0.458 62.685
22587.375 0.459 62.659 0.888 -27.294 0.888 -27.294 0.459 62.659
22612.333 0.459 62.633 0.888 -27.32 0.888 -27.32 0.459 62.633
22637.292 0.459 62.607 0.888 -27.346 0.888 -27.346 0.459 62.607
22662.25 0.46 62.581 0.888 -27.372 0.888 -27.372 0.46 62.581
22687.208 0.46 62.555 0.887 -27.399 0.887 -27.399 0.46 62.555
22712.167 0.461 62.529 0.887 -27.425 0.887 -27.425 0.461 62.529
22737.125 0.461 62.503 0.887 -27.451 0.887 -27.451 0.461 62.503
22762.083 0.461 62.477 0.887 -27.477 0.887 -27.477 0.461 62.477
22787.042 0.462 62.451 0.887 -27.503 0.887 -27.503 0.462 62.451
22812 0.462 62.425 0.886 -27.529 0.886 -27.529 0.462 62.425
22836.958 0.463 62.399 0.886 -27.555 0.886 -27.555 0.463 62.399
22861.917 0.463 62.373 0.886 -27.581 0.886 -27.581 0.463 62.373
22886.875 0.463 62.347 0.886 -27.607 0.886 -27.607 0.463 62.347
22911.833 0.464 62.321 0.886 -27.633 0.886 -27.633 0.464 62.321
22936.792 0.464 62.295 0.885 -27.659 0.885 -27.659 0.464 62.295
22961.75 0.465 62.27 0.885 -27.685 0.885 -27.685 0.465 62.27
22986.708 0.465 62.244 0.885 -27.71 0.885 -27.71 0.465 62.244
23011.667 0.465 62.218 0.885 -27.736 0.885 -27.736 0.465 62.218
23036.625 0.466 62.192 0.885 -27.762 0.885 -27.762 0.466 62.192
23061.583 0.466 62.166 0.884 -27.788 0.884 -27.788 0.466 62.166
23086.542 0.467 62.14 0.884 -27.814 0.884 -27.814 0.467 62.14
23111.5 0.467 62.115 0.884 -27.84 0.884 -27.84 0.467 62.115
23136.458 0.467 62.089 0.884 -27.866 0.884 -27.866 0.467 62.089
23161.417 0.468 62.063 0.883 -27.892 0.883 -27.892 0.468 62.063
23186.375 0.468 62.037 0.883 -27.917 0.883 -27.917 0.468 62.037
23211.333 0.469 62.011 0.883 -27.943 0.883 -27.943 0.469 62.011
23236.292 0.469 61.986 0.883 -27.969 0.883 -27.969 0.469 61.986
23261.25 0.469 61.96 0.883 -27.995 0.883 -27.995 0.469 61.96
23286.208 0.47 61.934 0.882 -28.021 0.882 -28.021 0.47 61.934
23311.167 0.47 61.908 0.882 -28.046 0.882 -28.046 0.47 61.908
23336.125 0.471 61.883 0.882 -28.072 0.882 -28.072 0.471 61.883
23361.083 0.471 61.857 0.882 -28.098 0.882 -28.098 0.471 61.857
23386.042 0.471 61.831 0.882 -28.124 0.882 -28.124 0.471 61.831
23411 0.472 61.806 0.881 -28.149 0.881 -28.149 0.472 61.806
23435.958 0.472 61.78 0.881 -28.175 0.881 -28.175 0.472 61.78
23460.917 0.473 61.754 0.881 -28.201 0.881 -28.201 0.473 61.754
23485.875 0.473 61.729 0.881 -28.226 0.881 -28.226 0.473 61.729
23510.833 0.473 61.703 0.881 -28.252 0.881 -28.252 0.473 61.703
23535.792 0.474 61.678 0.88 -28.278 0.88 -28.278 0.474 61.678
23560.75 0.474 61.652 0.88 -28.303 0.88 -28.303 0.474 61.652
23585.708 0.475 61.626 0.88 -28.329 0.88 -28.329 0.475 61.626
23610.667 0.475 61.601 0.88 -28.354 0.88 -28.354 0.475 61.601
23635.625 0.475 61.575 0.879 -28.38 0.879 -28.38 0.475 61.575
23660.583 0.476 61.55 0.879 -28.406 0.879 -28.406 0.476 61.55
23685.542 0.476 61.524 0.879 -28.431 0.879 -28.431 0.476 61.524
23710.5 0.476 61.499 0.879 -28.457 0.879 -28.457 0.476 61.499
23735.458 0.477 61.473 0.879 -28.482 0.879 -28.482 0.477 61.473
23760.417 0.477 61.448 0.878 -28.508 0.878 -28.508 0.477 61.448
23785.375 0.478 61.422 0.878 -28.533 0.878 -28.533 0.478 61.422
23810.333 0.478 61.397 0.878 -28.559 0.878 -28.559 0.478 61.397
23835.292 0.478 61.371 0.878 -28.584 0.878 -28.584 0.478 61.371
23860.25 0.479 61.346 0.878 -28.61 0.878 -28.61 0.479 61.346
23885.208 0.479 61.321 0.877 -28.635 0.877 -28.635 0.479 61.321
23910.167 0.48 61.295 0.877 -28.661 0.877 -28.661 0.48 61.295
23935.125 0.48 61.27 0.877 -28.686 0.877 -28.686 0.48 61.27
23960.083 0.48 61.244 0.877 -28.712 0.877 -28.712 0.48 61.244
23985.042 0.481 61.219 0.876 -28.737 0.876 -28.737 0.481 61.219
24010 0.481 61.194 0.876 -28.762 0.876 -28.762 0.481 61.194
24034.958 0.482 61.168 0.876 -28.788 0.876 -28.788 0.482 61.168
24059.917 0.482 61.143 0.876 -28.813 0.876 -28.813 0.482 61.143
24084.875 0.482 61.118 0.876 -28.839 0.876 -28.839 0.482 61.118
24109.833 0.483 61.092 0.875 -28.864 0.875 -28.864 0.483 61.092
24134.792 0.483 61.067 0.875 -28.889 0.875 -28.889 0.483 61.067
24159.75 0.484 61.042 0.875 -28.915 0.875 -28.915 0.484 61.042
24184.708 0.484 61.017 0.875 -28.94 0.875 -28.94 0.484 61.017
24209.667 0.484 60.991 0.875 -28.965 0.875 -28.965 0.484 60.991
24234.625 0.485 60.966 0.874 -28.991 0.874 -28.991 0.485 60.966
24259.583 0.485 60.941 0.874 -29.016 0.874 -29.016 0.485 60.941
24284.542 0.485 60.916 0.874 -29.041 0.874 -29.041 0.485 60.916
24309.5 0.486 60.89 0.874 -29.066 0.874 -29.066 0.486 60.89
24334.458 0.486 60.865 0.873 -29.092 0.873 -29.092 0.486 60.865
24359.417 0.487 60.84 0.873 -29.117 0.873 -29.117 0.487 60.84
24384.375 0.487 60.815 0.873 -29.142 0.873 -29.142 0.487 60.815
24409.333 0.487 60.79 0.873 -29.167 0.873 -29.167 0.487 60.79
24434.292 0.488 60.765 0.873 -29.192 0.873 -29.192 0.488 60.765
24459.25 0.488 60.739 0.872 -29.218 0.872 -29.218 0.488 60.739
24484.208 0.489 60.714 0.872 -29.243 0.872 -29.243 0.489 60.714
24509.167 0.489 60.689 0.872 -29.268 0.872 -29.268 0.489 60.689
24534.125 0.489 60.664 0.872 -29.293 0.872 -29.293 0.489 60.664
24559.083 0.49 60.639 0.872 -29.318 0.872 -29.318 0.49 60.639
24584.042 0.49 60.614 0.871 -29.343 0.871 -29.343 0.49 60.614
24609 0.49 60.589 0.871 -29.368 0.871 -29.368 0.49 60.589
24633.958 0.491 60.564 0.871 -29.393 0.871 -29.393 0.491 60.564
24658.917 0.491 60.539 0.871 -29.419 0.871 -29.419 0.491 60.539
24683.875 0.492 60.514 0.87 -29.444 0.87 -29.444 0.492 60.514
24708.833 0.492 60.489 0.87 -29.469 0.87 -29.469 0.492 60.489
24733.792 0.492 60.464 0.87 -29.494 0.87 -29.494 0.492 60.464
24758.75 0.493 60.439 0.87 -29.519 0.87 -29.519 0.493 60.439
24783.708 0.493 60.414 0.87 -29.544 0.87 -29.544 0.493 60.414
24808.667 0.493 60.389 0.869 -29.569 0.869 -29.569 0.493 60.389
24833.625 0.494 60.364 0.869 -29.594 0.869 -29.594 0.494 60.364
24858.583 0.494 60.339 0.869 -29.619 0.869 -29.619 0.494 60.339
24883.542 0.495 60.314 0.869 -29.644 0.869 -29.644 0.495 60.314
24908.5 0.495 60.289 0.869 -29.669 0.869 -29.669 0.495 60.289
24933.458 0.495 60.264 0.868 -29.694 0.868 -29.694 0.495 60.264
24958.417 0.496 60.239 0.868 -29.718 0.868 -29.718 0.496 60.239
24983.375 0.496 60.214 0.868 -29.743 0.868 -29.743 0.496 60.214
25008.333 0.496 60.19 0.868 -29.768 0.868 -29.768 0.496 60.19
25033.292 0.497 60.165 0.867 -29.793 0.867 -29.793 0.497 60.165
25058.25 0.497 60.14 0.867 -29.818 0.867 -29.818 0.497 60.14
25083.208 0.498 60.115 0.867 -29.843 0.867 -29.843 0.498 60.115
25108.167 0.498 60.09 0.867 -29.868 0.867 -29.868 0.498 60.09
25133.125 0.498 60.066 0.867 -29.893 0.867 -29.893 0.498 60.066
25158.083 0.499 60.041 0.866 -29.917 0.866 -29.917 0.499 60.041
25183.042 0.499 60.016 0.866 -29.942 0.866 -29.942 0.499 60.016
25208 0.5 59.991 0.866 -29.967 0.866 -29.967 0.5 59.991
25232.958 0.5 59.966 0.866 -29.992 0.866 -29.992 0.5 59.966
25257.917 0.5 59.942 0.866 -30.017 0.866 -30.017 0.5 59.942
25282.875 0.501 59.917 0.865 -30.041 0.865 -30.041 0.501 59.917
25307.833 0.501 59.892 0.865 -30.066 0.865 -30.066 0.501 59.892
25332.792 0.501 59.868 0.865 -30.091 0.865 -30.091 0.501 59.868
25357.75 0.502 59.843 0.865 -30.116 0.865 -30.116 0.502 59.843
25382.708 0.502 59.818 0.864 -30.14 0.864 -30.14 0.502 59.818
25407.667 0.502 59.794 0.864 -30.165 0.864 -30.165 0.502 59.794
25432.625 0.503 59.769 0.864 -30.19 0.864 -30.19 0.503 59.769
25457.583 0.503 59.744 0.864 -30.214 0.864 -30.214 0.503 59.744
25482.542 0.504 59.72 0.864 -30.239 0.864 -30.239 0.504 59.72
25507.5 0.504 59.695 0.863 -30.264 0.863 -30.264 0.504 59.695
25532.458 0.504 59.671 0.863 -30.288 0.863 -30.288 0.504 59.671
25557.417 0.505 59.646 0.863 -30.313 0.863 -30.313 0.505 59.646
25582.375 0.505 59.621 0.863 -30.337 0.863 -30.337 0.505 59.621
25607.333 0.505 59.597 0.862 -30.362 0.862 -30.362 0.505 59.597
25632.292 0.506 59.572 0.862 -30.387 0.862 -30.387 0.506 59.572
25657.25 0.506 59.548 0.862 -30.411 0.862 -30.411 0.506 59.548
25682.208 0.507 59.523 0.862 -30.436 0.862 -30.436 0.507 59.523
25707.167 0.507 59.499 0.862 -30.46 0.862 -30.46 0.507 59.499
25732.125 0.507 59.474 0.861 -30.485 0.861 -30.485 0.507 59.474
25757.083 0.508 59.45 0.861 -30.509 0.861 -30.509 0.508 59.45
25782.042 0.508 59.425 0.861 -30.534 0.861 -30.534 0.508 59.425
25807 0.508 59.401 0.861 -30.558 0.861 -30.558 0.508 59.401
25831.958 0.509 59.376 0.861 -30.583 0.861 -30.583 0.509 59.376
25856.917 0.509 59.352 0.86 -30.607 0.86 -30.607 0.509 59.352
25881.875 0.51 59.328 0.86 -30.632 0.86 -30.632 0.51 59.328
25906.833 0.51 59.303 0.86 -30.656 0.86 -30.656 0.51 59.303
25931.792 0.51 59.279 0.86 -30.681 0.86 -30.681 0.51 59.279
25956.75 0.511 59.254 0.859 -30.705 0.859 -30.705 0.511 59.254
25981.708 0.511 59.23 0.859 -30.729 0.859 -30.729 0.511 59.23
26006.667 0.511 59.206 0.859 -30.754 0.859 -30.754 0.511 59.206
26031.625 0.512 59.181 0.859 -30.778 0.859 -30.778 0.512 59.181
26056.583 0.512 59.157 0.859 -30.803 0.859 -30.803 0.512 59.157
26081.542 0.512 59.133 0.858 -30.827 0.858 -30.827 0.512 59.133
26106.5 0.513 59.108 0.858 -30.851 0.858 -30.851 0.513 59.108
26131.458 0.513 59.084 0.858 -30.876 0.858 -30.876 0.513 59.084
26156.417 0.514 59.06 0.858 -30.9 0.858 -30.9 0.514 59.06
26181.375 0.514 59.035 0.857 -30.924 0.857 -30.924 0.514 59.035
26206.333 0.514 59.011 0.857 -30.949 0.857 -30.949 0.514 59.011
26231.292 0.515 58.987 0.857 -30.973 0.857 -30.973 0.515 58.987
26256.25 0.515 58.963 0.857 -30.997 0.857 -30.997 0.515 58.963
26281.208 0.515 58.939 0.857 -31.021 0.857 -31.021 0.515 58.939
26306.167 0.516 58.914 0.856 -31.046 0.856 -31.046 0.516 58.914
26331.125 0.516 58.89 0.856 -31.07 0.856 -31.07 0.516 58.89
26356.083 0.516 58.866 0.856 -31.094 0.856 -31.094 0.516 58.866
26381.042 0.517 58.842 0.856 -31.118 0.856 -31.118 0.517 58.842
26406 0.517 58.818 0.856 -31.142 0.856 -31.142 0.517 58.818
26430.958 0.518 58.793 0.855 -31.167 0.855 -31.167 0.518 58.793
26455.917 0.518 58.769 0.855 -31.191 0.855 -31.191 0.518 58.769
26480.875 0.518 58.745 0.855 -31.215 0.855 -31.215 0.518 58.745
26505.833 0.519 58.721 0.855 -31.239 0.855 -31.239 0.519 58.721
26530.792 0.519 58.697 0.854 -31.263 0.854 -31.263 0.519 58.697
26555.75 0.519 58.673 0.854 -31.287 0.854 -31.287 0.519 58.673
26580.708 0.52 58.649 0.854 -31.312 0.854 -31.312 0.52 58.649
26605.667 0.52 58.625 0.854 -31.336 0.854 -31.336 0.52 58.625
26630.625 0.52 58.601 0.854 -31.36 0.854 -31.36 0.52 58.601
26655.583 0.521 58.577 0.853 -31.384 0.853 -31.384 0.521 58.577
26680.542 0.521 58.553 0.853 -31.408 0.853 -31.408 0.521 58.553
26705.5 0.521 58.529 0.853 -31.432 0.853 -31.432 0.521 58.529
26730.458 0.522 58.505 0.853 -31.456 0.853 -31.456 0.522 58.505
26755.417 0.522 58.481 0.852 -31.48 0.852 -31.48 0.522 58.481
26780.375 0.523 58.457 0.852 -31.504 0.852 -31.504 0.523 58.457
26805.333 0.523 58.433 0.852 -31.528 0.852 -31.528 0.523 58.433
26830.292 0.523 58.409 0.852 -31.552 0.852 -31.552 0.523 58.409
26855.25 0.524 58.385 0.852 -31.576 0.852 -31.576 0.524 58.385
26880.208 0.524 58.361 0.851 -31.6 0.851 -31.6 0.524 58.361
26905.167 0.524 58.337 0.851 -31.624 0.851 -31.624 0.524 58.337
26930.125 0.525 58.313 0.851 -31.648 0.851 -31.648 0.525 58.313
26955.083 0.525 58.289 0.851 -31.672 0.851 -31.672 0.525 58.289
26980.042 0.525 58.265 0.85 -31.696 0.85 -31.696 0.525 58.265
27005 0.526 58.242 0.85 -31.719 0.85 -31.719 0.526 58.242
27029.958 0.526 58.218 0.85 -31.743 0.85 -31.743 0.526 58.218
27054.917 0.526 58.194 0.85 -31.767 0.85 -31.767 0.526 58.194
27079.875 0.527 58.17 0.85 -31.791 0.85 -31.791 0.527 58.17
27104.833 0.527 58.146 0.849 -31.815 0.849 -31.815 0.527 58.146
27129.792 0.528 58.123 0.849 -31.839 0.849 -31.839 0.528 58.123
27154.75 0.528 58.099 0.849 -31.863 0.849 -31.863 0.528 58.099
27179.708 0.528 58.075 0.849 -31.886 0.849 -31.886 0.528 58.075
27204.667 0.529 58.051 0.849 -31.91 0.849 -31.91 0.529 58.051
27229.625 0.529 58.027 0.848 -31.934 0.848 -31.934 0.529 58.027
27254.583 0.529 58.004 0.848 -31.958 0.848 -31.958 0.529 58.004
27279.542 0.53 57.98 0.848 -31.981 0.848 -31.981 0.53 57.98
27304.5 0.53 57.956 0.848 -32.005 0.848 -32.005 0.53 57.956
27329.458 0.53 57.933 0.847 -32.029 0.847 -32.029 0.53 57.933
27354.417 0.531 57.909 0.847 -32.053 0.847 -32.053 0.531 57.909
27379.375 0.531 57.885 0.847 -32.076 0.847 -32.076 0.531 57.885
27404.333 0.531 57.862 0.847 -32.1 0.847 -32.1 0.531 57.862
27429.292 0.532 57.838 0.847 -32.124 0.847 -32.124 0.532 57.838
27454.25 0.532 57.814 0.846 -32.147 0.846 -32.147 0.532 57.814
27479.208 0.532 57.791 0.846 -32.171 0.846 -32.171 0.532 57.791
27504.167 0.533 57.767 0.846 -32.195 0.846 -32.195 0.533 57.767
27529.125 0.533 57.743 0.846 -32.218 0.846 -32.218 0.533 57.743
27554.083 0.533 57.72 0.845 -32.242 0.845 -32.242 0.533 57.72
27579.042 0.534 57.696 0.845 -32.266 0.845 -32.266 0.534 57.696
27604 0.534 57.673 0.845 -32.289 0.845 -32.289 0.534 57.673
27628.958 0.535 57.649 0.845 -32.313 0.845 -32.313 0.535 57.649
27653.917 0.535 57.626 0.845 -32.336 0.845 -32.336 0.535 57.626
27678.875 0.535 57.602 0.844 -32.36 0.844 -32.36 0.535 57.602
27703.833 0.536 57.579 0.844 -32.383 0.844 -32.383 0.536 57.579
27728.792 0.536 57.555 0.844 -32.407 0.844 -32.407 0.536 57.555
27753.75 0.536 57.532 0.844 -32.43 0.844 -32.43 0.536 57.532
27778.708 0.537 57.508 0.843 -32.454 0.843 -32.454 0.537 57.508
27803.667 0.537 57.485 0.843 -32.477 0.843 -32.477 0.537 57.485
27828.625 0.537 57.461 0.843 -32.501 0.843 -32.501 0.537 57.461
27853.583 0.538 57.438 0.843 -32.524 0.843 -32.524 0.538 57.438
27878.542 0.538 57.414 0.843 -32.548 0.843 -32.548 0.538 57.414
27903.5 0.538 57.391 0.842 -32.571 0.842 -32.571 0.538 57.391
27928.458 0.539 57.368 0.842 -32.595 0.842 -32.595 0.539 57.368
27953.417 0.539 57.344 0.842 -32.618 0.842 -32.618 0.539 57.344
27978.375 0.539 57.321 0.842 -32.642 0.842 -32.642 0.539 57.321
28003.333 0.54 57.297 0.841 -32.665 0.841 -32.665 0.54 57.297
28028.292 0.54 57.274 0.841 -32.688 0.841 -32.688 0.54 57.274
28053.25 0.54 57.251 0.841 -32.712 0.841 -32.712 0.54 57.251
28078.208 0.541 57.227 0.841 -32.735 0.841 -32.735 0.541 57.227
28103.167 0.541 57.204 0.841 -32.758 0.841 -32.758 0.541 57.204
28128.125 0.541 57.181 0.84 -32.782 0.84 -32.782 0.541 57.181
28153.083 0.542 57.158 0.84 -32.805 0.84 -32.805 0.542 57.158
28178.042 0.542 57.134 0.84 -32.828 0.84 -32.828 0.542 57.134
28203 0.542 57.111 0.84 -32.852 0.84 -32.852 0.542 57.111
28227.958 0.543 57.088 0.84 -32.875 0.84 -32.875 0.543 57.088
28252.917 0.543 57.065 0.839 -32.898 0.839 -32.898 0.543 57.065
28277.875 0.543 57.041 0.839 -32.921 0.839 -32.921 0.543 57.041
28302.833 0.544 57.018 0.839 -32.945 0.839 -32.945 0.544 57.018
28327.792 0.544 56.995 0.839 -32.968 0.839 -32.968 0.544 56.995
28352.75 0.545 56.972 0.838 -32.991 0.838 -32.991 0.545 56.972
28377.708 0.545 56.949 0.838 -33.014 0.838 -33.014 0.545 56.949
28402.667 0.545 56.925 0.838 -33.038 0.838 -33.038 0.545 56.925
28427.625 0.546 56.902 0.838 -33.061 0.838 -33.061 0.546 56.902
28452.583 0.546 56.879 0.838 -33.084 0.838 -33.084 0.546 56.879
28477.542 0.546 56.856 0.837 -33.107 0.837 -33.107 0.546 56.856
28502.5 0.547 56.833 0.837 -33.13 0.837 -33.13 0.547 56.833
28527.458 0.547 56.81 0.837 -33.153 0.837 -33.153 0.547 56.81
28552.417 0.547 56.787 0.837 -33.176 0.837 -33.176 0.547 56.787
28577.375 0.548 56.764 0.836 -33.2 0.836 -33.2 0.548 56.764
28602.333 0.548 56.741 0.836 -33.223 0.836 -33.223 0.548 56.741
28627.292 0.548 56.717 0.836 -33.246 0.836 -33.246 0.548 56.717
28652.25 0.549 56.694 0.836 -33.269 0.836 -33.269 0.549 56.694
28677.208 0.549 56.671 0.836 -33.292 0.836 -33.292 0.549 56.671
28702.167 0.549 56.648 0.835 -33.315 0.835 -33.315 0.549 56.648
28727.125 0.55 56.625 0.835 -33.338 0.835 -33.338 0.55 56.625
28752.083 0.55 56.602 0.835 -33.361 0.835 -33.361 0.55 56.602
28777.042 0.55 56.579 0.835 -33.384 0.835 -33.384 0.55 56.579
28802 0.551 56.556 0.834 -33.407 0.834 -33.407 0.551 56.556
28826.958 0.551 56.533 0.834 -33.43 0.834 -33.43 0.551 56.533
28851.917 0.551 56.511 0.834 -33.453 0.834 -33.453 0.551 56.511
28876.875 0.552 56.488 0.834 -33.476 0.834 -33.476 0.552 56.488
28901.833 0.552 56.465 0.834 -33.499 0.834 -33.499 0.552 56.465
28926.792 0.552 56.442 0.833 -33.522 0.833 -33.522 0.552 56.442
28951.75 0.553 56.419 0.833 -33.545 0.833 -33.545 0.553 56.419
28976.708 0.553 56.396 0.833 -33.568 0.833 -33.568 0.553 56.396
29001.667 0.553 56.373 0.833 -33.591 0.833 -33.591 0.553 56.373
29026.625 0.554 56.35 0.832 -33.613 0.832 -33.613 0.554 56.35
29051.583 0.554 56.327 0.832 -33.636 0.832 -33.636 0.554 56.327
29076.542 0.554 56.305 0.832 -33.659 0.832 -33.659 0.554 56.305
29101.5 0.555 56.282 0.832 -33.682 0.832 -33.682 0.555 56.282
29126.458 0.555 56.259 0.832 -33.705 0.832 -33.705 0.555 56.259
29151.417 0.555 56.236 0.831 -33.728 0.831 -33.728 0.555 56.236
29176.375 0.556 56.213 0.831 -33.751 0.831 -33.751 0.556 56.213
29201.333 0.556 56.191 0.831 -33.773 0.831 -33.773 0.556 56.191
29226.292 0.556 56.168 0.831 -33.796 0.831 -33.796 0.556 56.168
29251.25 0.557 56.145 0.83 -33.819 0.83 -33.819 0.557 56.145
29276.208 0.557 56.122 0.83 -33.842 0.83 -33.842 0.557 56.122
29301.167 0.557 56.1 0.83 -33.864 0.83 -33.864 0.557 56.1
29326.125 0.558 56.077 0.83 -33.887 0.83 -33.887 0.558 56.077
29351.083 0.558 56.054 0.83 -33.91 0.83 -33.91 0.558 56.054
29376.042 0.558 56.032 0.829 -33.933 0.829 -33.933 0.558 56.032
29401 0.559 56.009 0.829 -33.955 0.829 -33.955 0.559 56.009
29425.958 0.559 55.986 0.829 -33.978 0.829 -33.978 0.559 55.986
29450.917 0.559 55.964 0.829 -34.001 0.829 -34.001 0.559 55.964
29475.875 0.56 55.941 0.828 -34.023 0.828 -34.023 0.56 55.941
29500.833 0.56 55.918 0.828 -34.046 0.828 -34.046 0.56 55.918
29525.792 0.56 55.896 0.828 -34.069 0.828 -34.069 0.56 55.896
29550.75 0.561 55.873 0.828 -34.091 0.828 -34.091 0.561 55.873
29575.708 0.561 55.851 0.828 -34.114 0.828 -34.114 0.561 55.851
29600.667 0.561 55.828 0.827 -34.137 0.827 -34.137 0.561 55.828
29625.625 0.561 55.805 0.827 -34.159 0.827 -34.159 0.561 55.805
29650.583 0.562 55.783 0.827 -34.182 0.827 -34.182 0.562 55.783
29675.542 0.562 55.76 0.827 -34.204 0.827 -34.204 0.562 55.76
29700.5 0.562 55.738 0.826 -34.227 0.826 -34.227 0.562 55.738
29725.458 0.563 55.715 0.826 -34.249 0.826 -34.249 0.563 55.715
29750.417 0.563 55.693 0.826 -34.272 0.826 -34.272 0.563 55.693
29775.375 0.563 55.67 0.826 -34.294 0.826 -34.294 0.563 55.67
29800.333 0.564 55.648 0.826 -34.317 0.826 -34.317 0.564 55.648
29825.292 0.564 55.625 0.825 -34.339 0.825 -34.339 0.564 55.625
29850.25 0.564 55.603 0.825 -34.362 0.825 -34.362 0.564 55.603
29875.208 0.565 55.58 0.825 -34.384 0.825 -34.384 0.565 55.58
29900.167 0.565 55.558 0.825 -34.407 0.825 -34.407 0.565 55.558
29925.125 0.565 55.536 0.824 -34.429 0.824 -34.429 0.565 55.536
29950.083 0.566 55.513 0.824 -34.452 0.824 -34.452 0.566 55.513
29975.042 0.566 55.491 0.824 -34.474 0.824 -34.474 0.566 55.491
30000 0.566 55.468 0.824 -34.497 0.824 -34.497 0.566 55.468
