!	AVX Thin Film Operation 	Date: April 2014		
!	Description: Accu-P® Series, Thin Film  SMD RF Capacitor
!	Part Number: 04021JA85ZBSTR					
!								
# MHZ S MA R 50

50 0.998 -3.326 0.058 86.669 0.058 86.669 0.998 -3.326
74.958 0.996 -4.98 0.087 85.013 0.087 85.013 0.996 -4.98
99.917 0.993 -6.626 0.115 83.365 0.115 83.365 0.993 -6.626
124.875 0.99 -8.262 0.144 81.727 0.144 81.727 0.99 -8.262
149.833 0.985 -9.885 0.172 80.102 0.172 80.102 0.985 -9.885
174.792 0.98 -11.493 0.199 78.492 0.199 78.492 0.98 -11.493
199.75 0.974 -13.084 0.226 76.899 0.226 76.899 0.974 -13.084
224.708 0.967 -14.656 0.253 75.325 0.253 75.325 0.967 -14.656
249.667 0.96 -16.207 0.279 73.772 0.279 73.772 0.96 -16.207
274.625 0.952 -17.735 0.305 72.242 0.305 72.242 0.952 -17.735
299.583 0.944 -19.239 0.33 70.735 0.33 70.735 0.944 -19.239
324.542 0.935 -20.718 0.354 69.255 0.354 69.255 0.935 -20.718
349.5 0.926 -22.17 0.377 67.8 0.377 67.8 0.926 -22.17
374.458 0.916 -23.595 0.4 66.374 0.4 66.374 0.916 -23.595
399.417 0.906 -24.991 0.422 64.975 0.422 64.975 0.906 -24.991
424.375 0.896 -26.359 0.444 63.606 0.444 63.606 0.896 -26.359
449.333 0.885 -27.696 0.465 62.266 0.465 62.266 0.885 -27.696
474.292 0.874 -29.004 0.485 60.956 0.485 60.956 0.874 -29.004
499.25 0.863 -30.282 0.504 59.676 0.504 59.676 0.863 -30.282
524.208 0.852 -31.53 0.523 58.426 0.523 58.426 0.852 -31.53
549.167 0.841 -32.747 0.541 57.206 0.541 57.206 0.841 -32.747
574.125 0.829 -33.935 0.558 56.017 0.558 56.017 0.829 -33.935
599.083 0.818 -35.093 0.575 54.857 0.575 54.857 0.818 -35.093
624.042 0.806 -36.221 0.591 53.726 0.591 53.726 0.806 -36.221
649 0.795 -37.32 0.606 52.625 0.606 52.625 0.795 -37.32
673.958 0.783 -38.391 0.621 51.552 0.621 51.552 0.783 -38.391
698.917 0.772 -39.433 0.635 50.508 0.635 50.508 0.772 -39.433
723.875 0.76 -40.448 0.649 49.491 0.649 49.491 0.76 -40.448
748.833 0.749 -41.435 0.662 48.502 0.662 48.502 0.749 -41.435
773.792 0.738 -42.396 0.674 47.538 0.674 47.538 0.738 -42.396
798.75 0.727 -43.331 0.686 46.601 0.686 46.601 0.727 -43.331
823.708 0.716 -44.241 0.698 45.689 0.698 45.689 0.716 -44.241
848.667 0.705 -45.126 0.709 44.802 0.709 44.802 0.705 -45.126
873.625 0.694 -45.987 0.719 43.938 0.719 43.938 0.694 -45.987
898.583 0.683 -46.825 0.729 43.098 0.729 43.098 0.683 -46.825
923.542 0.673 -47.64 0.739 42.281 0.739 42.281 0.673 -47.64
948.5 0.662 -48.434 0.748 41.485 0.748 41.485 0.662 -48.434
973.458 0.652 -49.206 0.757 40.711 0.757 40.711 0.652 -49.206
998.417 0.642 -49.957 0.766 39.958 0.766 39.958 0.642 -49.957
1023.375 0.632 -50.688 0.774 39.224 0.774 39.224 0.632 -50.688
1048.333 0.623 -51.4 0.782 38.51 0.782 38.51 0.623 -51.4
1073.292 0.613 -52.093 0.789 37.815 0.789 37.815 0.613 -52.093
1098.25 0.604 -52.767 0.796 37.138 0.796 37.138 0.604 -52.767
1123.208 0.595 -53.425 0.803 36.479 0.803 36.479 0.595 -53.425
1148.167 0.585 -54.065 0.81 35.836 0.81 35.836 0.585 -54.065
1173.125 0.577 -54.688 0.816 35.211 0.816 35.211 0.577 -54.688
1198.083 0.568 -55.296 0.822 34.601 0.822 34.601 0.568 -55.296
1223.042 0.559 -55.888 0.828 34.006 0.828 34.006 0.559 -55.888
1248 0.551 -56.465 0.834 33.427 0.834 33.427 0.551 -56.465
1272.958 0.543 -57.027 0.839 32.862 0.839 32.862 0.543 -57.027
1297.917 0.535 -57.576 0.844 32.311 0.844 32.311 0.535 -57.576
1322.875 0.527 -58.111 0.849 31.773 0.849 31.773 0.527 -58.111
1347.833 0.519 -58.633 0.854 31.249 0.854 31.249 0.519 -58.633
1372.792 0.511 -59.143 0.858 30.737 0.858 30.737 0.511 -59.143
1397.75 0.504 -59.64 0.863 30.237 0.863 30.237 0.504 -59.64
1422.708 0.496 -60.126 0.867 29.749 0.867 29.749 0.496 -60.126
1447.667 0.489 -60.6 0.871 29.273 0.871 29.273 0.489 -60.6
1472.625 0.482 -61.063 0.875 28.807 0.875 28.807 0.482 -61.063
1497.583 0.475 -61.515 0.879 28.352 0.879 28.352 0.475 -61.515
1522.542 0.468 -61.957 0.883 27.908 0.883 27.908 0.468 -61.957
1547.5 0.461 -62.389 0.886 27.474 0.886 27.474 0.461 -62.389
1572.458 0.455 -62.811 0.89 27.049 0.89 27.049 0.455 -62.811
1597.417 0.448 -63.224 0.893 26.633 0.893 26.633 0.448 -63.224
1622.375 0.442 -63.628 0.896 26.227 0.896 26.227 0.442 -63.628
1647.333 0.436 -64.022 0.899 25.83 0.899 25.83 0.436 -64.022
1672.292 0.43 -64.409 0.902 25.441 0.902 25.441 0.43 -64.409
1697.25 0.424 -64.787 0.905 25.06 0.905 25.06 0.424 -64.787
1722.208 0.418 -65.157 0.907 24.687 0.907 24.687 0.418 -65.157
1747.167 0.412 -65.52 0.91 24.322 0.91 24.322 0.412 -65.52
1772.125 0.406 -65.875 0.913 23.964 0.913 23.964 0.406 -65.875
1797.083 0.401 -66.222 0.915 23.614 0.915 23.614 0.401 -66.222
1822.042 0.395 -66.563 0.917 23.271 0.917 23.271 0.395 -66.563
1847 0.39 -66.896 0.92 22.934 0.92 22.934 0.39 -66.896
1871.958 0.384 -67.224 0.922 22.605 0.922 22.605 0.384 -67.224
1896.917 0.379 -67.544 0.924 22.281 0.924 22.281 0.379 -67.544
1921.875 0.374 -67.859 0.926 21.964 0.926 21.964 0.374 -67.859
1946.833 0.369 -68.167 0.928 21.653 0.928 21.653 0.369 -68.167
1971.792 0.364 -68.469 0.93 21.348 0.93 21.348 0.364 -68.469
1996.75 0.359 -68.766 0.932 21.048 0.932 21.048 0.359 -68.766
2021.708 0.354 -69.057 0.934 20.754 0.934 20.754 0.354 -69.057
2046.667 0.35 -69.343 0.936 20.465 0.936 20.465 0.35 -69.343
2071.625 0.345 -69.624 0.937 20.182 0.937 20.182 0.345 -69.624
2096.583 0.34 -69.899 0.939 19.903 0.939 19.903 0.34 -69.899
2121.542 0.336 -70.17 0.941 19.63 0.941 19.63 0.336 -70.17
2146.5 0.332 -70.435 0.942 19.361 0.942 19.361 0.332 -70.435
2171.458 0.327 -70.696 0.944 19.097 0.944 19.097 0.327 -70.696
2196.417 0.323 -70.953 0.945 18.838 0.945 18.838 0.323 -70.953
2221.375 0.319 -71.205 0.947 18.582 0.947 18.582 0.319 -71.205
2246.333 0.315 -71.452 0.948 18.332 0.948 18.332 0.315 -71.452
2271.292 0.31 -71.696 0.949 18.085 0.949 18.085 0.31 -71.696
2296.25 0.306 -71.935 0.951 17.842 0.951 17.842 0.306 -71.935
2321.208 0.302 -72.171 0.952 17.603 0.952 17.603 0.302 -72.171
2346.167 0.299 -72.403 0.953 17.369 0.953 17.369 0.299 -72.403
2371.125 0.295 -72.63 0.954 17.137 0.954 17.137 0.295 -72.63
2396.083 0.291 -72.855 0.956 16.91 0.956 16.91 0.291 -72.855
2421.042 0.287 -73.075 0.957 16.686 0.957 16.686 0.287 -73.075
2446 0.283 -73.292 0.958 16.465 0.958 16.465 0.283 -73.292
2470.958 0.28 -73.506 0.959 16.248 0.959 16.248 0.28 -73.506
2495.917 0.276 -73.717 0.96 16.034 0.96 16.034 0.276 -73.717
2520.875 0.273 -73.924 0.961 15.824 0.961 15.824 0.273 -73.924
2545.833 0.269 -74.128 0.962 15.616 0.962 15.616 0.269 -74.128
2570.792 0.266 -74.329 0.963 15.412 0.963 15.412 0.266 -74.329
2595.75 0.262 -74.527 0.964 15.21 0.964 15.21 0.262 -74.527
2620.708 0.259 -74.722 0.965 15.011 0.965 15.011 0.259 -74.722
2645.667 0.256 -74.914 0.966 14.815 0.966 14.815 0.256 -74.914
2670.625 0.252 -75.103 0.966 14.622 0.966 14.622 0.252 -75.103
2695.583 0.249 -75.29 0.967 14.432 0.967 14.432 0.249 -75.29
2720.542 0.246 -75.474 0.968 14.244 0.968 14.244 0.246 -75.474
2745.5 0.243 -75.656 0.969 14.059 0.969 14.059 0.243 -75.656
2770.458 0.24 -75.834 0.97 13.876 0.97 13.876 0.24 -75.834
2795.417 0.237 -76.011 0.97 13.695 0.97 13.695 0.237 -76.011
2820.375 0.234 -76.185 0.971 13.517 0.971 13.517 0.234 -76.185
2845.333 0.231 -76.356 0.972 13.342 0.972 13.342 0.231 -76.356
2870.292 0.228 -76.526 0.972 13.168 0.972 13.168 0.228 -76.526
2895.25 0.225 -76.693 0.973 12.997 0.973 12.997 0.225 -76.693
2920.208 0.222 -76.858 0.974 12.828 0.974 12.828 0.222 -76.858
2945.167 0.219 -77.02 0.974 12.661 0.974 12.661 0.219 -77.02
2970.125 0.216 -77.181 0.975 12.496 0.975 12.496 0.216 -77.181
2995.083 0.214 -77.339 0.976 12.334 0.976 12.334 0.214 -77.339
3020.042 0.211 -77.495 0.976 12.173 0.976 12.173 0.211 -77.495
3045 0.208 -77.65 0.977 12.014 0.977 12.014 0.208 -77.65
3069.958 0.205 -77.802 0.977 11.857 0.977 11.857 0.205 -77.802
3094.917 0.203 -77.953 0.978 11.702 0.978 11.702 0.203 -77.953
3119.875 0.2 -78.101 0.979 11.548 0.979 11.548 0.2 -78.101
3144.833 0.198 -78.248 0.979 11.397 0.979 11.397 0.198 -78.248
3169.792 0.195 -78.393 0.98 11.247 0.98 11.247 0.195 -78.393
3194.75 0.193 -78.536 0.98 11.099 0.98 11.099 0.193 -78.536
3219.708 0.19 -78.678 0.981 10.953 0.981 10.953 0.19 -78.678
3244.667 0.188 -78.818 0.981 10.808 0.981 10.808 0.188 -78.818
3269.625 0.185 -78.956 0.982 10.664 0.982 10.664 0.185 -78.956
3294.583 0.183 -79.092 0.982 10.523 0.982 10.523 0.183 -79.092
3319.542 0.18 -79.227 0.982 10.383 0.982 10.383 0.18 -79.227
3344.5 0.178 -79.36 0.983 10.244 0.983 10.244 0.178 -79.36
3369.458 0.175 -79.492 0.983 10.107 0.983 10.107 0.175 -79.492
3394.417 0.173 -79.622 0.984 9.971 0.984 9.971 0.173 -79.622
3419.375 0.171 -79.751 0.984 9.837 0.984 9.837 0.171 -79.751
3444.333 0.169 -79.878 0.984 9.704 0.984 9.704 0.169 -79.878
3469.292 0.166 -80.004 0.985 9.572 0.985 9.572 0.166 -80.004
3494.25 0.164 -80.128 0.985 9.442 0.985 9.442 0.164 -80.128
3519.208 0.162 -80.251 0.986 9.313 0.986 9.313 0.162 -80.251
3544.167 0.16 -80.372 0.986 9.185 0.986 9.185 0.16 -80.372
3569.125 0.157 -80.493 0.986 9.059 0.986 9.059 0.157 -80.493
3594.083 0.155 -80.611 0.987 8.933 0.987 8.933 0.155 -80.611
3619.042 0.153 -80.729 0.987 8.809 0.987 8.809 0.153 -80.729
3644 0.151 -80.845 0.987 8.687 0.987 8.687 0.151 -80.845
3668.958 0.149 -80.96 0.988 8.565 0.988 8.565 0.149 -80.96
3693.917 0.147 -81.074 0.988 8.444 0.988 8.444 0.147 -81.074
3718.875 0.145 -81.186 0.988 8.325 0.988 8.325 0.145 -81.186
3743.833 0.143 -81.297 0.989 8.207 0.989 8.207 0.143 -81.297
3768.792 0.141 -81.407 0.989 8.089 0.989 8.089 0.141 -81.407
3793.75 0.139 -81.516 0.989 7.973 0.989 7.973 0.139 -81.516
3818.708 0.137 -81.624 0.989 7.858 0.989 7.858 0.137 -81.624
3843.667 0.135 -81.73 0.99 7.744 0.99 7.744 0.135 -81.73
3868.625 0.133 -81.835 0.99 7.631 0.99 7.631 0.133 -81.835
3893.583 0.131 -81.939 0.99 7.519 0.99 7.519 0.131 -81.939
3918.542 0.129 -82.042 0.99 7.407 0.99 7.407 0.129 -82.042
3943.5 0.127 -82.144 0.991 7.297 0.991 7.297 0.127 -82.144
3968.458 0.125 -82.245 0.991 7.188 0.991 7.188 0.125 -82.245
3993.417 0.123 -82.344 0.991 7.079 0.991 7.079 0.123 -82.344
4018.375 0.121 -82.443 0.991 6.972 0.991 6.972 0.121 -82.443
4043.333 0.12 -82.54 0.992 6.865 0.992 6.865 0.12 -82.54
4068.292 0.118 -82.637 0.992 6.76 0.992 6.76 0.118 -82.637
4093.25 0.116 -82.732 0.992 6.655 0.992 6.655 0.116 -82.732
4118.208 0.114 -82.826 0.992 6.551 0.992 6.551 0.114 -82.826
4143.167 0.112 -82.92 0.992 6.447 0.992 6.447 0.112 -82.92
4168.125 0.111 -83.012 0.993 6.345 0.993 6.345 0.111 -83.012
4193.083 0.109 -83.103 0.993 6.243 0.993 6.243 0.109 -83.103
4218.042 0.107 -83.193 0.993 6.142 0.993 6.142 0.107 -83.193
4243 0.105 -83.282 0.993 6.042 0.993 6.042 0.105 -83.282
4267.958 0.104 -83.37 0.993 5.943 0.993 5.943 0.104 -83.37
4292.917 0.102 -83.457 0.994 5.844 0.994 5.844 0.102 -83.457
4317.875 0.1 -83.543 0.994 5.747 0.994 5.747 0.1 -83.543
4342.833 0.098 -83.627 0.994 5.649 0.994 5.649 0.098 -83.627
4367.792 0.097 -83.711 0.994 5.553 0.994 5.553 0.097 -83.711
4392.75 0.095 -83.794 0.994 5.457 0.994 5.457 0.095 -83.794
4417.708 0.093 -83.876 0.994 5.362 0.994 5.362 0.093 -83.876
4442.667 0.092 -83.956 0.995 5.268 0.995 5.268 0.092 -83.956
4467.625 0.09 -84.036 0.995 5.174 0.995 5.174 0.09 -84.036
4492.583 0.089 -84.114 0.995 5.081 0.995 5.081 0.089 -84.114
4517.542 0.087 -84.192 0.995 4.989 0.995 4.989 0.087 -84.192
4542.5 0.085 -84.268 0.995 4.897 0.995 4.897 0.085 -84.268
4567.458 0.084 -84.343 0.995 4.806 0.995 4.806 0.084 -84.343
4592.417 0.082 -84.417 0.995 4.715 0.995 4.715 0.082 -84.417
4617.375 0.081 -84.49 0.995 4.625 0.995 4.625 0.081 -84.49
4642.333 0.079 -84.562 0.996 4.536 0.996 4.536 0.079 -84.562
4667.292 0.078 -84.633 0.996 4.447 0.996 4.447 0.078 -84.633
4692.25 0.076 -84.702 0.996 4.359 0.996 4.359 0.076 -84.702
4717.208 0.074 -84.771 0.996 4.272 0.996 4.272 0.074 -84.771
4742.167 0.073 -84.838 0.996 4.185 0.996 4.185 0.073 -84.838
4767.125 0.071 -84.903 0.996 4.098 0.996 4.098 0.071 -84.903
4792.083 0.07 -84.968 0.996 4.012 0.996 4.012 0.07 -84.968
4817.042 0.068 -85.031 0.996 3.927 0.996 3.927 0.068 -85.031
4842 0.067 -85.093 0.997 3.842 0.997 3.842 0.067 -85.093
4866.958 0.066 -85.153 0.997 3.758 0.997 3.758 0.066 -85.153
4891.917 0.064 -85.212 0.997 3.674 0.997 3.674 0.064 -85.212
4916.875 0.063 -85.27 0.997 3.59 0.997 3.59 0.063 -85.27
4941.833 0.061 -85.325 0.997 3.508 0.997 3.508 0.061 -85.325
4966.792 0.06 -85.38 0.997 3.425 0.997 3.425 0.06 -85.38
4991.75 0.058 -85.432 0.997 3.343 0.997 3.343 0.058 -85.432
5016.708 0.057 -85.483 0.997 3.262 0.997 3.262 0.057 -85.483
5041.667 0.056 -85.532 0.997 3.181 0.997 3.181 0.056 -85.532
5066.625 0.054 -85.579 0.997 3.101 0.997 3.101 0.054 -85.579
5091.583 0.053 -85.624 0.997 3.021 0.997 3.021 0.053 -85.624
5116.542 0.051 -85.667 0.997 2.941 0.997 2.941 0.051 -85.667
5141.5 0.05 -85.707 0.998 2.862 0.998 2.862 0.05 -85.707
5166.458 0.049 -85.745 0.998 2.783 0.998 2.783 0.049 -85.745
5191.417 0.047 -85.781 0.998 2.705 0.998 2.705 0.047 -85.781
5216.375 0.046 -85.814 0.998 2.627 0.998 2.627 0.046 -85.814
5241.333 0.045 -85.844 0.998 2.55 0.998 2.55 0.045 -85.844
5266.292 0.043 -85.871 0.998 2.473 0.998 2.473 0.043 -85.871
5291.25 0.042 -85.894 0.998 2.397 0.998 2.397 0.042 -85.894
5316.208 0.041 -85.914 0.998 2.321 0.998 2.321 0.041 -85.914
5341.167 0.039 -85.931 0.998 2.245 0.998 2.245 0.039 -85.931
5366.125 0.038 -85.943 0.998 2.169 0.998 2.169 0.038 -85.943
5391.083 0.037 -85.95 0.998 2.095 0.998 2.095 0.037 -85.95
5416.042 0.035 -85.952 0.998 2.02 0.998 2.02 0.035 -85.952
5441 0.034 -85.949 0.998 1.946 0.998 1.946 0.034 -85.949
5465.958 0.033 -85.94 0.998 1.872 0.998 1.872 0.033 -85.94
5490.917 0.031 -85.924 0.998 1.799 0.998 1.799 0.031 -85.924
5515.875 0.03 -85.901 0.998 1.725 0.998 1.725 0.03 -85.901
5540.833 0.029 -85.869 0.998 1.653 0.998 1.653 0.029 -85.869
5565.792 0.028 -85.828 0.998 1.58 0.998 1.58 0.028 -85.828
5590.75 0.026 -85.777 0.998 1.508 0.998 1.508 0.026 -85.777
5615.708 0.025 -85.713 0.998 1.437 0.998 1.437 0.025 -85.713
5640.667 0.024 -85.636 0.998 1.365 0.998 1.365 0.024 -85.636
5665.625 0.023 -85.542 0.998 1.294 0.998 1.294 0.023 -85.542
5690.583 0.021 -85.431 0.999 1.224 0.999 1.224 0.021 -85.431
5715.542 0.02 -85.298 0.999 1.153 0.999 1.153 0.02 -85.298
5740.5 0.019 -85.139 0.999 1.083 0.999 1.083 0.019 -85.139
5765.458 0.018 -84.95 0.999 1.014 0.999 1.014 0.018 -84.95
5790.417 0.017 -84.724 0.999 0.944 0.999 0.944 0.017 -84.724
5815.375 0.015 -84.452 0.999 0.875 0.999 0.875 0.015 -84.452
5840.333 0.014 -84.125 0.999 0.807 0.999 0.807 0.014 -84.125
5865.292 0.013 -83.726 0.999 0.738 0.999 0.738 0.013 -83.726
5890.25 0.012 -83.235 0.999 0.67 0.999 0.67 0.012 -83.235
5915.208 0.011 -82.623 0.999 0.602 0.999 0.602 0.011 -82.623
5940.167 9.415e-3 -81.844 0.999 0.535 0.999 0.535 9.415e-3 -81.844
5965.125 8.253e-3 -80.831 0.999 0.467 0.999 0.467 8.253e-3 -80.831
5990.083 7.1e-3 -79.471 0.999 0.4 0.999 0.4 7.1e-3 -79.471
6015.042 5.958e-3 -77.569 0.999 0.334 0.999 0.334 5.958e-3 -77.569
6040 4.831e-3 -74.754 0.999 0.267 0.999 0.267 4.831e-3 -74.754
6064.958 3.729e-3 -70.233 0.999 0.201 0.999 0.201 3.729e-3 -70.233
6089.917 2.674e-3 -62.023 0.999 0.135 0.999 0.135 2.674e-3 -62.023
6114.875 1.746e-3 -44.26 0.999 0.07 0.999 0.07 1.746e-3 -44.26
6139.833 1.251e-3 -3.667 0.999 4.591e-3 0.999 4.591e-3 1.251e-3 -3.667
6164.792 1.635e-3 40.132 0.999 -0.06 0.999 -0.06 1.635e-3 40.132
6189.75 2.517e-3 60.133 0.999 -0.125 0.999 -0.125 2.517e-3 60.133
6214.708 3.539e-3 69.15 0.999 -0.19 0.999 -0.19 3.539e-3 69.15
6239.667 4.606e-3 74.014 0.999 -0.254 0.999 -0.254 4.606e-3 74.014
6264.625 5.689e-3 77.002 0.999 -0.318 0.999 -0.318 5.689e-3 77.002
6289.583 6.779e-3 79.004 0.999 -0.382 0.999 -0.382 6.779e-3 79.004
6314.542 7.871e-3 80.427 0.999 -0.445 0.999 -0.445 7.871e-3 80.427
6339.5 8.963e-3 81.483 0.999 -0.509 0.999 -0.509 8.963e-3 81.483
6364.458 0.01 82.294 0.999 -0.572 0.999 -0.572 0.01 82.294
6389.417 0.011 82.931 0.999 -0.634 0.999 -0.634 0.011 82.931
6414.375 0.012 83.442 0.999 -0.697 0.999 -0.697 0.012 83.442
6439.333 0.013 83.857 0.999 -0.759 0.999 -0.759 0.013 83.857
6464.292 0.014 84.2 0.999 -0.821 0.999 -0.821 0.014 84.2
6489.25 0.015 84.486 0.999 -0.883 0.999 -0.883 0.015 84.486
6514.208 0.017 84.725 0.999 -0.945 0.999 -0.945 0.017 84.725
6539.167 0.018 84.927 0.999 -1.006 0.999 -1.006 0.018 84.927
6564.125 0.019 85.098 0.999 -1.067 0.999 -1.067 0.019 85.098
6589.083 0.02 85.244 0.999 -1.128 0.999 -1.128 0.02 85.244
6614.042 0.021 85.368 0.999 -1.189 0.999 -1.189 0.021 85.368
6639 0.022 85.474 0.999 -1.25 0.999 -1.25 0.022 85.474
6663.958 0.023 85.564 0.998 -1.31 0.998 -1.31 0.023 85.564
6688.917 0.024 85.641 0.998 -1.37 0.998 -1.37 0.024 85.641
6713.875 0.025 85.706 0.998 -1.43 0.998 -1.43 0.025 85.706
6738.833 0.026 85.761 0.998 -1.49 0.998 -1.49 0.026 85.761
6763.792 0.027 85.807 0.998 -1.549 0.998 -1.549 0.027 85.807
6788.75 0.028 85.845 0.998 -1.608 0.998 -1.608 0.028 85.845
6813.708 0.029 85.876 0.998 -1.667 0.998 -1.667 0.029 85.876
6838.667 0.03 85.901 0.998 -1.726 0.998 -1.726 0.03 85.901
6863.625 0.031 85.92 0.998 -1.785 0.998 -1.785 0.031 85.92
6888.583 0.032 85.935 0.998 -1.844 0.998 -1.844 0.032 85.935
6913.542 0.033 85.945 0.998 -1.902 0.998 -1.902 0.033 85.945
6938.5 0.034 85.95 0.998 -1.96 0.998 -1.96 0.034 85.95
6963.458 0.035 85.952 0.998 -2.018 0.998 -2.018 0.035 85.952
6988.417 0.036 85.951 0.998 -2.076 0.998 -2.076 0.036 85.951
7013.375 0.037 85.947 0.998 -2.133 0.998 -2.133 0.037 85.947
7038.333 0.038 85.94 0.998 -2.191 0.998 -2.191 0.038 85.94
7063.292 0.039 85.93 0.998 -2.248 0.998 -2.248 0.039 85.93
7088.25 0.04 85.918 0.998 -2.305 0.998 -2.305 0.04 85.918
7113.208 0.041 85.904 0.998 -2.362 0.998 -2.362 0.041 85.904
7138.167 0.042 85.888 0.998 -2.418 0.998 -2.418 0.042 85.888
7163.125 0.043 85.87 0.998 -2.475 0.998 -2.475 0.043 85.87
7188.083 0.044 85.851 0.998 -2.531 0.998 -2.531 0.044 85.851
7213.042 0.045 85.83 0.998 -2.587 0.998 -2.587 0.045 85.83
7238 0.046 85.807 0.998 -2.643 0.998 -2.643 0.046 85.807
7262.958 0.047 85.784 0.998 -2.699 0.998 -2.699 0.047 85.784
7287.917 0.048 85.759 0.998 -2.755 0.998 -2.755 0.048 85.759
7312.875 0.049 85.732 0.998 -2.81 0.998 -2.81 0.049 85.732
7337.833 0.05 85.705 0.998 -2.866 0.998 -2.866 0.05 85.705
7362.792 0.051 85.677 0.997 -2.921 0.997 -2.921 0.051 85.677
7387.75 0.052 85.648 0.997 -2.976 0.997 -2.976 0.052 85.648
7412.708 0.053 85.618 0.997 -3.031 0.997 -3.031 0.053 85.618
7437.667 0.054 85.587 0.997 -3.085 0.997 -3.085 0.054 85.587
7462.625 0.055 85.556 0.997 -3.14 0.997 -3.14 0.055 85.556
7487.583 0.056 85.524 0.997 -3.194 0.997 -3.194 0.056 85.524
7512.542 0.057 85.491 0.997 -3.249 0.997 -3.249 0.057 85.491
7537.5 0.058 85.458 0.997 -3.303 0.997 -3.303 0.058 85.458
7562.458 0.059 85.424 0.997 -3.357 0.997 -3.357 0.059 85.424
7587.417 0.06 85.389 0.997 -3.41 0.997 -3.41 0.06 85.389
7612.375 0.06 85.354 0.997 -3.464 0.997 -3.464 0.06 85.354
7637.333 0.061 85.319 0.997 -3.518 0.997 -3.518 0.061 85.319
7662.292 0.062 85.283 0.997 -3.571 0.997 -3.571 0.062 85.283
7687.25 0.063 85.246 0.997 -3.624 0.997 -3.624 0.063 85.246
7712.208 0.064 85.21 0.997 -3.677 0.997 -3.677 0.064 85.21
7737.167 0.065 85.172 0.997 -3.73 0.997 -3.73 0.065 85.172
7762.125 0.066 85.135 0.997 -3.783 0.997 -3.783 0.066 85.135
7787.083 0.067 85.097 0.997 -3.836 0.997 -3.836 0.067 85.097
7812.042 0.068 85.059 0.996 -3.888 0.996 -3.888 0.068 85.059
7837 0.069 85.021 0.996 -3.941 0.996 -3.941 0.069 85.021
7861.958 0.07 84.982 0.996 -3.993 0.996 -3.993 0.07 84.982
7886.917 0.071 84.943 0.996 -4.045 0.996 -4.045 0.071 84.943
7911.875 0.071 84.904 0.996 -4.097 0.996 -4.097 0.071 84.904
7936.833 0.072 84.865 0.996 -4.149 0.996 -4.149 0.072 84.865
7961.792 0.073 84.825 0.996 -4.201 0.996 -4.201 0.073 84.825
7986.75 0.074 84.786 0.996 -4.252 0.996 -4.252 0.074 84.786
8011.708 0.075 84.746 0.996 -4.304 0.996 -4.304 0.075 84.746
8036.667 0.076 84.705 0.996 -4.355 0.996 -4.355 0.076 84.705
8061.625 0.077 84.665 0.996 -4.406 0.996 -4.406 0.077 84.665
8086.583 0.078 84.625 0.996 -4.457 0.996 -4.457 0.078 84.625
8111.542 0.079 84.584 0.996 -4.508 0.996 -4.508 0.079 84.584
8136.5 0.08 84.544 0.996 -4.559 0.996 -4.559 0.08 84.544
8161.458 0.08 84.503 0.996 -4.61 0.996 -4.61 0.08 84.503
8186.417 0.081 84.462 0.995 -4.661 0.995 -4.661 0.081 84.462
8211.375 0.082 84.421 0.995 -4.711 0.995 -4.711 0.082 84.421
8236.333 0.083 84.379 0.995 -4.762 0.995 -4.762 0.083 84.379
8261.292 0.084 84.338 0.995 -4.812 0.995 -4.812 0.084 84.338
8286.25 0.085 84.297 0.995 -4.862 0.995 -4.862 0.085 84.297
8311.208 0.086 84.255 0.995 -4.912 0.995 -4.912 0.086 84.255
8336.167 0.087 84.214 0.995 -4.962 0.995 -4.962 0.087 84.214
8361.125 0.087 84.172 0.995 -5.012 0.995 -5.012 0.087 84.172
8386.083 0.088 84.131 0.995 -5.062 0.995 -5.062 0.088 84.131
8411.042 0.089 84.089 0.995 -5.111 0.995 -5.111 0.089 84.089
8436 0.09 84.047 0.995 -5.161 0.995 -5.161 0.09 84.047
8460.958 0.091 84.005 0.995 -5.21 0.995 -5.21 0.091 84.005
8485.917 0.092 83.963 0.995 -5.259 0.995 -5.259 0.092 83.963
8510.875 0.093 83.922 0.994 -5.309 0.994 -5.309 0.093 83.922
8535.833 0.093 83.88 0.994 -5.358 0.994 -5.358 0.093 83.88
8560.792 0.094 83.838 0.994 -5.407 0.994 -5.407 0.094 83.838
8585.75 0.095 83.795 0.994 -5.455 0.994 -5.455 0.095 83.795
8610.708 0.096 83.753 0.994 -5.504 0.994 -5.504 0.096 83.753
8635.667 0.097 83.711 0.994 -5.553 0.994 -5.553 0.097 83.711
8660.625 0.098 83.669 0.994 -5.601 0.994 -5.601 0.098 83.669
8685.583 0.098 83.627 0.994 -5.65 0.994 -5.65 0.098 83.627
8710.542 0.099 83.585 0.994 -5.698 0.994 -5.698 0.099 83.585
8735.5 0.1 83.543 0.994 -5.746 0.994 -5.746 0.1 83.543
8760.458 0.101 83.501 0.994 -5.794 0.994 -5.794 0.101 83.501
8785.417 0.102 83.458 0.994 -5.843 0.994 -5.843 0.102 83.458
8810.375 0.103 83.416 0.993 -5.89 0.993 -5.89 0.103 83.416
8835.333 0.103 83.374 0.993 -5.938 0.993 -5.938 0.103 83.374
8860.292 0.104 83.332 0.993 -5.986 0.993 -5.986 0.104 83.332
8885.25 0.105 83.289 0.993 -6.034 0.993 -6.034 0.105 83.289
8910.208 0.106 83.247 0.993 -6.081 0.993 -6.081 0.106 83.247
8935.167 0.107 83.205 0.993 -6.129 0.993 -6.129 0.107 83.205
8960.125 0.108 83.163 0.993 -6.176 0.993 -6.176 0.108 83.163
8985.083 0.108 83.121 0.993 -6.223 0.993 -6.223 0.108 83.121
9010.042 0.109 83.078 0.993 -6.271 0.993 -6.271 0.109 83.078
9035 0.11 83.036 0.993 -6.318 0.993 -6.318 0.11 83.036
9059.958 0.111 82.994 0.993 -6.365 0.993 -6.365 0.111 82.994
9084.917 0.112 82.952 0.993 -6.412 0.993 -6.412 0.112 82.952
9109.875 0.112 82.91 0.992 -6.458 0.992 -6.458 0.112 82.91
9134.833 0.113 82.867 0.992 -6.505 0.992 -6.505 0.113 82.867
9159.792 0.114 82.825 0.992 -6.552 0.992 -6.552 0.114 82.825
9184.75 0.115 82.783 0.992 -6.598 0.992 -6.598 0.115 82.783
9209.708 0.116 82.741 0.992 -6.645 0.992 -6.645 0.116 82.741
9234.667 0.117 82.699 0.992 -6.691 0.992 -6.691 0.117 82.699
9259.625 0.117 82.657 0.992 -6.738 0.992 -6.738 0.117 82.657
9284.583 0.118 82.615 0.992 -6.784 0.992 -6.784 0.118 82.615
9309.542 0.119 82.573 0.992 -6.83 0.992 -6.83 0.119 82.573
9334.5 0.12 82.531 0.992 -6.876 0.992 -6.876 0.12 82.531
9359.458 0.121 82.489 0.991 -6.922 0.991 -6.922 0.121 82.489
9384.417 0.121 82.447 0.991 -6.968 0.991 -6.968 0.121 82.447
9409.375 0.122 82.405 0.991 -7.014 0.991 -7.014 0.122 82.405
9434.333 0.123 82.363 0.991 -7.059 0.991 -7.059 0.123 82.363
9459.292 0.124 82.321 0.991 -7.105 0.991 -7.105 0.124 82.321
9484.25 0.124 82.279 0.991 -7.15 0.991 -7.15 0.124 82.279
9509.208 0.125 82.237 0.991 -7.196 0.991 -7.196 0.125 82.237
9534.167 0.126 82.196 0.991 -7.241 0.991 -7.241 0.126 82.196
9559.125 0.127 82.154 0.991 -7.287 0.991 -7.287 0.127 82.154
9584.083 0.128 82.112 0.991 -7.332 0.991 -7.332 0.128 82.112
9609.042 0.128 82.07 0.99 -7.377 0.99 -7.377 0.128 82.07
9634 0.129 82.029 0.99 -7.422 0.99 -7.422 0.129 82.029
9658.958 0.13 81.987 0.99 -7.467 0.99 -7.467 0.13 81.987
9683.917 0.131 81.945 0.99 -7.512 0.99 -7.512 0.131 81.945
9708.875 0.132 81.904 0.99 -7.557 0.99 -7.557 0.132 81.904
9733.833 0.132 81.862 0.99 -7.602 0.99 -7.602 0.132 81.862
9758.792 0.133 81.821 0.99 -7.646 0.99 -7.646 0.133 81.821
9783.75 0.134 81.779 0.99 -7.691 0.99 -7.691 0.134 81.779
9808.708 0.135 81.738 0.99 -7.736 0.99 -7.736 0.135 81.738
9833.667 0.135 81.696 0.99 -7.78 0.99 -7.78 0.135 81.696
9858.625 0.136 81.655 0.989 -7.825 0.989 -7.825 0.136 81.655
9883.583 0.137 81.613 0.989 -7.869 0.989 -7.869 0.137 81.613
9908.542 0.138 81.572 0.989 -7.913 0.989 -7.913 0.138 81.572
9933.5 0.138 81.531 0.989 -7.957 0.989 -7.957 0.138 81.531
9958.458 0.139 81.49 0.989 -8.002 0.989 -8.002 0.139 81.49
9983.417 0.14 81.448 0.989 -8.046 0.989 -8.046 0.14 81.448
10008.375 0.141 81.407 0.989 -8.09 0.989 -8.09 0.141 81.407
10033.333 0.141 81.366 0.989 -8.133 0.989 -8.133 0.141 81.366
10058.292 0.142 81.325 0.989 -8.177 0.989 -8.177 0.142 81.325
10083.25 0.143 81.284 0.988 -8.221 0.988 -8.221 0.143 81.284
10108.208 0.144 81.243 0.988 -8.265 0.988 -8.265 0.144 81.243
10133.167 0.145 81.202 0.988 -8.308 0.988 -8.308 0.145 81.202
10158.125 0.145 81.161 0.988 -8.352 0.988 -8.352 0.145 81.161
10183.083 0.146 81.12 0.988 -8.396 0.988 -8.396 0.146 81.12
10208.042 0.147 81.079 0.988 -8.439 0.988 -8.439 0.147 81.079
10233 0.148 81.038 0.988 -8.482 0.988 -8.482 0.148 81.038
10257.958 0.148 80.997 0.988 -8.526 0.988 -8.526 0.148 80.997
10282.917 0.149 80.956 0.988 -8.569 0.988 -8.569 0.149 80.956
10307.875 0.15 80.915 0.987 -8.612 0.987 -8.612 0.15 80.915
10332.833 0.15 80.875 0.987 -8.655 0.987 -8.655 0.15 80.875
10357.792 0.151 80.834 0.987 -8.698 0.987 -8.698 0.151 80.834
10382.75 0.152 80.793 0.987 -8.741 0.987 -8.741 0.152 80.793
10407.708 0.153 80.753 0.987 -8.784 0.987 -8.784 0.153 80.753
10432.667 0.153 80.712 0.987 -8.827 0.987 -8.827 0.153 80.712
10457.625 0.154 80.672 0.987 -8.87 0.987 -8.87 0.154 80.672
10482.583 0.155 80.631 0.987 -8.913 0.987 -8.913 0.155 80.631
10507.542 0.156 80.591 0.987 -8.955 0.987 -8.955 0.156 80.591
10532.5 0.156 80.55 0.986 -8.998 0.986 -8.998 0.156 80.55
10557.458 0.157 80.51 0.986 -9.04 0.986 -9.04 0.157 80.51
10582.417 0.158 80.47 0.986 -9.083 0.986 -9.083 0.158 80.47
10607.375 0.159 80.429 0.986 -9.125 0.986 -9.125 0.159 80.429
10632.333 0.159 80.389 0.986 -9.168 0.986 -9.168 0.159 80.389
10657.292 0.16 80.349 0.986 -9.21 0.986 -9.21 0.16 80.349
10682.25 0.161 80.308 0.986 -9.252 0.986 -9.252 0.161 80.308
10707.208 0.162 80.268 0.986 -9.294 0.986 -9.294 0.162 80.268
10732.167 0.162 80.228 0.986 -9.337 0.986 -9.337 0.162 80.228
10757.125 0.163 80.188 0.985 -9.379 0.985 -9.379 0.163 80.188
10782.083 0.164 80.148 0.985 -9.421 0.985 -9.421 0.164 80.148
10807.042 0.164 80.108 0.985 -9.463 0.985 -9.463 0.164 80.108
10832 0.165 80.068 0.985 -9.505 0.985 -9.505 0.165 80.068
10856.958 0.166 80.028 0.985 -9.546 0.985 -9.546 0.166 80.028
10881.917 0.167 79.988 0.985 -9.588 0.985 -9.588 0.167 79.988
10906.875 0.167 79.948 0.985 -9.63 0.985 -9.63 0.167 79.948
10931.833 0.168 79.909 0.985 -9.672 0.985 -9.672 0.168 79.909
10956.792 0.169 79.869 0.984 -9.713 0.984 -9.713 0.169 79.869
10981.75 0.169 79.829 0.984 -9.755 0.984 -9.755 0.169 79.829
11006.708 0.17 79.789 0.984 -9.796 0.984 -9.796 0.17 79.789
11031.667 0.171 79.75 0.984 -9.838 0.984 -9.838 0.171 79.75
11056.625 0.172 79.71 0.984 -9.879 0.984 -9.879 0.172 79.71
11081.583 0.172 79.67 0.984 -9.92 0.984 -9.92 0.172 79.67
11106.542 0.173 79.631 0.984 -9.962 0.984 -9.962 0.173 79.631
11131.5 0.174 79.591 0.984 -10.003 0.984 -10.003 0.174 79.591
11156.458 0.174 79.552 0.983 -10.044 0.983 -10.044 0.174 79.552
11181.417 0.175 79.512 0.983 -10.085 0.983 -10.085 0.175 79.512
11206.375 0.176 79.473 0.983 -10.126 0.983 -10.126 0.176 79.473
11231.333 0.177 79.434 0.983 -10.167 0.983 -10.167 0.177 79.434
11256.292 0.177 79.394 0.983 -10.208 0.983 -10.208 0.177 79.394
11281.25 0.178 79.355 0.983 -10.249 0.983 -10.249 0.178 79.355
11306.208 0.179 79.316 0.983 -10.29 0.983 -10.29 0.179 79.316
11331.167 0.179 79.276 0.983 -10.331 0.983 -10.331 0.179 79.276
11356.125 0.18 79.237 0.982 -10.372 0.982 -10.372 0.18 79.237
11381.083 0.181 79.198 0.982 -10.412 0.982 -10.412 0.181 79.198
11406.042 0.181 79.159 0.982 -10.453 0.982 -10.453 0.181 79.159
11431 0.182 79.12 0.982 -10.494 0.982 -10.494 0.182 79.12
11455.958 0.183 79.081 0.982 -10.534 0.982 -10.534 0.183 79.081
11480.917 0.184 79.042 0.982 -10.575 0.982 -10.575 0.184 79.042
11505.875 0.184 79.003 0.982 -10.615 0.982 -10.615 0.184 79.003
11530.833 0.185 78.964 0.982 -10.656 0.982 -10.656 0.185 78.964
11555.792 0.186 78.925 0.981 -10.696 0.981 -10.696 0.186 78.925
11580.75 0.186 78.886 0.981 -10.736 0.981 -10.736 0.186 78.886
11605.708 0.187 78.847 0.981 -10.777 0.981 -10.777 0.187 78.847
11630.667 0.188 78.809 0.981 -10.817 0.981 -10.817 0.188 78.809
11655.625 0.188 78.77 0.981 -10.857 0.981 -10.857 0.188 78.77
11680.583 0.189 78.731 0.981 -10.897 0.981 -10.897 0.189 78.731
11705.542 0.19 78.693 0.981 -10.937 0.981 -10.937 0.19 78.693
11730.5 0.19 78.654 0.98 -10.977 0.98 -10.977 0.19 78.654
11755.458 0.191 78.615 0.98 -11.017 0.98 -11.017 0.191 78.615
11780.417 0.192 78.577 0.98 -11.057 0.98 -11.057 0.192 78.577
11805.375 0.192 78.538 0.98 -11.097 0.98 -11.097 0.192 78.538
11830.333 0.193 78.5 0.98 -11.137 0.98 -11.137 0.193 78.5
11855.292 0.194 78.461 0.98 -11.177 0.98 -11.177 0.194 78.461
11880.25 0.195 78.423 0.98 -11.216 0.98 -11.216 0.195 78.423
11905.208 0.195 78.384 0.98 -11.256 0.98 -11.256 0.195 78.384
11930.167 0.196 78.346 0.979 -11.296 0.979 -11.296 0.196 78.346
11955.125 0.197 78.308 0.979 -11.335 0.979 -11.335 0.197 78.308
11980.083 0.197 78.269 0.979 -11.375 0.979 -11.375 0.197 78.269
12005.042 0.198 78.231 0.979 -11.414 0.979 -11.414 0.198 78.231
12030 0.199 78.193 0.979 -11.454 0.979 -11.454 0.199 78.193
12054.958 0.199 78.155 0.979 -11.493 0.979 -11.493 0.199 78.155
12079.917 0.2 78.117 0.979 -11.533 0.979 -11.533 0.2 78.117
12104.875 0.201 78.079 0.978 -11.572 0.978 -11.572 0.201 78.079
12129.833 0.201 78.041 0.978 -11.611 0.978 -11.611 0.201 78.041
12154.792 0.202 78.002 0.978 -11.651 0.978 -11.651 0.202 78.002
12179.75 0.203 77.964 0.978 -11.69 0.978 -11.69 0.203 77.964
12204.708 0.203 77.926 0.978 -11.729 0.978 -11.729 0.203 77.926
12229.667 0.204 77.889 0.978 -11.768 0.978 -11.768 0.204 77.889
12254.625 0.205 77.851 0.978 -11.807 0.978 -11.807 0.205 77.851
12279.583 0.205 77.813 0.977 -11.846 0.977 -11.846 0.205 77.813
12304.542 0.206 77.775 0.977 -11.885 0.977 -11.885 0.206 77.775
12329.5 0.207 77.737 0.977 -11.924 0.977 -11.924 0.207 77.737
12354.458 0.207 77.699 0.977 -11.963 0.977 -11.963 0.207 77.699
12379.417 0.208 77.662 0.977 -12.002 0.977 -12.002 0.208 77.662
12404.375 0.209 77.624 0.977 -12.041 0.977 -12.041 0.209 77.624
12429.333 0.209 77.586 0.977 -12.079 0.977 -12.079 0.209 77.586
12454.292 0.21 77.549 0.976 -12.118 0.976 -12.118 0.21 77.549
12479.25 0.211 77.511 0.976 -12.157 0.976 -12.157 0.211 77.511
12504.208 0.211 77.473 0.976 -12.195 0.976 -12.195 0.211 77.473
12529.167 0.212 77.436 0.976 -12.234 0.976 -12.234 0.212 77.436
12554.125 0.213 77.398 0.976 -12.273 0.976 -12.273 0.213 77.398
12579.083 0.213 77.361 0.976 -12.311 0.976 -12.311 0.213 77.361
12604.042 0.214 77.324 0.976 -12.35 0.976 -12.35 0.214 77.324
12629 0.215 77.286 0.975 -12.388 0.975 -12.388 0.215 77.286
12653.958 0.215 77.249 0.975 -12.426 0.975 -12.426 0.215 77.249
12678.917 0.216 77.211 0.975 -12.465 0.975 -12.465 0.216 77.211
12703.875 0.216 77.174 0.975 -12.503 0.975 -12.503 0.216 77.174
12728.833 0.217 77.137 0.975 -12.541 0.975 -12.541 0.217 77.137
12753.792 0.218 77.1 0.975 -12.58 0.975 -12.58 0.218 77.1
12778.75 0.218 77.062 0.975 -12.618 0.975 -12.618 0.218 77.062
12803.708 0.219 77.025 0.974 -12.656 0.974 -12.656 0.219 77.025
12828.667 0.22 76.988 0.974 -12.694 0.974 -12.694 0.22 76.988
12853.625 0.22 76.951 0.974 -12.732 0.974 -12.732 0.22 76.951
12878.583 0.221 76.914 0.974 -12.77 0.974 -12.77 0.221 76.914
12903.542 0.222 76.877 0.974 -12.808 0.974 -12.808 0.222 76.877
12928.5 0.222 76.84 0.974 -12.846 0.974 -12.846 0.222 76.84
12953.458 0.223 76.803 0.974 -12.884 0.974 -12.884 0.223 76.803
12978.417 0.224 76.766 0.973 -12.922 0.973 -12.922 0.224 76.766
13003.375 0.224 76.729 0.973 -12.96 0.973 -12.96 0.224 76.729
13028.333 0.225 76.692 0.973 -12.998 0.973 -12.998 0.225 76.692
13053.292 0.226 76.655 0.973 -13.036 0.973 -13.036 0.226 76.655
13078.25 0.226 76.619 0.973 -13.073 0.973 -13.073 0.226 76.619
13103.208 0.227 76.582 0.973 -13.111 0.973 -13.111 0.227 76.582
13128.167 0.227 76.545 0.973 -13.149 0.973 -13.149 0.227 76.545
13153.125 0.228 76.508 0.972 -13.186 0.972 -13.186 0.228 76.508
13178.083 0.229 76.472 0.972 -13.224 0.972 -13.224 0.229 76.472
13203.042 0.229 76.435 0.972 -13.262 0.972 -13.262 0.229 76.435
13228 0.23 76.398 0.972 -13.299 0.972 -13.299 0.23 76.398
13252.958 0.231 76.362 0.972 -13.337 0.972 -13.337 0.231 76.362
13277.917 0.231 76.325 0.972 -13.374 0.972 -13.374 0.231 76.325
13302.875 0.232 76.289 0.972 -13.411 0.972 -13.411 0.232 76.289
13327.833 0.233 76.252 0.971 -13.449 0.971 -13.449 0.233 76.252
13352.792 0.233 76.216 0.971 -13.486 0.971 -13.486 0.233 76.216
13377.75 0.234 76.179 0.971 -13.523 0.971 -13.523 0.234 76.179
13402.708 0.234 76.143 0.971 -13.561 0.971 -13.561 0.234 76.143
13427.667 0.235 76.106 0.971 -13.598 0.971 -13.598 0.235 76.106
13452.625 0.236 76.07 0.971 -13.635 0.971 -13.635 0.236 76.07
13477.583 0.236 76.034 0.97 -13.672 0.97 -13.672 0.236 76.034
13502.542 0.237 75.997 0.97 -13.709 0.97 -13.709 0.237 75.997
13527.5 0.238 75.961 0.97 -13.746 0.97 -13.746 0.238 75.961
13552.458 0.238 75.925 0.97 -13.783 0.97 -13.783 0.238 75.925
13577.417 0.239 75.889 0.97 -13.821 0.97 -13.821 0.239 75.889
13602.375 0.24 75.852 0.97 -13.857 0.97 -13.857 0.24 75.852
13627.333 0.24 75.816 0.97 -13.894 0.97 -13.894 0.24 75.816
13652.292 0.241 75.78 0.969 -13.931 0.969 -13.931 0.241 75.78
13677.25 0.241 75.744 0.969 -13.968 0.969 -13.968 0.241 75.744
13702.208 0.242 75.708 0.969 -14.005 0.969 -14.005 0.242 75.708
13727.167 0.243 75.672 0.969 -14.042 0.969 -14.042 0.243 75.672
13752.125 0.243 75.636 0.969 -14.079 0.969 -14.079 0.243 75.636
13777.083 0.244 75.6 0.969 -14.115 0.969 -14.115 0.244 75.6
13802.042 0.245 75.564 0.968 -14.152 0.968 -14.152 0.245 75.564
13827 0.245 75.528 0.968 -14.189 0.968 -14.189 0.245 75.528
13851.958 0.246 75.492 0.968 -14.225 0.968 -14.225 0.246 75.492
13876.917 0.246 75.456 0.968 -14.262 0.968 -14.262 0.246 75.456
13901.875 0.247 75.421 0.968 -14.299 0.968 -14.299 0.247 75.421
13926.833 0.248 75.385 0.968 -14.335 0.968 -14.335 0.248 75.385
13951.792 0.248 75.349 0.967 -14.372 0.967 -14.372 0.248 75.349
13976.75 0.249 75.313 0.967 -14.408 0.967 -14.408 0.249 75.313
14001.708 0.249 75.278 0.967 -14.445 0.967 -14.445 0.249 75.278
14026.667 0.25 75.242 0.967 -14.481 0.967 -14.481 0.25 75.242
14051.625 0.251 75.206 0.967 -14.517 0.967 -14.517 0.251 75.206
14076.583 0.251 75.171 0.967 -14.554 0.967 -14.554 0.251 75.171
14101.542 0.252 75.135 0.967 -14.59 0.967 -14.59 0.252 75.135
14126.5 0.253 75.1 0.966 -14.626 0.966 -14.626 0.253 75.1
14151.458 0.253 75.064 0.966 -14.663 0.966 -14.663 0.253 75.064
14176.417 0.254 75.028 0.966 -14.699 0.966 -14.699 0.254 75.028
14201.375 0.254 74.993 0.966 -14.735 0.966 -14.735 0.254 74.993
14226.333 0.255 74.958 0.966 -14.771 0.966 -14.771 0.255 74.958
14251.292 0.256 74.922 0.966 -14.807 0.966 -14.807 0.256 74.922
14276.25 0.256 74.887 0.965 -14.843 0.965 -14.843 0.256 74.887
14301.208 0.257 74.851 0.965 -14.879 0.965 -14.879 0.257 74.851
14326.167 0.257 74.816 0.965 -14.915 0.965 -14.915 0.257 74.816
14351.125 0.258 74.781 0.965 -14.951 0.965 -14.951 0.258 74.781
14376.083 0.259 74.745 0.965 -14.987 0.965 -14.987 0.259 74.745
14401.042 0.259 74.71 0.965 -15.023 0.965 -15.023 0.259 74.71
14426 0.26 74.675 0.964 -15.059 0.964 -15.059 0.26 74.675
14450.958 0.26 74.64 0.964 -15.095 0.964 -15.095 0.26 74.64
14475.917 0.261 74.605 0.964 -15.131 0.964 -15.131 0.261 74.605
14500.875 0.262 74.569 0.964 -15.167 0.964 -15.167 0.262 74.569
14525.833 0.262 74.534 0.964 -15.202 0.964 -15.202 0.262 74.534
14550.792 0.263 74.499 0.964 -15.238 0.964 -15.238 0.263 74.499
14575.75 0.263 74.464 0.963 -15.274 0.963 -15.274 0.263 74.464
14600.708 0.264 74.429 0.963 -15.31 0.963 -15.31 0.264 74.429
14625.667 0.265 74.394 0.963 -15.345 0.963 -15.345 0.265 74.394
14650.625 0.265 74.359 0.963 -15.381 0.963 -15.381 0.265 74.359
14675.583 0.266 74.324 0.963 -15.416 0.963 -15.416 0.266 74.324
14700.542 0.266 74.289 0.963 -15.452 0.963 -15.452 0.266 74.289
14725.5 0.267 74.254 0.962 -15.488 0.962 -15.488 0.267 74.254
14750.458 0.268 74.219 0.962 -15.523 0.962 -15.523 0.268 74.219
14775.417 0.268 74.185 0.962 -15.558 0.962 -15.558 0.268 74.185
14800.375 0.269 74.15 0.962 -15.594 0.962 -15.594 0.269 74.15
14825.333 0.269 74.115 0.962 -15.629 0.962 -15.629 0.269 74.115
14850.292 0.27 74.08 0.962 -15.665 0.962 -15.665 0.27 74.08
14875.25 0.271 74.045 0.961 -15.7 0.961 -15.7 0.271 74.045
14900.208 0.271 74.011 0.961 -15.735 0.961 -15.735 0.271 74.011
14925.167 0.272 73.976 0.961 -15.771 0.961 -15.771 0.272 73.976
14950.125 0.272 73.941 0.961 -15.806 0.961 -15.806 0.272 73.941
14975.083 0.273 73.907 0.961 -15.841 0.961 -15.841 0.273 73.907
15000.042 0.274 73.872 0.961 -15.876 0.961 -15.876 0.274 73.872
15025 0.274 73.837 0.96 -15.912 0.96 -15.912 0.274 73.837
15049.958 0.275 73.803 0.96 -15.947 0.96 -15.947 0.275 73.803
15074.917 0.275 73.768 0.96 -15.982 0.96 -15.982 0.275 73.768
15099.875 0.276 73.734 0.96 -16.017 0.96 -16.017 0.276 73.734
15124.833 0.277 73.699 0.96 -16.052 0.96 -16.052 0.277 73.699
15149.792 0.277 73.665 0.96 -16.087 0.96 -16.087 0.277 73.665
15174.75 0.278 73.63 0.959 -16.122 0.959 -16.122 0.278 73.63
15199.708 0.278 73.596 0.959 -16.157 0.959 -16.157 0.278 73.596
15224.667 0.279 73.562 0.959 -16.192 0.959 -16.192 0.279 73.562
15249.625 0.279 73.527 0.959 -16.227 0.959 -16.227 0.279 73.527
15274.583 0.28 73.493 0.959 -16.262 0.959 -16.262 0.28 73.493
15299.542 0.281 73.459 0.959 -16.297 0.959 -16.297 0.281 73.459
15324.5 0.281 73.424 0.958 -16.331 0.958 -16.331 0.281 73.424
15349.458 0.282 73.39 0.958 -16.366 0.958 -16.366 0.282 73.39
15374.417 0.282 73.356 0.958 -16.401 0.958 -16.401 0.282 73.356
15399.375 0.283 73.322 0.958 -16.436 0.958 -16.436 0.283 73.322
15424.333 0.284 73.288 0.958 -16.47 0.958 -16.47 0.284 73.288
15449.292 0.284 73.253 0.958 -16.505 0.958 -16.505 0.284 73.253
15474.25 0.285 73.219 0.957 -16.54 0.957 -16.54 0.285 73.219
15499.208 0.285 73.185 0.957 -16.574 0.957 -16.574 0.285 73.185
15524.167 0.286 73.151 0.957 -16.609 0.957 -16.609 0.286 73.151
15549.125 0.286 73.117 0.957 -16.644 0.957 -16.644 0.286 73.117
15574.083 0.287 73.083 0.957 -16.678 0.957 -16.678 0.287 73.083
15599.042 0.288 73.049 0.957 -16.713 0.957 -16.713 0.288 73.049
15624 0.288 73.015 0.956 -16.747 0.956 -16.747 0.288 73.015
15648.958 0.289 72.981 0.956 -16.782 0.956 -16.782 0.289 72.981
15673.917 0.289 72.947 0.956 -16.816 0.956 -16.816 0.289 72.947
15698.875 0.29 72.913 0.956 -16.851 0.956 -16.851 0.29 72.913
15723.833 0.29 72.879 0.956 -16.885 0.956 -16.885 0.29 72.879
15748.792 0.291 72.845 0.956 -16.919 0.956 -16.919 0.291 72.845
15773.75 0.292 72.812 0.955 -16.954 0.955 -16.954 0.292 72.812
15798.708 0.292 72.778 0.955 -16.988 0.955 -16.988 0.292 72.778
15823.667 0.293 72.744 0.955 -17.022 0.955 -17.022 0.293 72.744
15848.625 0.293 72.71 0.955 -17.056 0.955 -17.056 0.293 72.71
15873.583 0.294 72.677 0.955 -17.091 0.955 -17.091 0.294 72.677
15898.542 0.294 72.643 0.954 -17.125 0.954 -17.125 0.294 72.643
15923.5 0.295 72.609 0.954 -17.159 0.954 -17.159 0.295 72.609
15948.458 0.296 72.576 0.954 -17.193 0.954 -17.193 0.296 72.576
15973.417 0.296 72.542 0.954 -17.227 0.954 -17.227 0.296 72.542
15998.375 0.297 72.508 0.954 -17.261 0.954 -17.261 0.297 72.508
16023.333 0.297 72.475 0.954 -17.296 0.954 -17.296 0.297 72.475
16048.292 0.298 72.441 0.953 -17.33 0.953 -17.33 0.298 72.441
16073.25 0.298 72.408 0.953 -17.364 0.953 -17.364 0.298 72.408
16098.208 0.299 72.374 0.953 -17.398 0.953 -17.398 0.299 72.374
16123.167 0.3 72.341 0.953 -17.432 0.953 -17.432 0.3 72.341
16148.125 0.3 72.307 0.953 -17.466 0.953 -17.466 0.3 72.307
16173.083 0.301 72.274 0.953 -17.499 0.953 -17.499 0.301 72.274
16198.042 0.301 72.24 0.952 -17.533 0.952 -17.533 0.301 72.24
16223 0.302 72.207 0.952 -17.567 0.952 -17.567 0.302 72.207
16247.958 0.302 72.173 0.952 -17.601 0.952 -17.601 0.302 72.173
16272.917 0.303 72.14 0.952 -17.635 0.952 -17.635 0.303 72.14
16297.875 0.304 72.107 0.952 -17.669 0.952 -17.669 0.304 72.107
16322.833 0.304 72.073 0.951 -17.702 0.951 -17.702 0.304 72.073
16347.792 0.305 72.04 0.951 -17.736 0.951 -17.736 0.305 72.04
16372.75 0.305 72.007 0.951 -17.77 0.951 -17.77 0.305 72.007
16397.708 0.306 71.974 0.951 -17.804 0.951 -17.804 0.306 71.974
16422.667 0.306 71.94 0.951 -17.837 0.951 -17.837 0.306 71.94
16447.625 0.307 71.907 0.951 -17.871 0.951 -17.871 0.307 71.907
16472.583 0.307 71.874 0.95 -17.904 0.95 -17.904 0.307 71.874
16497.542 0.308 71.841 0.95 -17.938 0.95 -17.938 0.308 71.841
16522.5 0.309 71.808 0.95 -17.972 0.95 -17.972 0.309 71.808
16547.458 0.309 71.775 0.95 -18.005 0.95 -18.005 0.309 71.775
16572.417 0.31 71.742 0.95 -18.039 0.95 -18.039 0.31 71.742
16597.375 0.31 71.709 0.949 -18.072 0.949 -18.072 0.31 71.709
16622.333 0.311 71.676 0.949 -18.106 0.949 -18.106 0.311 71.676
16647.292 0.311 71.643 0.949 -18.139 0.949 -18.139 0.311 71.643
16672.25 0.312 71.61 0.949 -18.172 0.949 -18.172 0.312 71.61
16697.208 0.312 71.577 0.949 -18.206 0.949 -18.206 0.312 71.577
16722.167 0.313 71.544 0.949 -18.239 0.949 -18.239 0.313 71.544
16747.125 0.314 71.511 0.948 -18.272 0.948 -18.272 0.314 71.511
16772.083 0.314 71.478 0.948 -18.306 0.948 -18.306 0.314 71.478
16797.042 0.315 71.445 0.948 -18.339 0.948 -18.339 0.315 71.445
16822 0.315 71.412 0.948 -18.372 0.948 -18.372 0.315 71.412
16846.958 0.316 71.379 0.948 -18.406 0.948 -18.406 0.316 71.379
16871.917 0.316 71.347 0.947 -18.439 0.947 -18.439 0.316 71.347
16896.875 0.317 71.314 0.947 -18.472 0.947 -18.472 0.317 71.314
16921.833 0.317 71.281 0.947 -18.505 0.947 -18.505 0.317 71.281
16946.792 0.318 71.248 0.947 -18.538 0.947 -18.538 0.318 71.248
16971.75 0.318 71.216 0.947 -18.571 0.947 -18.571 0.318 71.216
16996.708 0.319 71.183 0.947 -18.604 0.947 -18.604 0.319 71.183
17021.667 0.32 71.15 0.946 -18.638 0.946 -18.638 0.32 71.15
17046.625 0.32 71.118 0.946 -18.671 0.946 -18.671 0.32 71.118
17071.583 0.321 71.085 0.946 -18.704 0.946 -18.704 0.321 71.085
17096.542 0.321 71.052 0.946 -18.737 0.946 -18.737 0.321 71.052
17121.5 0.322 71.02 0.946 -18.77 0.946 -18.77 0.322 71.02
17146.458 0.322 70.987 0.945 -18.803 0.945 -18.803 0.322 70.987
17171.417 0.323 70.955 0.945 -18.835 0.945 -18.835 0.323 70.955
17196.375 0.323 70.922 0.945 -18.868 0.945 -18.868 0.323 70.922
17221.333 0.324 70.89 0.945 -18.901 0.945 -18.901 0.324 70.89
17246.292 0.324 70.857 0.945 -18.934 0.945 -18.934 0.324 70.857
17271.25 0.325 70.825 0.945 -18.967 0.945 -18.967 0.325 70.825
17296.208 0.326 70.792 0.944 -19 0.944 -19 0.326 70.792
17321.167 0.326 70.76 0.944 -19.032 0.944 -19.032 0.326 70.76
17346.125 0.327 70.728 0.944 -19.065 0.944 -19.065 0.327 70.728
17371.083 0.327 70.695 0.944 -19.098 0.944 -19.098 0.327 70.695
17396.042 0.328 70.663 0.944 -19.131 0.944 -19.131 0.328 70.663
17421 0.328 70.631 0.943 -19.163 0.943 -19.163 0.328 70.631
17445.958 0.329 70.598 0.943 -19.196 0.943 -19.196 0.329 70.598
17470.917 0.329 70.566 0.943 -19.229 0.943 -19.229 0.329 70.566
17495.875 0.33 70.534 0.943 -19.261 0.943 -19.261 0.33 70.534
17520.833 0.33 70.502 0.943 -19.294 0.943 -19.294 0.33 70.502
17545.792 0.331 70.47 0.942 -19.326 0.942 -19.326 0.331 70.47
17570.75 0.331 70.437 0.942 -19.359 0.942 -19.359 0.331 70.437
17595.708 0.332 70.405 0.942 -19.392 0.942 -19.392 0.332 70.405
17620.667 0.333 70.373 0.942 -19.424 0.942 -19.424 0.333 70.373
17645.625 0.333 70.341 0.942 -19.457 0.942 -19.457 0.333 70.341
17670.583 0.334 70.309 0.942 -19.489 0.942 -19.489 0.334 70.309
17695.542 0.334 70.277 0.941 -19.521 0.941 -19.521 0.334 70.277
17720.5 0.335 70.245 0.941 -19.554 0.941 -19.554 0.335 70.245
17745.458 0.335 70.213 0.941 -19.586 0.941 -19.586 0.335 70.213
17770.417 0.336 70.181 0.941 -19.619 0.941 -19.619 0.336 70.181
17795.375 0.336 70.149 0.941 -19.651 0.941 -19.651 0.336 70.149
17820.333 0.337 70.117 0.94 -19.683 0.94 -19.683 0.337 70.117
17845.292 0.337 70.085 0.94 -19.716 0.94 -19.716 0.337 70.085
17870.25 0.338 70.053 0.94 -19.748 0.94 -19.748 0.338 70.053
17895.208 0.338 70.021 0.94 -19.78 0.94 -19.78 0.338 70.021
17920.167 0.339 69.989 0.94 -19.812 0.94 -19.812 0.339 69.989
17945.125 0.339 69.957 0.939 -19.845 0.939 -19.845 0.339 69.957
17970.083 0.34 69.925 0.939 -19.877 0.939 -19.877 0.34 69.925
17995.042 0.341 69.894 0.939 -19.909 0.939 -19.909 0.341 69.894
18020 0.341 69.862 0.939 -19.941 0.939 -19.941 0.341 69.862
18044.958 0.342 69.83 0.939 -19.973 0.939 -19.973 0.342 69.83
18069.917 0.342 69.798 0.938 -20.005 0.938 -20.005 0.342 69.798
18094.875 0.343 69.767 0.938 -20.037 0.938 -20.037 0.343 69.767
18119.833 0.343 69.735 0.938 -20.069 0.938 -20.069 0.343 69.735
18144.792 0.344 69.703 0.938 -20.101 0.938 -20.101 0.344 69.703
18169.75 0.344 69.671 0.938 -20.133 0.938 -20.133 0.344 69.671
18194.708 0.345 69.64 0.938 -20.165 0.938 -20.165 0.345 69.64
18219.667 0.345 69.608 0.937 -20.197 0.937 -20.197 0.345 69.608
18244.625 0.346 69.577 0.937 -20.229 0.937 -20.229 0.346 69.577
18269.583 0.346 69.545 0.937 -20.261 0.937 -20.261 0.346 69.545
18294.542 0.347 69.513 0.937 -20.293 0.937 -20.293 0.347 69.513
18319.5 0.347 69.482 0.937 -20.325 0.937 -20.325 0.347 69.482
18344.458 0.348 69.45 0.936 -20.357 0.936 -20.357 0.348 69.45
18369.417 0.348 69.419 0.936 -20.389 0.936 -20.389 0.348 69.419
18394.375 0.349 69.387 0.936 -20.42 0.936 -20.42 0.349 69.387
18419.333 0.349 69.356 0.936 -20.452 0.936 -20.452 0.349 69.356
18444.292 0.35 69.324 0.936 -20.484 0.936 -20.484 0.35 69.324
18469.25 0.35 69.293 0.935 -20.516 0.935 -20.516 0.35 69.293
18494.208 0.351 69.262 0.935 -20.547 0.935 -20.547 0.351 69.262
18519.167 0.352 69.23 0.935 -20.579 0.935 -20.579 0.352 69.23
18544.125 0.352 69.199 0.935 -20.611 0.935 -20.611 0.352 69.199
18569.083 0.353 69.168 0.935 -20.643 0.935 -20.643 0.353 69.168
18594.042 0.353 69.136 0.934 -20.674 0.934 -20.674 0.353 69.136
18619 0.354 69.105 0.934 -20.706 0.934 -20.706 0.354 69.105
18643.958 0.354 69.074 0.934 -20.737 0.934 -20.737 0.354 69.074
18668.917 0.355 69.042 0.934 -20.769 0.934 -20.769 0.355 69.042
18693.875 0.355 69.011 0.934 -20.8 0.934 -20.8 0.355 69.011
18718.833 0.356 68.98 0.933 -20.832 0.933 -20.832 0.356 68.98
18743.792 0.356 68.949 0.933 -20.864 0.933 -20.864 0.356 68.949
18768.75 0.357 68.918 0.933 -20.895 0.933 -20.895 0.357 68.918
18793.708 0.357 68.886 0.933 -20.926 0.933 -20.926 0.357 68.886
18818.667 0.358 68.855 0.933 -20.958 0.933 -20.958 0.358 68.855
18843.625 0.358 68.824 0.932 -20.989 0.932 -20.989 0.358 68.824
18868.583 0.359 68.793 0.932 -21.021 0.932 -21.021 0.359 68.793
18893.542 0.359 68.762 0.932 -21.052 0.932 -21.052 0.359 68.762
18918.5 0.36 68.731 0.932 -21.083 0.932 -21.083 0.36 68.731
18943.458 0.36 68.7 0.932 -21.115 0.932 -21.115 0.36 68.7
18968.417 0.361 68.669 0.931 -21.146 0.931 -21.146 0.361 68.669
18993.375 0.361 68.638 0.931 -21.177 0.931 -21.177 0.361 68.638
19018.333 0.362 68.607 0.931 -21.209 0.931 -21.209 0.362 68.607
19043.292 0.362 68.576 0.931 -21.24 0.931 -21.24 0.362 68.576
19068.25 0.363 68.545 0.931 -21.271 0.931 -21.271 0.363 68.545
19093.208 0.363 68.514 0.931 -21.302 0.931 -21.302 0.363 68.514
19118.167 0.364 68.483 0.93 -21.334 0.93 -21.334 0.364 68.483
19143.125 0.364 68.452 0.93 -21.365 0.93 -21.365 0.364 68.452
19168.083 0.365 68.421 0.93 -21.396 0.93 -21.396 0.365 68.421
19193.042 0.365 68.391 0.93 -21.427 0.93 -21.427 0.365 68.391
19218 0.366 68.36 0.93 -21.458 0.93 -21.458 0.366 68.36
19242.958 0.366 68.329 0.929 -21.489 0.929 -21.489 0.366 68.329
19267.917 0.367 68.298 0.929 -21.52 0.929 -21.52 0.367 68.298
19292.875 0.367 68.267 0.929 -21.551 0.929 -21.551 0.367 68.267
19317.833 0.368 68.237 0.929 -21.582 0.929 -21.582 0.368 68.237
19342.792 0.368 68.206 0.929 -21.613 0.929 -21.613 0.368 68.206
19367.75 0.369 68.175 0.928 -21.644 0.928 -21.644 0.369 68.175
19392.708 0.369 68.145 0.928 -21.675 0.928 -21.675 0.369 68.145
19417.667 0.37 68.114 0.928 -21.706 0.928 -21.706 0.37 68.114
19442.625 0.37 68.083 0.928 -21.737 0.928 -21.737 0.37 68.083
19467.583 0.371 68.053 0.928 -21.768 0.928 -21.768 0.371 68.053
19492.542 0.371 68.022 0.927 -21.799 0.927 -21.799 0.371 68.022
19517.5 0.372 67.992 0.927 -21.83 0.927 -21.83 0.372 67.992
19542.458 0.372 67.961 0.927 -21.861 0.927 -21.861 0.372 67.961
19567.417 0.373 67.93 0.927 -21.891 0.927 -21.891 0.373 67.93
19592.375 0.373 67.9 0.927 -21.922 0.927 -21.922 0.373 67.9
19617.333 0.374 67.869 0.926 -21.953 0.926 -21.953 0.374 67.869
19642.292 0.374 67.839 0.926 -21.984 0.926 -21.984 0.374 67.839
19667.25 0.375 67.808 0.926 -22.015 0.926 -22.015 0.375 67.808
19692.208 0.375 67.778 0.926 -22.045 0.926 -22.045 0.375 67.778
19717.167 0.376 67.748 0.926 -22.076 0.926 -22.076 0.376 67.748
19742.125 0.376 67.717 0.925 -22.107 0.925 -22.107 0.376 67.717
19767.083 0.377 67.687 0.925 -22.137 0.925 -22.137 0.377 67.687
19792.042 0.377 67.656 0.925 -22.168 0.925 -22.168 0.377 67.656
19817 0.378 67.626 0.925 -22.199 0.925 -22.199 0.378 67.626
19841.958 0.378 67.596 0.925 -22.229 0.925 -22.229 0.378 67.596
19866.917 0.379 67.565 0.924 -22.26 0.924 -22.26 0.379 67.565
19891.875 0.379 67.535 0.924 -22.29 0.924 -22.29 0.379 67.535
19916.833 0.38 67.505 0.924 -22.321 0.924 -22.321 0.38 67.505
19941.792 0.38 67.475 0.924 -22.351 0.924 -22.351 0.38 67.475
19966.75 0.381 67.444 0.924 -22.382 0.924 -22.382 0.381 67.444
19991.708 0.381 67.414 0.923 -22.412 0.923 -22.412 0.381 67.414
20016.667 0.382 67.384 0.923 -22.443 0.923 -22.443 0.382 67.384
20041.625 0.382 67.354 0.923 -22.473 0.923 -22.473 0.382 67.354
20066.583 0.383 67.324 0.923 -22.504 0.923 -22.504 0.383 67.324
20091.542 0.383 67.294 0.922 -22.534 0.922 -22.534 0.383 67.294
20116.5 0.384 67.263 0.922 -22.564 0.922 -22.564 0.384 67.263
20141.458 0.384 67.233 0.922 -22.595 0.922 -22.595 0.384 67.233
20166.417 0.385 67.203 0.922 -22.625 0.922 -22.625 0.385 67.203
20191.375 0.385 67.173 0.922 -22.655 0.922 -22.655 0.385 67.173
20216.333 0.386 67.143 0.921 -22.686 0.921 -22.686 0.386 67.143
20241.292 0.386 67.113 0.921 -22.716 0.921 -22.716 0.386 67.113
20266.25 0.387 67.083 0.921 -22.746 0.921 -22.746 0.387 67.083
20291.208 0.387 67.053 0.921 -22.776 0.921 -22.776 0.387 67.053
20316.167 0.388 67.023 0.921 -22.807 0.921 -22.807 0.388 67.023
20341.125 0.388 66.993 0.92 -22.837 0.92 -22.837 0.388 66.993
20366.083 0.389 66.963 0.92 -22.867 0.92 -22.867 0.389 66.963
20391.042 0.389 66.933 0.92 -22.897 0.92 -22.897 0.389 66.933
20416 0.39 66.903 0.92 -22.927 0.92 -22.927 0.39 66.903
20440.958 0.39 66.874 0.92 -22.958 0.92 -22.958 0.39 66.874
20465.917 0.391 66.844 0.919 -22.988 0.919 -22.988 0.391 66.844
20490.875 0.391 66.814 0.919 -23.018 0.919 -23.018 0.391 66.814
20515.833 0.392 66.784 0.919 -23.048 0.919 -23.048 0.392 66.784
20540.792 0.392 66.754 0.919 -23.078 0.919 -23.078 0.392 66.754
20565.75 0.392 66.724 0.919 -23.108 0.919 -23.108 0.392 66.724
20590.708 0.393 66.695 0.918 -23.138 0.918 -23.138 0.393 66.695
20615.667 0.393 66.665 0.918 -23.168 0.918 -23.168 0.393 66.665
20640.625 0.394 66.635 0.918 -23.198 0.918 -23.198 0.394 66.635
20665.583 0.394 66.606 0.918 -23.228 0.918 -23.228 0.394 66.606
20690.542 0.395 66.576 0.918 -23.258 0.918 -23.258 0.395 66.576
20715.5 0.395 66.546 0.917 -23.288 0.917 -23.288 0.395 66.546
20740.458 0.396 66.517 0.917 -23.317 0.917 -23.317 0.396 66.517
20765.417 0.396 66.487 0.917 -23.347 0.917 -23.347 0.396 66.487
20790.375 0.397 66.457 0.917 -23.377 0.917 -23.377 0.397 66.457
20815.333 0.397 66.428 0.917 -23.407 0.917 -23.407 0.397 66.428
20840.292 0.398 66.398 0.916 -23.437 0.916 -23.437 0.398 66.398
20865.25 0.398 66.369 0.916 -23.467 0.916 -23.467 0.398 66.369
20890.208 0.399 66.339 0.916 -23.496 0.916 -23.496 0.399 66.339
20915.167 0.399 66.309 0.916 -23.526 0.916 -23.526 0.399 66.309
20940.125 0.4 66.28 0.916 -23.556 0.916 -23.556 0.4 66.28
20965.083 0.4 66.25 0.915 -23.586 0.915 -23.586 0.4 66.25
20990.042 0.401 66.221 0.915 -23.615 0.915 -23.615 0.401 66.221
21015 0.401 66.192 0.915 -23.645 0.915 -23.645 0.401 66.192
21039.958 0.402 66.162 0.915 -23.675 0.915 -23.675 0.402 66.162
21064.917 0.402 66.133 0.914 -23.704 0.914 -23.704 0.402 66.133
21089.875 0.402 66.103 0.914 -23.734 0.914 -23.734 0.402 66.103
21114.833 0.403 66.074 0.914 -23.764 0.914 -23.764 0.403 66.074
21139.792 0.403 66.045 0.914 -23.793 0.914 -23.793 0.403 66.045
21164.75 0.404 66.015 0.914 -23.823 0.914 -23.823 0.404 66.015
21189.708 0.404 65.986 0.913 -23.852 0.913 -23.852 0.404 65.986
21214.667 0.405 65.957 0.913 -23.882 0.913 -23.882 0.405 65.957
21239.625 0.405 65.927 0.913 -23.911 0.913 -23.911 0.405 65.927
21264.583 0.406 65.898 0.913 -23.941 0.913 -23.941 0.406 65.898
21289.542 0.406 65.869 0.913 -23.97 0.913 -23.97 0.406 65.869
21314.5 0.407 65.84 0.912 -24 0.912 -24 0.407 65.84
21339.458 0.407 65.81 0.912 -24.029 0.912 -24.029 0.407 65.81
21364.417 0.408 65.781 0.912 -24.059 0.912 -24.059 0.408 65.781
21389.375 0.408 65.752 0.912 -24.088 0.912 -24.088 0.408 65.752
21414.333 0.409 65.723 0.912 -24.117 0.912 -24.117 0.409 65.723
21439.292 0.409 65.694 0.911 -24.147 0.911 -24.147 0.409 65.694
21464.25 0.41 65.665 0.911 -24.176 0.911 -24.176 0.41 65.665
21489.208 0.41 65.636 0.911 -24.205 0.911 -24.205 0.41 65.636
21514.167 0.41 65.606 0.911 -24.235 0.911 -24.235 0.41 65.606
21539.125 0.411 65.577 0.911 -24.264 0.911 -24.264 0.411 65.577
21564.083 0.411 65.548 0.91 -24.293 0.91 -24.293 0.411 65.548
21589.042 0.412 65.519 0.91 -24.322 0.91 -24.322 0.412 65.519
21614 0.412 65.49 0.91 -24.352 0.91 -24.352 0.412 65.49
21638.958 0.413 65.461 0.91 -24.381 0.91 -24.381 0.413 65.461
21663.917 0.413 65.432 0.909 -24.41 0.909 -24.41 0.413 65.432
21688.875 0.414 65.403 0.909 -24.439 0.909 -24.439 0.414 65.403
21713.833 0.414 65.374 0.909 -24.468 0.909 -24.468 0.414 65.374
21738.792 0.415 65.345 0.909 -24.497 0.909 -24.497 0.415 65.345
21763.75 0.415 65.317 0.909 -24.527 0.909 -24.527 0.415 65.317
21788.708 0.416 65.288 0.908 -24.556 0.908 -24.556 0.416 65.288
21813.667 0.416 65.259 0.908 -24.585 0.908 -24.585 0.416 65.259
21838.625 0.417 65.23 0.908 -24.614 0.908 -24.614 0.417 65.23
21863.583 0.417 65.201 0.908 -24.643 0.908 -24.643 0.417 65.201
21888.542 0.417 65.172 0.908 -24.672 0.908 -24.672 0.417 65.172
21913.5 0.418 65.143 0.907 -24.701 0.907 -24.701 0.418 65.143
21938.458 0.418 65.115 0.907 -24.73 0.907 -24.73 0.418 65.115
21963.417 0.419 65.086 0.907 -24.759 0.907 -24.759 0.419 65.086
21988.375 0.419 65.057 0.907 -24.788 0.907 -24.788 0.419 65.057
22013.333 0.42 65.028 0.907 -24.817 0.907 -24.817 0.42 65.028
22038.292 0.42 65 0.906 -24.846 0.906 -24.846 0.42 65
22063.25 0.421 64.971 0.906 -24.875 0.906 -24.875 0.421 64.971
22088.208 0.421 64.942 0.906 -24.903 0.906 -24.903 0.421 64.942
22113.167 0.422 64.914 0.906 -24.932 0.906 -24.932 0.422 64.914
22138.125 0.422 64.885 0.905 -24.961 0.905 -24.961 0.422 64.885
22163.083 0.422 64.856 0.905 -24.99 0.905 -24.99 0.422 64.856
22188.042 0.423 64.828 0.905 -25.019 0.905 -25.019 0.423 64.828
22213 0.423 64.799 0.905 -25.048 0.905 -25.048 0.423 64.799
22237.958 0.424 64.771 0.905 -25.076 0.905 -25.076 0.424 64.771
22262.917 0.424 64.742 0.904 -25.105 0.904 -25.105 0.424 64.742
22287.875 0.425 64.714 0.904 -25.134 0.904 -25.134 0.425 64.714
22312.833 0.425 64.685 0.904 -25.163 0.904 -25.163 0.425 64.685
22337.792 0.426 64.657 0.904 -25.191 0.904 -25.191 0.426 64.657
22362.75 0.426 64.628 0.904 -25.22 0.904 -25.22 0.426 64.628
22387.708 0.427 64.6 0.903 -25.249 0.903 -25.249 0.427 64.6
22412.667 0.427 64.571 0.903 -25.277 0.903 -25.277 0.427 64.571
22437.625 0.427 64.543 0.903 -25.306 0.903 -25.306 0.427 64.543
22462.583 0.428 64.514 0.903 -25.334 0.903 -25.334 0.428 64.514
22487.542 0.428 64.486 0.902 -25.363 0.902 -25.363 0.428 64.486
22512.5 0.429 64.458 0.902 -25.392 0.902 -25.392 0.429 64.458
22537.458 0.429 64.429 0.902 -25.42 0.902 -25.42 0.429 64.429
22562.417 0.43 64.401 0.902 -25.449 0.902 -25.449 0.43 64.401
22587.375 0.43 64.373 0.902 -25.477 0.902 -25.477 0.43 64.373
22612.333 0.431 64.344 0.901 -25.506 0.901 -25.506 0.431 64.344
22637.292 0.431 64.316 0.901 -25.534 0.901 -25.534 0.431 64.316
22662.25 0.432 64.288 0.901 -25.563 0.901 -25.563 0.432 64.288
22687.208 0.432 64.259 0.901 -25.591 0.901 -25.591 0.432 64.259
22712.167 0.432 64.231 0.901 -25.62 0.901 -25.62 0.432 64.231
22737.125 0.433 64.203 0.9 -25.648 0.9 -25.648 0.433 64.203
22762.083 0.433 64.175 0.9 -25.676 0.9 -25.676 0.433 64.175
22787.042 0.434 64.147 0.9 -25.705 0.9 -25.705 0.434 64.147
22812 0.434 64.118 0.9 -25.733 0.9 -25.733 0.434 64.118
22836.958 0.435 64.09 0.899 -25.761 0.899 -25.761 0.435 64.09
22861.917 0.435 64.062 0.899 -25.79 0.899 -25.79 0.435 64.062
22886.875 0.436 64.034 0.899 -25.818 0.899 -25.818 0.436 64.034
22911.833 0.436 64.006 0.899 -25.846 0.899 -25.846 0.436 64.006
22936.792 0.436 63.978 0.899 -25.875 0.899 -25.875 0.436 63.978
22961.75 0.437 63.95 0.898 -25.903 0.898 -25.903 0.437 63.95
22986.708 0.437 63.922 0.898 -25.931 0.898 -25.931 0.437 63.922
23011.667 0.438 63.894 0.898 -25.959 0.898 -25.959 0.438 63.894
23036.625 0.438 63.866 0.898 -25.988 0.898 -25.988 0.438 63.866
23061.583 0.439 63.838 0.898 -26.016 0.898 -26.016 0.439 63.838
23086.542 0.439 63.81 0.897 -26.044 0.897 -26.044 0.439 63.81
23111.5 0.44 63.782 0.897 -26.072 0.897 -26.072 0.44 63.782
23136.458 0.44 63.754 0.897 -26.1 0.897 -26.1 0.44 63.754
23161.417 0.44 63.726 0.897 -26.128 0.897 -26.128 0.44 63.726
23186.375 0.441 63.698 0.896 -26.156 0.896 -26.156 0.441 63.698
23211.333 0.441 63.67 0.896 -26.184 0.896 -26.184 0.441 63.67
23236.292 0.442 63.642 0.896 -26.213 0.896 -26.213 0.442 63.642
23261.25 0.442 63.614 0.896 -26.241 0.896 -26.241 0.442 63.614
23286.208 0.443 63.586 0.896 -26.269 0.896 -26.269 0.443 63.586
23311.167 0.443 63.559 0.895 -26.297 0.895 -26.297 0.443 63.559
23336.125 0.443 63.531 0.895 -26.325 0.895 -26.325 0.443 63.531
23361.083 0.444 63.503 0.895 -26.353 0.895 -26.353 0.444 63.503
23386.042 0.444 63.475 0.895 -26.381 0.895 -26.381 0.444 63.475
23411 0.445 63.447 0.895 -26.408 0.895 -26.408 0.445 63.447
23435.958 0.445 63.42 0.894 -26.436 0.894 -26.436 0.445 63.42
23460.917 0.446 63.392 0.894 -26.464 0.894 -26.464 0.446 63.392
23485.875 0.446 63.364 0.894 -26.492 0.894 -26.492 0.446 63.364
23510.833 0.447 63.337 0.894 -26.52 0.894 -26.52 0.447 63.337
23535.792 0.447 63.309 0.893 -26.548 0.893 -26.548 0.447 63.309
23560.75 0.447 63.281 0.893 -26.576 0.893 -26.576 0.447 63.281
23585.708 0.448 63.254 0.893 -26.604 0.893 -26.604 0.448 63.254
23610.667 0.448 63.226 0.893 -26.631 0.893 -26.631 0.448 63.226
23635.625 0.449 63.198 0.893 -26.659 0.893 -26.659 0.449 63.198
23660.583 0.449 63.171 0.892 -26.687 0.892 -26.687 0.449 63.171
23685.542 0.45 63.143 0.892 -26.715 0.892 -26.715 0.45 63.143
23710.5 0.45 63.116 0.892 -26.742 0.892 -26.742 0.45 63.116
23735.458 0.45 63.088 0.892 -26.77 0.892 -26.77 0.45 63.088
23760.417 0.451 63.061 0.891 -26.798 0.891 -26.798 0.451 63.061
23785.375 0.451 63.033 0.891 -26.825 0.891 -26.825 0.451 63.033
23810.333 0.452 63.006 0.891 -26.853 0.891 -26.853 0.452 63.006
23835.292 0.452 62.978 0.891 -26.881 0.891 -26.881 0.452 62.978
23860.25 0.453 62.951 0.891 -26.908 0.891 -26.908 0.453 62.951
23885.208 0.453 62.923 0.89 -26.936 0.89 -26.936 0.453 62.923
23910.167 0.453 62.896 0.89 -26.964 0.89 -26.964 0.453 62.896
23935.125 0.454 62.868 0.89 -26.991 0.89 -26.991 0.454 62.868
23960.083 0.454 62.841 0.89 -27.019 0.89 -27.019 0.454 62.841
23985.042 0.455 62.814 0.89 -27.046 0.89 -27.046 0.455 62.814
24010 0.455 62.786 0.889 -27.074 0.889 -27.074 0.455 62.786
24034.958 0.456 62.759 0.889 -27.101 0.889 -27.101 0.456 62.759
24059.917 0.456 62.732 0.889 -27.129 0.889 -27.129 0.456 62.732
24084.875 0.456 62.704 0.889 -27.156 0.889 -27.156 0.456 62.704
24109.833 0.457 62.677 0.888 -27.184 0.888 -27.184 0.457 62.677
24134.792 0.457 62.65 0.888 -27.211 0.888 -27.211 0.457 62.65
24159.75 0.458 62.622 0.888 -27.239 0.888 -27.239 0.458 62.622
24184.708 0.458 62.595 0.888 -27.266 0.888 -27.266 0.458 62.595
24209.667 0.459 62.568 0.888 -27.293 0.888 -27.293 0.459 62.568
24234.625 0.459 62.541 0.887 -27.321 0.887 -27.321 0.459 62.541
24259.583 0.459 62.514 0.887 -27.348 0.887 -27.348 0.459 62.514
24284.542 0.46 62.486 0.887 -27.375 0.887 -27.375 0.46 62.486
24309.5 0.46 62.459 0.887 -27.403 0.887 -27.403 0.46 62.459
24334.458 0.461 62.432 0.886 -27.43 0.886 -27.43 0.461 62.432
24359.417 0.461 62.405 0.886 -27.457 0.886 -27.457 0.461 62.405
24384.375 0.462 62.378 0.886 -27.485 0.886 -27.485 0.462 62.378
24409.333 0.462 62.351 0.886 -27.512 0.886 -27.512 0.462 62.351
24434.292 0.462 62.324 0.886 -27.539 0.886 -27.539 0.462 62.324
24459.25 0.463 62.297 0.885 -27.566 0.885 -27.566 0.463 62.297
24484.208 0.463 62.27 0.885 -27.594 0.885 -27.594 0.463 62.27
24509.167 0.464 62.242 0.885 -27.621 0.885 -27.621 0.464 62.242
24534.125 0.464 62.215 0.885 -27.648 0.885 -27.648 0.464 62.215
24559.083 0.464 62.188 0.884 -27.675 0.884 -27.675 0.464 62.188
24584.042 0.465 62.161 0.884 -27.702 0.884 -27.702 0.465 62.161
24609 0.465 62.135 0.884 -27.729 0.884 -27.729 0.465 62.135
24633.958 0.466 62.108 0.884 -27.756 0.884 -27.756 0.466 62.108
24658.917 0.466 62.081 0.884 -27.784 0.884 -27.784 0.466 62.081
24683.875 0.467 62.054 0.883 -27.811 0.883 -27.811 0.467 62.054
24708.833 0.467 62.027 0.883 -27.838 0.883 -27.838 0.467 62.027
24733.792 0.467 62 0.883 -27.865 0.883 -27.865 0.467 62
24758.75 0.468 61.973 0.883 -27.892 0.883 -27.892 0.468 61.973
24783.708 0.468 61.946 0.883 -27.919 0.883 -27.919 0.468 61.946
24808.667 0.469 61.919 0.882 -27.946 0.882 -27.946 0.469 61.919
24833.625 0.469 61.893 0.882 -27.973 0.882 -27.973 0.469 61.893
24858.583 0.469 61.866 0.882 -28 0.882 -28 0.469 61.866
24883.542 0.47 61.839 0.882 -28.027 0.882 -28.027 0.47 61.839
24908.5 0.47 61.812 0.881 -28.053 0.881 -28.053 0.47 61.812
24933.458 0.471 61.785 0.881 -28.08 0.881 -28.08 0.471 61.785
24958.417 0.471 61.759 0.881 -28.107 0.881 -28.107 0.471 61.759
24983.375 0.472 61.732 0.881 -28.134 0.881 -28.134 0.472 61.732
25008.333 0.472 61.705 0.881 -28.161 0.881 -28.161 0.472 61.705
25033.292 0.472 61.679 0.88 -28.188 0.88 -28.188 0.472 61.679
25058.25 0.473 61.652 0.88 -28.215 0.88 -28.215 0.473 61.652
25083.208 0.473 61.625 0.88 -28.241 0.88 -28.241 0.473 61.625
25108.167 0.474 61.599 0.88 -28.268 0.88 -28.268 0.474 61.599
25133.125 0.474 61.572 0.879 -28.295 0.879 -28.295 0.474 61.572
25158.083 0.474 61.545 0.879 -28.322 0.879 -28.322 0.474 61.545
25183.042 0.475 61.519 0.879 -28.349 0.879 -28.349 0.475 61.519
25208 0.475 61.492 0.879 -28.375 0.879 -28.375 0.475 61.492
25232.958 0.476 61.466 0.879 -28.402 0.879 -28.402 0.476 61.466
25257.917 0.476 61.439 0.878 -28.429 0.878 -28.429 0.476 61.439
25282.875 0.476 61.413 0.878 -28.455 0.878 -28.455 0.476 61.413
25307.833 0.477 61.386 0.878 -28.482 0.878 -28.482 0.477 61.386
25332.792 0.477 61.36 0.878 -28.509 0.878 -28.509 0.477 61.36
25357.75 0.478 61.333 0.877 -28.535 0.877 -28.535 0.478 61.333
25382.708 0.478 61.307 0.877 -28.562 0.877 -28.562 0.478 61.307
25407.667 0.479 61.28 0.877 -28.588 0.877 -28.588 0.479 61.28
25432.625 0.479 61.254 0.877 -28.615 0.877 -28.615 0.479 61.254
25457.583 0.479 61.227 0.877 -28.642 0.877 -28.642 0.479 61.227
25482.542 0.48 61.201 0.876 -28.668 0.876 -28.668 0.48 61.201
25507.5 0.48 61.175 0.876 -28.695 0.876 -28.695 0.48 61.175
25532.458 0.481 61.148 0.876 -28.721 0.876 -28.721 0.481 61.148
25557.417 0.481 61.122 0.876 -28.748 0.876 -28.748 0.481 61.122
25582.375 0.481 61.096 0.875 -28.774 0.875 -28.774 0.481 61.096
25607.333 0.482 61.069 0.875 -28.801 0.875 -28.801 0.482 61.069
25632.292 0.482 61.043 0.875 -28.827 0.875 -28.827 0.482 61.043
25657.25 0.483 61.017 0.875 -28.853 0.875 -28.853 0.483 61.017
25682.208 0.483 60.99 0.875 -28.88 0.875 -28.88 0.483 60.99
25707.167 0.483 60.964 0.874 -28.906 0.874 -28.906 0.483 60.964
25732.125 0.484 60.938 0.874 -28.933 0.874 -28.933 0.484 60.938
25757.083 0.484 60.912 0.874 -28.959 0.874 -28.959 0.484 60.912
25782.042 0.485 60.885 0.874 -28.985 0.874 -28.985 0.485 60.885
25807 0.485 60.859 0.873 -29.012 0.873 -29.012 0.485 60.859
25831.958 0.485 60.833 0.873 -29.038 0.873 -29.038 0.485 60.833
25856.917 0.486 60.807 0.873 -29.064 0.873 -29.064 0.486 60.807
25881.875 0.486 60.781 0.873 -29.091 0.873 -29.091 0.486 60.781
25906.833 0.487 60.755 0.873 -29.117 0.873 -29.117 0.487 60.755
25931.792 0.487 60.729 0.872 -29.143 0.872 -29.143 0.487 60.729
25956.75 0.487 60.702 0.872 -29.169 0.872 -29.169 0.487 60.702
25981.708 0.488 60.676 0.872 -29.196 0.872 -29.196 0.488 60.676
26006.667 0.488 60.65 0.872 -29.222 0.872 -29.222 0.488 60.65
26031.625 0.489 60.624 0.871 -29.248 0.871 -29.248 0.489 60.624
26056.583 0.489 60.598 0.871 -29.274 0.871 -29.274 0.489 60.598
26081.542 0.489 60.572 0.871 -29.3 0.871 -29.3 0.489 60.572
26106.5 0.49 60.546 0.871 -29.326 0.871 -29.326 0.49 60.546
26131.458 0.49 60.52 0.871 -29.353 0.871 -29.353 0.49 60.52
26156.417 0.491 60.494 0.87 -29.379 0.87 -29.379 0.491 60.494
26181.375 0.491 60.468 0.87 -29.405 0.87 -29.405 0.491 60.468
26206.333 0.491 60.442 0.87 -29.431 0.87 -29.431 0.491 60.442
26231.292 0.492 60.416 0.87 -29.457 0.87 -29.457 0.492 60.416
26256.25 0.492 60.391 0.869 -29.483 0.869 -29.483 0.492 60.391
26281.208 0.493 60.365 0.869 -29.509 0.869 -29.509 0.493 60.365
26306.167 0.493 60.339 0.869 -29.535 0.869 -29.535 0.493 60.339
26331.125 0.493 60.313 0.869 -29.561 0.869 -29.561 0.493 60.313
26356.083 0.494 60.287 0.869 -29.587 0.869 -29.587 0.494 60.287
26381.042 0.494 60.261 0.868 -29.613 0.868 -29.613 0.494 60.261
26406 0.495 60.235 0.868 -29.639 0.868 -29.639 0.495 60.235
26430.958 0.495 60.21 0.868 -29.665 0.868 -29.665 0.495 60.21
26455.917 0.495 60.184 0.868 -29.691 0.868 -29.691 0.495 60.184
26480.875 0.496 60.158 0.867 -29.717 0.867 -29.717 0.496 60.158
26505.833 0.496 60.132 0.867 -29.742 0.867 -29.742 0.496 60.132
26530.792 0.496 60.107 0.867 -29.768 0.867 -29.768 0.496 60.107
26555.75 0.497 60.081 0.867 -29.794 0.867 -29.794 0.497 60.081
26580.708 0.497 60.055 0.867 -29.82 0.867 -29.82 0.497 60.055
26605.667 0.498 60.029 0.866 -29.846 0.866 -29.846 0.498 60.029
26630.625 0.498 60.004 0.866 -29.872 0.866 -29.872 0.498 60.004
26655.583 0.498 59.978 0.866 -29.897 0.866 -29.897 0.498 59.978
26680.542 0.499 59.952 0.866 -29.923 0.866 -29.923 0.499 59.952
26705.5 0.499 59.927 0.865 -29.949 0.865 -29.949 0.499 59.927
26730.458 0.5 59.901 0.865 -29.975 0.865 -29.975 0.5 59.901
26755.417 0.5 59.876 0.865 -30 0.865 -30 0.5 59.876
26780.375 0.5 59.85 0.865 -30.026 0.865 -30.026 0.5 59.85
26805.333 0.501 59.824 0.864 -30.052 0.864 -30.052 0.501 59.824
26830.292 0.501 59.799 0.864 -30.078 0.864 -30.078 0.501 59.799
26855.25 0.502 59.773 0.864 -30.103 0.864 -30.103 0.502 59.773
26880.208 0.502 59.748 0.864 -30.129 0.864 -30.129 0.502 59.748
26905.167 0.502 59.722 0.864 -30.154 0.864 -30.154 0.502 59.722
26930.125 0.503 59.697 0.863 -30.18 0.863 -30.18 0.503 59.697
26955.083 0.503 59.671 0.863 -30.206 0.863 -30.206 0.503 59.671
26980.042 0.503 59.646 0.863 -30.231 0.863 -30.231 0.503 59.646
27005 0.504 59.62 0.863 -30.257 0.863 -30.257 0.504 59.62
27029.958 0.504 59.595 0.862 -30.282 0.862 -30.282 0.504 59.595
27054.917 0.505 59.57 0.862 -30.308 0.862 -30.308 0.505 59.57
27079.875 0.505 59.544 0.862 -30.333 0.862 -30.333 0.505 59.544
27104.833 0.505 59.519 0.862 -30.359 0.862 -30.359 0.505 59.519
27129.792 0.506 59.493 0.862 -30.384 0.862 -30.384 0.506 59.493
27154.75 0.506 59.468 0.861 -30.41 0.861 -30.41 0.506 59.468
27179.708 0.507 59.443 0.861 -30.435 0.861 -30.435 0.507 59.443
27204.667 0.507 59.417 0.861 -30.461 0.861 -30.461 0.507 59.417
27229.625 0.507 59.392 0.861 -30.486 0.861 -30.486 0.507 59.392
27254.583 0.508 59.367 0.86 -30.512 0.86 -30.512 0.508 59.367
27279.542 0.508 59.342 0.86 -30.537 0.86 -30.537 0.508 59.342
27304.5 0.508 59.316 0.86 -30.562 0.86 -30.562 0.508 59.316
27329.458 0.509 59.291 0.86 -30.588 0.86 -30.588 0.509 59.291
27354.417 0.509 59.266 0.86 -30.613 0.86 -30.613 0.509 59.266
27379.375 0.51 59.241 0.859 -30.638 0.859 -30.638 0.51 59.241
27404.333 0.51 59.215 0.859 -30.664 0.859 -30.664 0.51 59.215
27429.292 0.51 59.19 0.859 -30.689 0.859 -30.689 0.51 59.19
27454.25 0.511 59.165 0.859 -30.714 0.859 -30.714 0.511 59.165
27479.208 0.511 59.14 0.858 -30.74 0.858 -30.74 0.511 59.14
27504.167 0.512 59.115 0.858 -30.765 0.858 -30.765 0.512 59.115
27529.125 0.512 59.09 0.858 -30.79 0.858 -30.79 0.512 59.09
27554.083 0.512 59.065 0.858 -30.815 0.858 -30.815 0.512 59.065
27579.042 0.513 59.04 0.858 -30.841 0.858 -30.841 0.513 59.04
27604 0.513 59.014 0.857 -30.866 0.857 -30.866 0.513 59.014
27628.958 0.513 58.989 0.857 -30.891 0.857 -30.891 0.513 58.989
27653.917 0.514 58.964 0.857 -30.916 0.857 -30.916 0.514 58.964
27678.875 0.514 58.939 0.857 -30.941 0.857 -30.941 0.514 58.939
27703.833 0.515 58.914 0.856 -30.966 0.856 -30.966 0.515 58.914
27728.792 0.515 58.889 0.856 -30.992 0.856 -30.992 0.515 58.889
27753.75 0.515 58.864 0.856 -31.017 0.856 -31.017 0.515 58.864
27778.708 0.516 58.839 0.856 -31.042 0.856 -31.042 0.516 58.839
27803.667 0.516 58.814 0.855 -31.067 0.855 -31.067 0.516 58.814
27828.625 0.516 58.789 0.855 -31.092 0.855 -31.092 0.516 58.789
27853.583 0.517 58.764 0.855 -31.117 0.855 -31.117 0.517 58.764
27878.542 0.517 58.74 0.855 -31.142 0.855 -31.142 0.517 58.74
27903.5 0.518 58.715 0.855 -31.167 0.855 -31.167 0.518 58.715
27928.458 0.518 58.69 0.854 -31.192 0.854 -31.192 0.518 58.69
27953.417 0.518 58.665 0.854 -31.217 0.854 -31.217 0.518 58.665
27978.375 0.519 58.64 0.854 -31.242 0.854 -31.242 0.519 58.64
28003.333 0.519 58.615 0.854 -31.267 0.854 -31.267 0.519 58.615
28028.292 0.519 58.59 0.853 -31.292 0.853 -31.292 0.519 58.59
28053.25 0.52 58.566 0.853 -31.317 0.853 -31.317 0.52 58.566
28078.208 0.52 58.541 0.853 -31.342 0.853 -31.342 0.52 58.541
28103.167 0.521 58.516 0.853 -31.367 0.853 -31.367 0.521 58.516
28128.125 0.521 58.491 0.853 -31.391 0.853 -31.391 0.521 58.491
28153.083 0.521 58.467 0.852 -31.416 0.852 -31.416 0.521 58.467
28178.042 0.522 58.442 0.852 -31.441 0.852 -31.441 0.522 58.442
28203 0.522 58.417 0.852 -31.466 0.852 -31.466 0.522 58.417
28227.958 0.522 58.392 0.852 -31.491 0.852 -31.491 0.522 58.392
28252.917 0.523 58.368 0.851 -31.516 0.851 -31.516 0.523 58.368
28277.875 0.523 58.343 0.851 -31.54 0.851 -31.54 0.523 58.343
28302.833 0.523 58.318 0.851 -31.565 0.851 -31.565 0.523 58.318
28327.792 0.524 58.294 0.851 -31.59 0.851 -31.59 0.524 58.294
28352.75 0.524 58.269 0.851 -31.615 0.851 -31.615 0.524 58.269
28377.708 0.525 58.244 0.85 -31.639 0.85 -31.639 0.525 58.244
28402.667 0.525 58.22 0.85 -31.664 0.85 -31.664 0.525 58.22
28427.625 0.525 58.195 0.85 -31.689 0.85 -31.689 0.525 58.195
28452.583 0.526 58.171 0.85 -31.713 0.85 -31.713 0.526 58.171
28477.542 0.526 58.146 0.849 -31.738 0.849 -31.738 0.526 58.146
28502.5 0.526 58.122 0.849 -31.763 0.849 -31.763 0.526 58.122
28527.458 0.527 58.097 0.849 -31.787 0.849 -31.787 0.527 58.097
28552.417 0.527 58.073 0.849 -31.812 0.849 -31.812 0.527 58.073
28577.375 0.527 58.048 0.848 -31.837 0.848 -31.837 0.527 58.048
28602.333 0.528 58.024 0.848 -31.861 0.848 -31.861 0.528 58.024
28627.292 0.528 57.999 0.848 -31.886 0.848 -31.886 0.528 57.999
28652.25 0.529 57.975 0.848 -31.91 0.848 -31.91 0.529 57.975
28677.208 0.529 57.95 0.848 -31.935 0.848 -31.935 0.529 57.95
28702.167 0.529 57.926 0.847 -31.959 0.847 -31.959 0.529 57.926
28727.125 0.53 57.901 0.847 -31.984 0.847 -31.984 0.53 57.901
28752.083 0.53 57.877 0.847 -32.008 0.847 -32.008 0.53 57.877
28777.042 0.53 57.853 0.847 -32.033 0.847 -32.033 0.53 57.853
28802 0.531 57.828 0.846 -32.057 0.846 -32.057 0.531 57.828
28826.958 0.531 57.804 0.846 -32.082 0.846 -32.082 0.531 57.804
28851.917 0.531 57.78 0.846 -32.106 0.846 -32.106 0.531 57.78
28876.875 0.532 57.755 0.846 -32.131 0.846 -32.131 0.532 57.755
28901.833 0.532 57.731 0.846 -32.155 0.846 -32.155 0.532 57.731
28926.792 0.533 57.707 0.845 -32.179 0.845 -32.179 0.533 57.707
28951.75 0.533 57.682 0.845 -32.204 0.845 -32.204 0.533 57.682
28976.708 0.533 57.658 0.845 -32.228 0.845 -32.228 0.533 57.658
29001.667 0.534 57.634 0.845 -32.253 0.845 -32.253 0.534 57.634
29026.625 0.534 57.61 0.844 -32.277 0.844 -32.277 0.534 57.61
29051.583 0.534 57.586 0.844 -32.301 0.844 -32.301 0.534 57.586
29076.542 0.535 57.561 0.844 -32.326 0.844 -32.326 0.535 57.561
29101.5 0.535 57.537 0.844 -32.35 0.844 -32.35 0.535 57.537
29126.458 0.535 57.513 0.844 -32.374 0.844 -32.374 0.535 57.513
29151.417 0.536 57.489 0.843 -32.398 0.843 -32.398 0.536 57.489
29176.375 0.536 57.465 0.843 -32.423 0.843 -32.423 0.536 57.465
29201.333 0.537 57.441 0.843 -32.447 0.843 -32.447 0.537 57.441
29226.292 0.537 57.416 0.843 -32.471 0.843 -32.471 0.537 57.416
29251.25 0.537 57.392 0.842 -32.495 0.842 -32.495 0.537 57.392
29276.208 0.538 57.368 0.842 -32.519 0.842 -32.519 0.538 57.368
29301.167 0.538 57.344 0.842 -32.544 0.842 -32.544 0.538 57.344
29326.125 0.538 57.32 0.842 -32.568 0.842 -32.568 0.538 57.32
29351.083 0.539 57.296 0.841 -32.592 0.841 -32.592 0.539 57.296
29376.042 0.539 57.272 0.841 -32.616 0.841 -32.616 0.539 57.272
29401 0.539 57.248 0.841 -32.64 0.841 -32.64 0.539 57.248
29425.958 0.54 57.224 0.841 -32.664 0.841 -32.664 0.54 57.224
29450.917 0.54 57.2 0.841 -32.688 0.841 -32.688 0.54 57.2
29475.875 0.54 57.176 0.84 -32.712 0.84 -32.712 0.54 57.176
29500.833 0.541 57.152 0.84 -32.736 0.84 -32.736 0.541 57.152
29525.792 0.541 57.128 0.84 -32.761 0.84 -32.761 0.541 57.128
29550.75 0.541 57.104 0.84 -32.785 0.84 -32.785 0.541 57.104
29575.708 0.542 57.08 0.839 -32.809 0.839 -32.809 0.542 57.08
29600.667 0.542 57.057 0.839 -32.833 0.839 -32.833 0.542 57.057
29625.625 0.543 57.033 0.839 -32.857 0.839 -32.857 0.543 57.033
29650.583 0.543 57.009 0.839 -32.881 0.839 -32.881 0.543 57.009
29675.542 0.543 56.985 0.839 -32.904 0.839 -32.904 0.543 56.985
29700.5 0.544 56.961 0.838 -32.928 0.838 -32.928 0.544 56.961
29725.458 0.544 56.937 0.838 -32.952 0.838 -32.952 0.544 56.937
29750.417 0.544 56.913 0.838 -32.976 0.838 -32.976 0.544 56.913
29775.375 0.545 56.89 0.838 -33 0.838 -33 0.545 56.89
29800.333 0.545 56.866 0.837 -33.024 0.837 -33.024 0.545 56.866
29825.292 0.545 56.842 0.837 -33.048 0.837 -33.048 0.545 56.842
29850.25 0.546 56.818 0.837 -33.072 0.837 -33.072 0.546 56.818
29875.208 0.546 56.795 0.837 -33.096 0.837 -33.096 0.546 56.795
29900.167 0.546 56.771 0.836 -33.119 0.836 -33.119 0.546 56.771
29925.125 0.547 56.747 0.836 -33.143 0.836 -33.143 0.547 56.747
29950.083 0.547 56.724 0.836 -33.167 0.836 -33.167 0.547 56.724
29975.042 0.547 56.7 0.836 -33.191 0.836 -33.191 0.547 56.7
30000 0.548 56.676 0.836 -33.215 0.836 -33.215 0.548 56.676
