!	AVX Thin Film Operation 	Date: April 2014		
!	Description: Accu-P® Series, Thin Film  SMD RF Capacitor
!	Part Number: 04021J1R1PBSTR					
!
# MHZ S MA R 50

50 0.999 -1.979 0.035 88.016 0.035 88.016 0.999 -1.979
74.958 0.999 -2.966 0.052 87.028 0.052 87.028 0.999 -2.966
99.917 0.998 -3.951 0.069 86.04 0.069 86.04 0.998 -3.951
124.875 0.996 -4.934 0.086 85.055 0.086 85.055 0.996 -4.934
149.833 0.995 -5.914 0.103 84.073 0.103 84.073 0.995 -5.914
174.792 0.993 -6.892 0.12 83.094 0.12 83.094 0.993 -6.892
199.75 0.991 -7.865 0.137 82.118 0.137 82.118 0.991 -7.865
224.708 0.988 -8.835 0.154 81.146 0.154 81.146 0.988 -8.835
249.667 0.985 -9.8 0.17 80.179 0.17 80.179 0.985 -9.8
274.625 0.982 -10.76 0.187 79.217 0.187 79.217 0.982 -10.76
299.583 0.979 -11.714 0.203 78.261 0.203 78.261 0.979 -11.714
324.542 0.976 -12.663 0.219 77.31 0.219 77.31 0.976 -12.663
349.5 0.972 -13.605 0.235 76.365 0.235 76.365 0.972 -13.605
374.458 0.968 -14.54 0.251 75.428 0.251 75.428 0.968 -14.54
399.417 0.964 -15.469 0.267 74.497 0.267 74.497 0.964 -15.469
424.375 0.959 -16.39 0.282 73.574 0.282 73.574 0.959 -16.39
449.333 0.955 -17.303 0.297 72.658 0.297 72.658 0.955 -17.303
474.292 0.95 -18.209 0.312 71.751 0.312 71.751 0.95 -18.209
499.25 0.945 -19.106 0.327 70.852 0.327 70.852 0.945 -19.106
524.208 0.939 -19.994 0.342 69.961 0.342 69.961 0.939 -19.994
549.167 0.934 -20.874 0.356 69.08 0.356 69.08 0.934 -20.874
574.125 0.929 -21.744 0.37 68.207 0.37 68.207 0.929 -21.744
599.083 0.923 -22.605 0.384 67.344 0.384 67.344 0.923 -22.605
624.042 0.917 -23.457 0.398 66.49 0.398 66.49 0.917 -23.457
649 0.911 -24.299 0.412 65.645 0.412 65.645 0.911 -24.299
673.958 0.905 -25.131 0.425 64.811 0.425 64.811 0.905 -25.131
698.917 0.899 -25.954 0.438 63.986 0.438 63.986 0.899 -25.954
723.875 0.892 -26.766 0.45 63.172 0.45 63.172 0.892 -26.766
748.833 0.886 -27.568 0.463 62.368 0.463 62.368 0.886 -27.568
773.792 0.879 -28.36 0.475 61.573 0.475 61.573 0.879 -28.36
798.75 0.873 -29.142 0.487 60.789 0.487 60.789 0.873 -29.142
823.708 0.866 -29.914 0.499 60.016 0.499 60.016 0.866 -29.914
848.667 0.859 -30.675 0.51 59.252 0.51 59.252 0.859 -30.675
873.625 0.853 -31.426 0.521 58.499 0.521 58.499 0.853 -31.426
898.583 0.846 -32.166 0.532 57.757 0.532 57.757 0.846 -32.166
923.542 0.839 -32.896 0.543 57.024 0.543 57.024 0.839 -32.896
948.5 0.832 -33.616 0.554 56.302 0.554 56.302 0.832 -33.616
973.458 0.825 -34.326 0.564 55.59 0.564 55.59 0.825 -34.326
998.417 0.818 -35.025 0.574 54.889 0.574 54.889 0.818 -35.025
1023.375 0.811 -35.714 0.584 54.198 0.584 54.198 0.811 -35.714
1048.333 0.804 -36.393 0.593 53.516 0.593 53.516 0.804 -36.393
1073.292 0.797 -37.062 0.603 52.845 0.603 52.845 0.797 -37.062
1098.25 0.79 -37.721 0.612 52.184 0.612 52.184 0.79 -37.721
1123.208 0.783 -38.37 0.621 51.533 0.621 51.533 0.783 -38.37
1148.167 0.776 -39.01 0.629 50.891 0.629 50.891 0.776 -39.01
1173.125 0.769 -39.639 0.638 50.259 0.638 50.259 0.769 -39.639
1198.083 0.762 -40.259 0.646 49.637 0.646 49.637 0.762 -40.259
1223.042 0.755 -40.87 0.654 49.024 0.654 49.024 0.755 -40.87
1248 0.748 -41.471 0.662 48.42 0.662 48.42 0.748 -41.471
1272.958 0.741 -42.063 0.67 47.826 0.67 47.826 0.741 -42.063
1297.917 0.734 -42.646 0.677 47.241 0.677 47.241 0.734 -42.646
1322.875 0.727 -43.22 0.685 46.665 0.685 46.665 0.727 -43.22
1347.833 0.721 -43.785 0.692 46.098 0.692 46.098 0.721 -43.785
1372.792 0.714 -44.341 0.699 45.539 0.699 45.539 0.714 -44.341
1397.75 0.707 -44.888 0.706 44.989 0.706 44.989 0.707 -44.888
1422.708 0.7 -45.427 0.712 44.448 0.712 44.448 0.7 -45.427
1447.667 0.694 -45.958 0.719 43.915 0.719 43.915 0.694 -45.958
1472.625 0.687 -46.481 0.725 43.39 0.725 43.39 0.687 -46.481
1497.583 0.68 -46.995 0.731 42.873 0.731 42.873 0.68 -46.995
1522.542 0.674 -47.501 0.737 42.364 0.737 42.364 0.674 -47.501
1547.5 0.667 -48 0.743 41.864 0.743 41.864 0.667 -48
1572.458 0.661 -48.491 0.749 41.37 0.749 41.37 0.661 -48.491
1597.417 0.655 -48.974 0.754 40.885 0.754 40.885 0.655 -48.974
1622.375 0.648 -49.45 0.76 40.406 0.76 40.406 0.648 -49.45
1647.333 0.642 -49.918 0.765 39.935 0.765 39.935 0.642 -49.918
1672.292 0.636 -50.38 0.77 39.472 0.77 39.472 0.636 -50.38
1697.25 0.63 -50.834 0.775 39.015 0.775 39.015 0.63 -50.834
1722.208 0.623 -51.281 0.78 38.565 0.78 38.565 0.623 -51.281
1747.167 0.617 -51.722 0.785 38.122 0.785 38.122 0.617 -51.722
1772.125 0.611 -52.156 0.79 37.686 0.79 37.686 0.611 -52.156
1797.083 0.605 -52.583 0.794 37.256 0.794 37.256 0.605 -52.583
1822.042 0.599 -53.004 0.799 36.833 0.799 36.833 0.599 -53.004
1847 0.594 -53.419 0.803 36.415 0.803 36.415 0.594 -53.419
1871.958 0.588 -53.827 0.807 36.005 0.807 36.005 0.588 -53.827
1896.917 0.582 -54.229 0.811 35.6 0.811 35.6 0.582 -54.229
1921.875 0.576 -54.626 0.815 35.201 0.815 35.201 0.576 -54.626
1946.833 0.571 -55.016 0.819 34.808 0.819 34.808 0.571 -55.016
1971.792 0.565 -55.401 0.823 34.42 0.823 34.42 0.565 -55.401
1996.75 0.56 -55.78 0.827 34.039 0.827 34.039 0.56 -55.78
2021.708 0.554 -56.154 0.831 33.662 0.831 33.662 0.554 -56.154
2046.667 0.549 -56.522 0.834 33.291 0.834 33.291 0.549 -56.522
2071.625 0.544 -56.885 0.838 32.926 0.838 32.926 0.544 -56.885
2096.583 0.538 -57.243 0.841 32.566 0.841 32.566 0.538 -57.243
2121.542 0.533 -57.595 0.844 32.21 0.844 32.21 0.533 -57.595
2146.5 0.528 -57.943 0.848 31.86 0.848 31.86 0.528 -57.943
2171.458 0.523 -58.286 0.851 31.515 0.851 31.515 0.523 -58.286
2196.417 0.518 -58.624 0.854 31.174 0.854 31.174 0.518 -58.624
2221.375 0.513 -58.957 0.857 30.838 0.857 30.838 0.513 -58.957
2246.333 0.508 -59.285 0.86 30.507 0.86 30.507 0.508 -59.285
2271.292 0.503 -59.61 0.863 30.18 0.863 30.18 0.503 -59.61
2296.25 0.498 -59.929 0.865 29.858 0.865 29.858 0.498 -59.929
2321.208 0.493 -60.244 0.868 29.54 0.868 29.54 0.493 -60.244
2346.167 0.488 -60.555 0.871 29.226 0.871 29.226 0.488 -60.555
2371.125 0.484 -60.862 0.873 28.916 0.873 28.916 0.484 -60.862
2396.083 0.479 -61.165 0.876 28.611 0.876 28.611 0.479 -61.165
2421.042 0.474 -61.463 0.879 28.31 0.879 28.31 0.474 -61.463
2446 0.47 -61.758 0.881 28.012 0.881 28.012 0.47 -61.758
2470.958 0.465 -62.048 0.883 27.719 0.883 27.719 0.465 -62.048
2495.917 0.461 -62.335 0.886 27.429 0.886 27.429 0.461 -62.335
2520.875 0.456 -62.619 0.888 27.143 0.888 27.143 0.456 -62.619
2545.833 0.452 -62.898 0.89 26.86 0.89 26.86 0.452 -62.898
2570.792 0.447 -63.174 0.892 26.581 0.892 26.581 0.447 -63.174
2595.75 0.443 -63.446 0.895 26.306 0.895 26.306 0.443 -63.446
2620.708 0.439 -63.715 0.897 26.034 0.897 26.034 0.439 -63.715
2645.667 0.435 -63.981 0.899 25.766 0.899 25.766 0.435 -63.981
2670.625 0.431 -64.243 0.901 25.5 0.901 25.5 0.431 -64.243
2695.583 0.426 -64.502 0.903 25.238 0.903 25.238 0.426 -64.502
2720.542 0.422 -64.758 0.905 24.98 0.905 24.98 0.422 -64.758
2745.5 0.418 -65.01 0.906 24.724 0.906 24.724 0.418 -65.01
2770.458 0.414 -65.26 0.908 24.471 0.908 24.471 0.414 -65.26
2795.417 0.41 -65.506 0.91 24.222 0.91 24.222 0.41 -65.506
2820.375 0.406 -65.75 0.912 23.975 0.912 23.975 0.406 -65.75
2845.333 0.402 -65.99 0.913 23.732 0.913 23.732 0.402 -65.99
2870.292 0.399 -66.228 0.915 23.491 0.915 23.491 0.399 -66.228
2895.25 0.395 -66.462 0.917 23.253 0.917 23.253 0.395 -66.462
2920.208 0.391 -66.695 0.918 23.017 0.918 23.017 0.391 -66.695
2945.167 0.387 -66.924 0.92 22.785 0.92 22.785 0.387 -66.924
2970.125 0.384 -67.151 0.922 22.555 0.922 22.555 0.384 -67.151
2995.083 0.38 -67.375 0.923 22.327 0.923 22.327 0.38 -67.375
3020.042 0.376 -67.596 0.925 22.103 0.925 22.103 0.376 -67.596
3045 0.373 -67.815 0.926 21.88 0.926 21.88 0.373 -67.815
3069.958 0.369 -68.031 0.927 21.66 0.927 21.66 0.369 -68.031
3094.917 0.366 -68.245 0.929 21.443 0.929 21.443 0.366 -68.245
3119.875 0.362 -68.457 0.93 21.228 0.93 21.228 0.362 -68.457
3144.833 0.359 -68.666 0.931 21.015 0.931 21.015 0.359 -68.666
3169.792 0.355 -68.873 0.933 20.805 0.933 20.805 0.355 -68.873
3194.75 0.352 -69.078 0.934 20.596 0.934 20.596 0.352 -69.078
3219.708 0.348 -69.28 0.935 20.39 0.935 20.39 0.348 -69.28
3244.667 0.345 -69.481 0.937 20.187 0.937 20.187 0.345 -69.481
3269.625 0.342 -69.679 0.938 19.985 0.938 19.985 0.342 -69.679
3294.583 0.339 -69.875 0.939 19.785 0.939 19.785 0.339 -69.875
3319.542 0.335 -70.068 0.94 19.588 0.94 19.588 0.335 -70.068
3344.5 0.332 -70.26 0.941 19.392 0.941 19.392 0.332 -70.26
3369.458 0.329 -70.45 0.942 19.199 0.942 19.199 0.329 -70.45
3394.417 0.326 -70.638 0.943 19.007 0.943 19.007 0.326 -70.638
3419.375 0.323 -70.824 0.945 18.817 0.945 18.817 0.323 -70.824
3444.333 0.319 -71.007 0.946 18.63 0.946 18.63 0.319 -71.007
3469.292 0.316 -71.189 0.947 18.444 0.947 18.444 0.316 -71.189
3494.25 0.313 -71.37 0.948 18.26 0.948 18.26 0.313 -71.37
3519.208 0.31 -71.548 0.949 18.077 0.949 18.077 0.31 -71.548
3544.167 0.307 -71.724 0.95 17.897 0.95 17.897 0.307 -71.724
3569.125 0.304 -71.899 0.951 17.718 0.951 17.718 0.304 -71.899
3594.083 0.301 -72.072 0.951 17.541 0.951 17.541 0.301 -72.072
3619.042 0.298 -72.243 0.952 17.365 0.952 17.365 0.298 -72.243
3644 0.296 -72.413 0.953 17.191 0.953 17.191 0.296 -72.413
3668.958 0.293 -72.581 0.954 17.019 0.954 17.019 0.293 -72.581
3693.917 0.29 -72.747 0.955 16.849 0.955 16.849 0.29 -72.747
3718.875 0.287 -72.912 0.956 16.68 0.956 16.68 0.287 -72.912
3743.833 0.284 -73.075 0.957 16.512 0.957 16.512 0.284 -73.075
3768.792 0.281 -73.237 0.958 16.346 0.958 16.346 0.281 -73.237
3793.75 0.279 -73.397 0.958 16.182 0.958 16.182 0.279 -73.397
3818.708 0.276 -73.555 0.959 16.019 0.959 16.019 0.276 -73.555
3843.667 0.273 -73.712 0.96 15.857 0.96 15.857 0.273 -73.712
3868.625 0.271 -73.868 0.961 15.697 0.961 15.697 0.271 -73.868
3893.583 0.268 -74.022 0.961 15.538 0.961 15.538 0.268 -74.022
3918.542 0.265 -74.174 0.962 15.381 0.962 15.381 0.265 -74.174
3943.5 0.263 -74.325 0.963 15.225 0.963 15.225 0.263 -74.325
3968.458 0.26 -74.475 0.964 15.07 0.964 15.07 0.26 -74.475
3993.417 0.257 -74.624 0.964 14.917 0.964 14.917 0.257 -74.624
4018.375 0.255 -74.771 0.965 14.765 0.965 14.765 0.255 -74.771
4043.333 0.252 -74.917 0.966 14.614 0.966 14.614 0.252 -74.917
4068.292 0.25 -75.061 0.966 14.465 0.966 14.465 0.25 -75.061
4093.25 0.247 -75.204 0.967 14.316 0.967 14.316 0.247 -75.204
4118.208 0.245 -75.346 0.968 14.169 0.968 14.169 0.245 -75.346
4143.167 0.242 -75.487 0.968 14.023 0.968 14.023 0.242 -75.487
4168.125 0.24 -75.626 0.969 13.879 0.969 13.879 0.24 -75.626
4193.083 0.237 -75.764 0.969 13.735 0.969 13.735 0.237 -75.764
4218.042 0.235 -75.901 0.97 13.593 0.97 13.593 0.235 -75.901
4243 0.233 -76.037 0.97 13.451 0.97 13.451 0.233 -76.037
4267.958 0.23 -76.172 0.971 13.311 0.971 13.311 0.23 -76.172
4292.917 0.228 -76.305 0.972 13.172 0.972 13.172 0.228 -76.305
4317.875 0.226 -76.437 0.972 13.034 0.972 13.034 0.226 -76.437
4342.833 0.223 -76.568 0.973 12.897 0.973 12.897 0.223 -76.568
4367.792 0.221 -76.698 0.973 12.761 0.973 12.761 0.221 -76.698
4392.75 0.219 -76.827 0.974 12.627 0.974 12.627 0.219 -76.827
4417.708 0.216 -76.955 0.974 12.493 0.974 12.493 0.216 -76.955
4442.667 0.214 -77.082 0.975 12.36 0.975 12.36 0.214 -77.082
4467.625 0.212 -77.207 0.975 12.228 0.975 12.228 0.212 -77.207
4492.583 0.21 -77.332 0.976 12.097 0.976 12.097 0.21 -77.332
4517.542 0.207 -77.455 0.976 11.967 0.976 11.967 0.207 -77.455
4542.5 0.205 -77.578 0.977 11.838 0.977 11.838 0.205 -77.578
4567.458 0.203 -77.699 0.977 11.71 0.977 11.71 0.203 -77.699
4592.417 0.201 -77.82 0.978 11.583 0.978 11.583 0.201 -77.82
4617.375 0.199 -77.939 0.978 11.457 0.978 11.457 0.199 -77.939
4642.333 0.197 -78.058 0.978 11.332 0.978 11.332 0.197 -78.058
4667.292 0.194 -78.175 0.979 11.207 0.979 11.207 0.194 -78.175
4692.25 0.192 -78.291 0.979 11.084 0.979 11.084 0.192 -78.291
4717.208 0.19 -78.407 0.98 10.961 0.98 10.961 0.19 -78.407
4742.167 0.188 -78.522 0.98 10.839 0.98 10.839 0.188 -78.522
4767.125 0.186 -78.635 0.98 10.718 0.98 10.718 0.186 -78.635
4792.083 0.184 -78.748 0.981 10.598 0.981 10.598 0.184 -78.748
4817.042 0.182 -78.86 0.981 10.479 0.981 10.479 0.182 -78.86
4842 0.18 -78.97 0.982 10.36 0.982 10.36 0.18 -78.97
4866.958 0.178 -79.08 0.982 10.242 0.982 10.242 0.178 -79.08
4891.917 0.176 -79.189 0.982 10.125 0.982 10.125 0.176 -79.189
4916.875 0.174 -79.298 0.983 10.009 0.983 10.009 0.174 -79.298
4941.833 0.172 -79.405 0.983 9.894 0.983 9.894 0.172 -79.405
4966.792 0.17 -79.511 0.983 9.779 0.983 9.779 0.17 -79.511
4991.75 0.168 -79.617 0.984 9.665 0.984 9.665 0.168 -79.617
5016.708 0.166 -79.721 0.984 9.552 0.984 9.552 0.166 -79.721
5041.667 0.164 -79.825 0.984 9.439 0.984 9.439 0.164 -79.825
5066.625 0.162 -79.928 0.985 9.327 0.985 9.327 0.162 -79.928
5091.583 0.16 -80.03 0.985 9.216 0.985 9.216 0.16 -80.03
5116.542 0.158 -80.131 0.985 9.106 0.985 9.106 0.158 -80.131
5141.5 0.156 -80.231 0.986 8.996 0.986 8.996 0.156 -80.231
5166.458 0.154 -80.331 0.986 8.887 0.986 8.887 0.154 -80.331
5191.417 0.153 -80.429 0.986 8.778 0.986 8.778 0.153 -80.429
5216.375 0.151 -80.527 0.986 8.671 0.986 8.671 0.151 -80.527
5241.333 0.149 -80.624 0.987 8.563 0.987 8.563 0.149 -80.624
5266.292 0.147 -80.72 0.987 8.457 0.987 8.457 0.147 -80.72
5291.25 0.145 -80.815 0.987 8.351 0.987 8.351 0.145 -80.815
5316.208 0.143 -80.91 0.988 8.246 0.988 8.246 0.143 -80.91
5341.167 0.142 -81.003 0.988 8.141 0.988 8.141 0.142 -81.003
5366.125 0.14 -81.096 0.988 8.037 0.988 8.037 0.14 -81.096
5391.083 0.138 -81.188 0.988 7.934 0.988 7.934 0.138 -81.188
5416.042 0.136 -81.279 0.989 7.831 0.989 7.831 0.136 -81.279
5441 0.135 -81.37 0.989 7.729 0.989 7.729 0.135 -81.37
5465.958 0.133 -81.459 0.989 7.627 0.989 7.627 0.133 -81.459
5490.917 0.131 -81.548 0.989 7.526 0.989 7.526 0.131 -81.548
5515.875 0.129 -81.636 0.989 7.426 0.989 7.426 0.129 -81.636
5540.833 0.128 -81.723 0.99 7.326 0.99 7.326 0.128 -81.723
5565.792 0.126 -81.809 0.99 7.226 0.99 7.226 0.126 -81.809
5590.75 0.124 -81.894 0.99 7.127 0.99 7.127 0.124 -81.894
5615.708 0.122 -81.978 0.99 7.029 0.99 7.029 0.122 -81.978
5640.667 0.121 -82.062 0.991 6.931 0.991 6.931 0.121 -82.062
5665.625 0.119 -82.145 0.991 6.834 0.991 6.834 0.119 -82.145
5690.583 0.117 -82.227 0.991 6.737 0.991 6.737 0.117 -82.227
5715.542 0.116 -82.308 0.991 6.641 0.991 6.641 0.116 -82.308
5740.5 0.114 -82.388 0.991 6.545 0.991 6.545 0.114 -82.388
5765.458 0.112 -82.468 0.992 6.45 0.992 6.45 0.112 -82.468
5790.417 0.111 -82.546 0.992 6.355 0.992 6.355 0.111 -82.546
5815.375 0.109 -82.624 0.992 6.261 0.992 6.261 0.109 -82.624
5840.333 0.107 -82.7 0.992 6.167 0.992 6.167 0.107 -82.7
5865.292 0.106 -82.776 0.992 6.074 0.992 6.074 0.106 -82.776
5890.25 0.104 -82.851 0.992 5.981 0.992 5.981 0.104 -82.851
5915.208 0.103 -82.925 0.993 5.889 0.993 5.889 0.103 -82.925
5940.167 0.101 -82.998 0.993 5.797 0.993 5.797 0.101 -82.998
5965.125 0.099 -83.07 0.993 5.706 0.993 5.706 0.099 -83.07
5990.083 0.098 -83.141 0.993 5.615 0.993 5.615 0.098 -83.141
6015.042 0.096 -83.211 0.993 5.524 0.993 5.524 0.096 -83.211
6040 0.095 -83.28 0.993 5.434 0.993 5.434 0.095 -83.28
6064.958 0.093 -83.348 0.994 5.345 0.994 5.345 0.093 -83.348
6089.917 0.092 -83.414 0.994 5.255 0.994 5.255 0.092 -83.414
6114.875 0.09 -83.48 0.994 5.167 0.994 5.167 0.09 -83.48
6139.833 0.089 -83.545 0.994 5.078 0.994 5.078 0.089 -83.545
6164.792 0.087 -83.608 0.994 4.99 0.994 4.99 0.087 -83.608
6189.75 0.085 -83.671 0.994 4.903 0.994 4.903 0.085 -83.671
6214.708 0.084 -83.732 0.994 4.816 0.994 4.816 0.084 -83.732
6239.667 0.082 -83.792 0.994 4.729 0.994 4.729 0.082 -83.792
6264.625 0.081 -83.851 0.995 4.643 0.995 4.643 0.081 -83.851
6289.583 0.079 -83.908 0.995 4.557 0.995 4.557 0.079 -83.908
6314.542 0.078 -83.964 0.995 4.471 0.995 4.471 0.078 -83.964
6339.5 0.077 -84.019 0.995 4.386 0.995 4.386 0.077 -84.019
6364.458 0.075 -84.072 0.995 4.301 0.995 4.301 0.075 -84.072
6389.417 0.074 -84.124 0.995 4.217 0.995 4.217 0.074 -84.124
6414.375 0.072 -84.174 0.995 4.133 0.995 4.133 0.072 -84.174
6439.333 0.071 -84.223 0.995 4.049 0.995 4.049 0.071 -84.223
6464.292 0.069 -84.269 0.995 3.966 0.995 3.966 0.069 -84.269
6489.25 0.068 -84.315 0.996 3.883 0.996 3.883 0.068 -84.315
6514.208 0.066 -84.358 0.996 3.801 0.996 3.801 0.066 -84.358
6539.167 0.065 -84.399 0.996 3.719 0.996 3.719 0.065 -84.399
6564.125 0.063 -84.439 0.996 3.637 0.996 3.637 0.063 -84.439
6589.083 0.062 -84.476 0.996 3.555 0.996 3.555 0.062 -84.476
6614.042 0.061 -84.511 0.996 3.474 0.996 3.474 0.061 -84.511
6639 0.059 -84.544 0.996 3.393 0.996 3.393 0.059 -84.544
6663.958 0.058 -84.574 0.996 3.313 0.996 3.313 0.058 -84.574
6688.917 0.056 -84.602 0.996 3.233 0.996 3.233 0.056 -84.602
6713.875 0.055 -84.627 0.996 3.153 0.996 3.153 0.055 -84.627
6738.833 0.054 -84.649 0.996 3.073 0.996 3.073 0.054 -84.649
6763.792 0.052 -84.668 0.997 2.994 0.997 2.994 0.052 -84.668
6788.75 0.051 -84.683 0.997 2.915 0.997 2.915 0.051 -84.683
6813.708 0.05 -84.695 0.997 2.837 0.997 2.837 0.05 -84.695
6838.667 0.048 -84.703 0.997 2.759 0.997 2.759 0.048 -84.703
6863.625 0.047 -84.707 0.997 2.681 0.997 2.681 0.047 -84.707
6888.583 0.045 -84.707 0.997 2.603 0.997 2.603 0.045 -84.707
6913.542 0.044 -84.702 0.997 2.526 0.997 2.526 0.044 -84.702
6938.5 0.043 -84.692 0.997 2.449 0.997 2.449 0.043 -84.692
6963.458 0.041 -84.676 0.997 2.372 0.997 2.372 0.041 -84.676
6988.417 0.04 -84.655 0.997 2.296 0.997 2.296 0.04 -84.655
7013.375 0.039 -84.626 0.997 2.22 0.997 2.22 0.039 -84.626
7038.333 0.037 -84.591 0.997 2.144 0.997 2.144 0.037 -84.591
7063.292 0.036 -84.547 0.997 2.069 0.997 2.069 0.036 -84.547
7088.25 0.035 -84.495 0.997 1.993 0.997 1.993 0.035 -84.495
7113.208 0.034 -84.433 0.997 1.919 0.997 1.919 0.034 -84.433
7138.167 0.032 -84.36 0.997 1.844 0.997 1.844 0.032 -84.36
7163.125 0.031 -84.276 0.997 1.77 0.997 1.77 0.031 -84.276
7188.083 0.03 -84.177 0.997 1.695 0.997 1.695 0.03 -84.177
7213.042 0.028 -84.064 0.997 1.622 0.997 1.622 0.028 -84.064
7238 0.027 -83.933 0.997 1.548 0.997 1.548 0.027 -83.933
7262.958 0.026 -83.783 0.998 1.475 0.998 1.475 0.026 -83.783
7287.917 0.025 -83.61 0.998 1.402 0.998 1.402 0.025 -83.61
7312.875 0.023 -83.411 0.998 1.329 0.998 1.329 0.023 -83.411
7337.833 0.022 -83.182 0.998 1.256 0.998 1.256 0.022 -83.182
7362.792 0.021 -82.917 0.998 1.184 0.998 1.184 0.021 -82.917
7387.75 0.02 -82.61 0.998 1.112 0.998 1.112 0.02 -82.61
7412.708 0.018 -82.252 0.998 1.04 0.998 1.04 0.018 -82.252
7437.667 0.017 -81.834 0.998 0.969 0.998 0.969 0.017 -81.834
7462.625 0.016 -81.34 0.998 0.898 0.998 0.898 0.016 -81.34
7487.583 0.015 -80.754 0.998 0.827 0.998 0.827 0.015 -80.754
7512.542 0.013 -80.049 0.998 0.756 0.998 0.756 0.013 -80.049
7537.5 0.012 -79.192 0.998 0.685 0.998 0.685 0.012 -79.192
7562.458 0.011 -78.134 0.998 0.615 0.998 0.615 0.011 -78.134
7587.417 9.75e-3 -76.802 0.998 0.545 0.998 0.545 9.75e-3 -76.802
7612.375 8.566e-3 -75.087 0.998 0.475 0.998 0.475 8.566e-3 -75.087
7637.333 7.396e-3 -72.81 0.998 0.406 0.998 0.406 7.396e-3 -72.81
7662.292 6.247e-3 -69.672 0.998 0.336 0.998 0.336 6.247e-3 -69.672
7687.25 5.13e-3 -65.13 0.998 0.267 0.998 0.267 5.13e-3 -65.13
7712.208 4.068e-3 -58.13 0.998 0.198 0.998 0.198 4.068e-3 -58.13
7737.167 3.112e-3 -46.532 0.998 0.13 0.998 0.13 3.112e-3 -46.532
7762.125 2.388e-3 -26.523 0.998 0.061 0.998 0.061 2.388e-3 -26.523
7787.083 2.139e-3 3.262 0.998 -6.99e-3 0.998 -6.99e-3 2.139e-3 3.262
7812.042 2.505e-3 31.428 0.998 -0.075 0.998 -0.075 2.505e-3 31.428
7837 3.282e-3 49.261 0.998 -0.143 0.998 -0.143 3.282e-3 49.261
7861.958 4.248e-3 59.603 0.998 -0.21 0.998 -0.21 4.248e-3 59.603
7886.917 5.297e-3 65.944 0.998 -0.278 0.998 -0.278 5.297e-3 65.944
7911.875 6.387e-3 70.12 0.998 -0.345 0.998 -0.345 6.387e-3 70.12
7936.833 7.498e-3 73.04 0.998 -0.412 0.998 -0.412 7.498e-3 73.04
7961.792 8.621e-3 75.178 0.998 -0.479 0.998 -0.479 8.621e-3 75.178
7986.75 9.751e-3 76.803 0.998 -0.545 0.998 -0.545 9.751e-3 76.803
8011.708 0.011 78.071 0.998 -0.611 0.998 -0.611 0.011 78.071
8036.667 0.012 79.085 0.998 -0.678 0.998 -0.678 0.012 79.085
8061.625 0.013 79.91 0.998 -0.743 0.998 -0.743 0.013 79.91
8086.583 0.014 80.592 0.998 -0.809 0.998 -0.809 0.014 80.592
8111.542 0.015 81.162 0.998 -0.875 0.998 -0.875 0.015 81.162
8136.5 0.017 81.644 0.998 -0.94 0.998 -0.94 0.017 81.644
8161.458 0.018 82.055 0.998 -1.005 0.998 -1.005 0.018 82.055
8186.417 0.019 82.407 0.998 -1.07 0.998 -1.07 0.019 82.407
8211.375 0.02 82.712 0.998 -1.135 0.998 -1.135 0.02 82.712
8236.333 0.021 82.976 0.998 -1.2 0.998 -1.2 0.021 82.976
8261.292 0.022 83.207 0.998 -1.264 0.998 -1.264 0.022 83.207
8286.25 0.023 83.408 0.998 -1.328 0.998 -1.328 0.023 83.408
8311.208 0.024 83.585 0.998 -1.392 0.998 -1.392 0.024 83.585
8336.167 0.025 83.741 0.998 -1.456 0.998 -1.456 0.025 83.741
8361.125 0.027 83.877 0.998 -1.52 0.998 -1.52 0.027 83.877
8386.083 0.028 83.998 0.997 -1.583 0.997 -1.583 0.028 83.998
8411.042 0.029 84.104 0.997 -1.646 0.997 -1.646 0.029 84.104
8436 0.03 84.197 0.997 -1.709 0.997 -1.709 0.03 84.197
8460.958 0.031 84.279 0.997 -1.772 0.997 -1.772 0.031 84.279
8485.917 0.032 84.351 0.997 -1.835 0.997 -1.835 0.032 84.351
8510.875 0.033 84.414 0.997 -1.898 0.997 -1.898 0.033 84.414
8535.833 0.034 84.469 0.997 -1.96 0.997 -1.96 0.034 84.469
8560.792 0.035 84.516 0.997 -2.022 0.997 -2.022 0.035 84.516
8585.75 0.036 84.557 0.997 -2.084 0.997 -2.084 0.036 84.557
8610.708 0.038 84.592 0.997 -2.146 0.997 -2.146 0.038 84.592
8635.667 0.039 84.621 0.997 -2.208 0.997 -2.208 0.039 84.621
8660.625 0.04 84.646 0.997 -2.27 0.997 -2.27 0.04 84.646
8685.583 0.041 84.666 0.997 -2.331 0.997 -2.331 0.041 84.666
8710.542 0.042 84.681 0.997 -2.392 0.997 -2.392 0.042 84.681
8735.5 0.043 84.693 0.997 -2.453 0.997 -2.453 0.043 84.693
8760.458 0.044 84.701 0.997 -2.514 0.997 -2.514 0.044 84.701
8785.417 0.045 84.706 0.997 -2.575 0.997 -2.575 0.045 84.706
8810.375 0.046 84.708 0.997 -2.636 0.997 -2.636 0.046 84.708
8835.333 0.047 84.707 0.997 -2.696 0.997 -2.696 0.047 84.707
8860.292 0.048 84.704 0.997 -2.757 0.997 -2.757 0.048 84.704
8885.25 0.049 84.698 0.997 -2.817 0.997 -2.817 0.049 84.698
8910.208 0.05 84.689 0.997 -2.877 0.997 -2.877 0.05 84.689
8935.167 0.051 84.679 0.997 -2.937 0.997 -2.937 0.051 84.679
8960.125 0.052 84.667 0.997 -2.996 0.997 -2.996 0.052 84.667
8985.083 0.053 84.653 0.996 -3.056 0.996 -3.056 0.053 84.653
9010.042 0.054 84.637 0.996 -3.115 0.996 -3.115 0.054 84.637
9035 0.055 84.62 0.996 -3.174 0.996 -3.174 0.055 84.62
9059.958 0.056 84.601 0.996 -3.234 0.996 -3.234 0.056 84.601
9084.917 0.057 84.581 0.996 -3.293 0.996 -3.293 0.057 84.581
9109.875 0.058 84.56 0.996 -3.351 0.996 -3.351 0.058 84.56
9134.833 0.06 84.537 0.996 -3.41 0.996 -3.41 0.06 84.537
9159.792 0.061 84.513 0.996 -3.469 0.996 -3.469 0.061 84.513
9184.75 0.062 84.488 0.996 -3.527 0.996 -3.527 0.062 84.488
9209.708 0.063 84.462 0.996 -3.585 0.996 -3.585 0.063 84.462
9234.667 0.064 84.436 0.996 -3.643 0.996 -3.643 0.064 84.436
9259.625 0.065 84.408 0.996 -3.701 0.996 -3.701 0.065 84.408
9284.583 0.066 84.379 0.996 -3.759 0.996 -3.759 0.066 84.379
9309.542 0.067 84.35 0.996 -3.817 0.996 -3.817 0.067 84.35
9334.5 0.068 84.319 0.996 -3.874 0.996 -3.874 0.068 84.319
9359.458 0.069 84.288 0.996 -3.932 0.996 -3.932 0.069 84.288
9384.417 0.07 84.257 0.995 -3.989 0.995 -3.989 0.07 84.257
9409.375 0.071 84.224 0.995 -4.046 0.995 -4.046 0.071 84.224
9434.333 0.072 84.191 0.995 -4.103 0.995 -4.103 0.072 84.191
9459.292 0.073 84.158 0.995 -4.16 0.995 -4.16 0.073 84.158
9484.25 0.074 84.124 0.995 -4.217 0.995 -4.217 0.074 84.124
9509.208 0.075 84.089 0.995 -4.274 0.995 -4.274 0.075 84.089
9534.167 0.076 84.054 0.995 -4.33 0.995 -4.33 0.076 84.054
9559.125 0.077 84.019 0.995 -4.387 0.995 -4.387 0.077 84.019
9584.083 0.077 83.983 0.995 -4.443 0.995 -4.443 0.077 83.983
9609.042 0.078 83.946 0.995 -4.499 0.995 -4.499 0.078 83.946
9634 0.079 83.909 0.995 -4.555 0.995 -4.555 0.079 83.909
9658.958 0.08 83.872 0.995 -4.611 0.995 -4.611 0.08 83.872
9683.917 0.081 83.834 0.995 -4.667 0.995 -4.667 0.081 83.834
9708.875 0.082 83.797 0.994 -4.722 0.994 -4.722 0.082 83.797
9733.833 0.083 83.758 0.994 -4.778 0.994 -4.778 0.083 83.758
9758.792 0.084 83.72 0.994 -4.833 0.994 -4.833 0.084 83.72
9783.75 0.085 83.681 0.994 -4.889 0.994 -4.889 0.085 83.681
9808.708 0.086 83.642 0.994 -4.944 0.994 -4.944 0.086 83.642
9833.667 0.087 83.602 0.994 -4.999 0.994 -4.999 0.087 83.602
9858.625 0.088 83.563 0.994 -5.054 0.994 -5.054 0.088 83.563
9883.583 0.089 83.523 0.994 -5.109 0.994 -5.109 0.089 83.523
9908.542 0.09 83.483 0.994 -5.163 0.994 -5.163 0.09 83.483
9933.5 0.091 83.442 0.994 -5.218 0.994 -5.218 0.091 83.442
9958.458 0.092 83.402 0.994 -5.272 0.994 -5.272 0.092 83.402
9983.417 0.093 83.361 0.994 -5.327 0.994 -5.327 0.093 83.361
10008.375 0.094 83.32 0.993 -5.381 0.993 -5.381 0.094 83.32
10033.333 0.095 83.279 0.993 -5.435 0.993 -5.435 0.095 83.279
10058.292 0.096 83.238 0.993 -5.489 0.993 -5.489 0.096 83.238
10083.25 0.097 83.196 0.993 -5.543 0.993 -5.543 0.097 83.196
10108.208 0.098 83.154 0.993 -5.597 0.993 -5.597 0.098 83.154
10133.167 0.098 83.113 0.993 -5.651 0.993 -5.651 0.098 83.113
10158.125 0.099 83.071 0.993 -5.704 0.993 -5.704 0.099 83.071
10183.083 0.1 83.029 0.993 -5.758 0.993 -5.758 0.1 83.029
10208.042 0.101 82.987 0.993 -5.811 0.993 -5.811 0.101 82.987
10233 0.102 82.944 0.993 -5.864 0.993 -5.864 0.102 82.944
10257.958 0.103 82.902 0.993 -5.918 0.993 -5.918 0.103 82.902
10282.917 0.104 82.859 0.992 -5.971 0.992 -5.971 0.104 82.859
10307.875 0.105 82.817 0.992 -6.024 0.992 -6.024 0.105 82.817
10332.833 0.106 82.774 0.992 -6.076 0.992 -6.076 0.106 82.774
10357.792 0.107 82.731 0.992 -6.129 0.992 -6.129 0.107 82.731
10382.75 0.108 82.688 0.992 -6.182 0.992 -6.182 0.108 82.688
10407.708 0.109 82.645 0.992 -6.234 0.992 -6.234 0.109 82.645
10432.667 0.11 82.602 0.992 -6.287 0.992 -6.287 0.11 82.602
10457.625 0.11 82.559 0.992 -6.339 0.992 -6.339 0.11 82.559
10482.583 0.111 82.516 0.992 -6.392 0.992 -6.392 0.111 82.516
10507.542 0.112 82.473 0.992 -6.444 0.992 -6.444 0.112 82.473
10532.5 0.113 82.43 0.991 -6.496 0.991 -6.496 0.113 82.43
10557.458 0.114 82.386 0.991 -6.548 0.991 -6.548 0.114 82.386
10582.417 0.115 82.343 0.991 -6.6 0.991 -6.6 0.115 82.343
10607.375 0.116 82.299 0.991 -6.651 0.991 -6.651 0.116 82.299
10632.333 0.117 82.256 0.991 -6.703 0.991 -6.703 0.117 82.256
10657.292 0.118 82.212 0.991 -6.755 0.991 -6.755 0.118 82.212
10682.25 0.119 82.169 0.991 -6.806 0.991 -6.806 0.119 82.169
10707.208 0.119 82.125 0.991 -6.857 0.991 -6.857 0.119 82.125
10732.167 0.12 82.081 0.991 -6.909 0.991 -6.909 0.12 82.081
10757.125 0.121 82.038 0.991 -6.96 0.991 -6.96 0.121 82.038
10782.083 0.122 81.994 0.99 -7.011 0.99 -7.011 0.122 81.994
10807.042 0.123 81.95 0.99 -7.062 0.99 -7.062 0.123 81.95
10832 0.124 81.906 0.99 -7.113 0.99 -7.113 0.124 81.906
10856.958 0.125 81.863 0.99 -7.164 0.99 -7.164 0.125 81.863
10881.917 0.126 81.819 0.99 -7.215 0.99 -7.215 0.126 81.819
10906.875 0.126 81.775 0.99 -7.265 0.99 -7.265 0.126 81.775
10931.833 0.127 81.731 0.99 -7.316 0.99 -7.316 0.127 81.731
10956.792 0.128 81.687 0.99 -7.366 0.99 -7.366 0.128 81.687
10981.75 0.129 81.643 0.99 -7.417 0.99 -7.417 0.129 81.643
11006.708 0.13 81.6 0.989 -7.467 0.989 -7.467 0.13 81.6
11031.667 0.131 81.556 0.989 -7.517 0.989 -7.517 0.131 81.556
11056.625 0.132 81.512 0.989 -7.567 0.989 -7.567 0.132 81.512
11081.583 0.133 81.468 0.989 -7.617 0.989 -7.617 0.133 81.468
11106.542 0.133 81.424 0.989 -7.667 0.989 -7.667 0.133 81.424
11131.5 0.134 81.38 0.989 -7.717 0.989 -7.717 0.134 81.38
11156.458 0.135 81.336 0.989 -7.767 0.989 -7.767 0.135 81.336
11181.417 0.136 81.292 0.989 -7.816 0.989 -7.816 0.136 81.292
11206.375 0.137 81.248 0.988 -7.866 0.988 -7.866 0.137 81.248
11231.333 0.138 81.204 0.988 -7.916 0.988 -7.916 0.138 81.204
11256.292 0.139 81.16 0.988 -7.965 0.988 -7.965 0.139 81.16
11281.25 0.139 81.117 0.988 -8.014 0.988 -8.014 0.139 81.117
11306.208 0.14 81.073 0.988 -8.064 0.988 -8.064 0.14 81.073
11331.167 0.141 81.029 0.988 -8.113 0.988 -8.113 0.141 81.029
11356.125 0.142 80.985 0.988 -8.162 0.988 -8.162 0.142 80.985
11381.083 0.143 80.941 0.988 -8.211 0.988 -8.211 0.143 80.941
11406.042 0.144 80.897 0.988 -8.26 0.988 -8.26 0.144 80.897
11431 0.145 80.853 0.987 -8.309 0.987 -8.309 0.145 80.853
11455.958 0.145 80.809 0.987 -8.358 0.987 -8.358 0.145 80.809
11480.917 0.146 80.766 0.987 -8.406 0.987 -8.406 0.146 80.766
11505.875 0.147 80.722 0.987 -8.455 0.987 -8.455 0.147 80.722
11530.833 0.148 80.678 0.987 -8.504 0.987 -8.504 0.148 80.678
11555.792 0.149 80.634 0.987 -8.552 0.987 -8.552 0.149 80.634
11580.75 0.15 80.591 0.987 -8.6 0.987 -8.6 0.15 80.591
11605.708 0.15 80.547 0.987 -8.649 0.987 -8.649 0.15 80.547
11630.667 0.151 80.503 0.986 -8.697 0.986 -8.697 0.151 80.503
11655.625 0.152 80.459 0.986 -8.745 0.986 -8.745 0.152 80.459
11680.583 0.153 80.416 0.986 -8.793 0.986 -8.793 0.153 80.416
11705.542 0.154 80.372 0.986 -8.841 0.986 -8.841 0.154 80.372
11730.5 0.155 80.328 0.986 -8.889 0.986 -8.889 0.155 80.328
11755.458 0.155 80.285 0.986 -8.937 0.986 -8.937 0.155 80.285
11780.417 0.156 80.241 0.986 -8.985 0.986 -8.985 0.156 80.241
11805.375 0.157 80.198 0.985 -9.033 0.985 -9.033 0.157 80.198
11830.333 0.158 80.154 0.985 -9.08 0.985 -9.08 0.158 80.154
11855.292 0.159 80.111 0.985 -9.128 0.985 -9.128 0.159 80.111
11880.25 0.159 80.067 0.985 -9.175 0.985 -9.175 0.159 80.067
11905.208 0.16 80.024 0.985 -9.223 0.985 -9.223 0.16 80.024
11930.167 0.161 79.98 0.985 -9.27 0.985 -9.27 0.161 79.98
11955.125 0.162 79.937 0.985 -9.317 0.985 -9.317 0.162 79.937
11980.083 0.163 79.893 0.985 -9.364 0.985 -9.364 0.163 79.893
12005.042 0.164 79.85 0.984 -9.412 0.984 -9.412 0.164 79.85
12030 0.164 79.807 0.984 -9.459 0.984 -9.459 0.164 79.807
12054.958 0.165 79.764 0.984 -9.506 0.984 -9.506 0.165 79.764
12079.917 0.166 79.72 0.984 -9.553 0.984 -9.553 0.166 79.72
12104.875 0.167 79.677 0.984 -9.599 0.984 -9.599 0.167 79.677
12129.833 0.168 79.634 0.984 -9.646 0.984 -9.646 0.168 79.634
12154.792 0.168 79.591 0.984 -9.693 0.984 -9.693 0.168 79.591
12179.75 0.169 79.547 0.983 -9.74 0.983 -9.74 0.169 79.547
12204.708 0.17 79.504 0.983 -9.786 0.983 -9.786 0.17 79.504
12229.667 0.171 79.461 0.983 -9.833 0.983 -9.833 0.171 79.461
12254.625 0.172 79.418 0.983 -9.879 0.983 -9.879 0.172 79.418
12279.583 0.172 79.375 0.983 -9.926 0.983 -9.926 0.172 79.375
12304.542 0.173 79.332 0.983 -9.972 0.983 -9.972 0.173 79.332
12329.5 0.174 79.289 0.983 -10.018 0.983 -10.018 0.174 79.289
12354.458 0.175 79.246 0.983 -10.064 0.983 -10.064 0.175 79.246
12379.417 0.176 79.203 0.982 -10.11 0.982 -10.11 0.176 79.203
12404.375 0.176 79.16 0.982 -10.156 0.982 -10.156 0.176 79.16
12429.333 0.177 79.118 0.982 -10.202 0.982 -10.202 0.177 79.118
12454.292 0.178 79.075 0.982 -10.248 0.982 -10.248 0.178 79.075
12479.25 0.179 79.032 0.982 -10.294 0.982 -10.294 0.179 79.032
12504.208 0.18 78.989 0.982 -10.34 0.982 -10.34 0.18 78.989
12529.167 0.18 78.947 0.982 -10.386 0.982 -10.386 0.18 78.947
12554.125 0.181 78.904 0.981 -10.431 0.981 -10.431 0.181 78.904
12579.083 0.182 78.861 0.981 -10.477 0.981 -10.477 0.182 78.861
12604.042 0.183 78.819 0.981 -10.522 0.981 -10.522 0.183 78.819
12629 0.183 78.776 0.981 -10.568 0.981 -10.568 0.183 78.776
12653.958 0.184 78.734 0.981 -10.613 0.981 -10.613 0.184 78.734
12678.917 0.185 78.691 0.981 -10.659 0.981 -10.659 0.185 78.691
12703.875 0.186 78.649 0.981 -10.704 0.981 -10.704 0.186 78.649
12728.833 0.187 78.606 0.98 -10.749 0.98 -10.749 0.187 78.606
12753.792 0.187 78.564 0.98 -10.794 0.98 -10.794 0.187 78.564
12778.75 0.188 78.522 0.98 -10.839 0.98 -10.839 0.188 78.522
12803.708 0.189 78.479 0.98 -10.884 0.98 -10.884 0.189 78.479
12828.667 0.19 78.437 0.98 -10.929 0.98 -10.929 0.19 78.437
12853.625 0.19 78.395 0.98 -10.974 0.98 -10.974 0.19 78.395
12878.583 0.191 78.352 0.979 -11.019 0.979 -11.019 0.191 78.352
12903.542 0.192 78.31 0.979 -11.064 0.979 -11.064 0.192 78.31
12928.5 0.193 78.268 0.979 -11.109 0.979 -11.109 0.193 78.268
12953.458 0.193 78.226 0.979 -11.153 0.979 -11.153 0.193 78.226
12978.417 0.194 78.184 0.979 -11.198 0.979 -11.198 0.194 78.184
13003.375 0.195 78.142 0.979 -11.242 0.979 -11.242 0.195 78.142
13028.333 0.196 78.1 0.979 -11.287 0.979 -11.287 0.196 78.1
13053.292 0.196 78.058 0.978 -11.331 0.978 -11.331 0.196 78.058
13078.25 0.197 78.016 0.978 -11.376 0.978 -11.376 0.197 78.016
13103.208 0.198 77.974 0.978 -11.42 0.978 -11.42 0.198 77.974
13128.167 0.199 77.932 0.978 -11.464 0.978 -11.464 0.199 77.932
13153.125 0.2 77.89 0.978 -11.509 0.978 -11.509 0.2 77.89
13178.083 0.2 77.849 0.978 -11.553 0.978 -11.553 0.2 77.849
13203.042 0.201 77.807 0.977 -11.597 0.977 -11.597 0.201 77.807
13228 0.202 77.765 0.977 -11.641 0.977 -11.641 0.202 77.765
13252.958 0.203 77.723 0.977 -11.685 0.977 -11.685 0.203 77.723
13277.917 0.203 77.682 0.977 -11.729 0.977 -11.729 0.203 77.682
13302.875 0.204 77.64 0.977 -11.773 0.977 -11.773 0.204 77.64
13327.833 0.205 77.599 0.977 -11.816 0.977 -11.816 0.205 77.599
13352.792 0.206 77.557 0.977 -11.86 0.977 -11.86 0.206 77.557
13377.75 0.206 77.516 0.976 -11.904 0.976 -11.904 0.206 77.516
13402.708 0.207 77.474 0.976 -11.947 0.976 -11.947 0.207 77.474
13427.667 0.208 77.433 0.976 -11.991 0.976 -11.991 0.208 77.433
13452.625 0.209 77.391 0.976 -12.035 0.976 -12.035 0.209 77.391
13477.583 0.209 77.35 0.976 -12.078 0.976 -12.078 0.209 77.35
13502.542 0.21 77.309 0.976 -12.121 0.976 -12.121 0.21 77.309
13527.5 0.211 77.267 0.975 -12.165 0.975 -12.165 0.211 77.267
13552.458 0.211 77.226 0.975 -12.208 0.975 -12.208 0.211 77.226
13577.417 0.212 77.185 0.975 -12.251 0.975 -12.251 0.212 77.185
13602.375 0.213 77.144 0.975 -12.295 0.975 -12.295 0.213 77.144
13627.333 0.214 77.103 0.975 -12.338 0.975 -12.338 0.214 77.103
13652.292 0.214 77.062 0.975 -12.381 0.975 -12.381 0.214 77.062
13677.25 0.215 77.021 0.974 -12.424 0.974 -12.424 0.215 77.021
13702.208 0.216 76.98 0.974 -12.467 0.974 -12.467 0.216 76.98
13727.167 0.217 76.939 0.974 -12.51 0.974 -12.51 0.217 76.939
13752.125 0.217 76.898 0.974 -12.553 0.974 -12.553 0.217 76.898
13777.083 0.218 76.857 0.974 -12.596 0.974 -12.596 0.218 76.857
13802.042 0.219 76.816 0.974 -12.638 0.974 -12.638 0.219 76.816
13827 0.22 76.775 0.974 -12.681 0.974 -12.681 0.22 76.775
13851.958 0.22 76.734 0.973 -12.724 0.973 -12.724 0.22 76.734
13876.917 0.221 76.694 0.973 -12.766 0.973 -12.766 0.221 76.694
13901.875 0.222 76.653 0.973 -12.809 0.973 -12.809 0.222 76.653
13926.833 0.222 76.612 0.973 -12.852 0.973 -12.852 0.222 76.612
13951.792 0.223 76.571 0.973 -12.894 0.973 -12.894 0.223 76.571
13976.75 0.224 76.531 0.973 -12.936 0.973 -12.936 0.224 76.531
14001.708 0.225 76.49 0.972 -12.979 0.972 -12.979 0.225 76.49
14026.667 0.225 76.45 0.972 -13.021 0.972 -13.021 0.225 76.45
14051.625 0.226 76.409 0.972 -13.063 0.972 -13.063 0.226 76.409
14076.583 0.227 76.369 0.972 -13.106 0.972 -13.106 0.227 76.369
14101.542 0.227 76.328 0.972 -13.148 0.972 -13.148 0.227 76.328
14126.5 0.228 76.288 0.972 -13.19 0.972 -13.19 0.228 76.288
14151.458 0.229 76.248 0.971 -13.232 0.971 -13.232 0.229 76.248
14176.417 0.23 76.207 0.971 -13.274 0.971 -13.274 0.23 76.207
14201.375 0.23 76.167 0.971 -13.316 0.971 -13.316 0.23 76.167
14226.333 0.231 76.127 0.971 -13.358 0.971 -13.358 0.231 76.127
14251.292 0.232 76.087 0.971 -13.4 0.971 -13.4 0.232 76.087
14276.25 0.232 76.046 0.971 -13.442 0.971 -13.442 0.232 76.046
14301.208 0.233 76.006 0.97 -13.483 0.97 -13.483 0.233 76.006
14326.167 0.234 75.966 0.97 -13.525 0.97 -13.525 0.234 75.966
14351.125 0.235 75.926 0.97 -13.567 0.97 -13.567 0.235 75.926
14376.083 0.235 75.886 0.97 -13.609 0.97 -13.609 0.235 75.886
14401.042 0.236 75.846 0.97 -13.65 0.97 -13.65 0.236 75.846
14426 0.237 75.806 0.97 -13.692 0.97 -13.692 0.237 75.806
14450.958 0.237 75.766 0.969 -13.733 0.969 -13.733 0.237 75.766
14475.917 0.238 75.726 0.969 -13.775 0.969 -13.775 0.238 75.726
14500.875 0.239 75.686 0.969 -13.816 0.969 -13.816 0.239 75.686
14525.833 0.24 75.647 0.969 -13.857 0.969 -13.857 0.24 75.647
14550.792 0.24 75.607 0.969 -13.899 0.969 -13.899 0.24 75.607
14575.75 0.241 75.567 0.968 -13.94 0.968 -13.94 0.241 75.567
14600.708 0.242 75.527 0.968 -13.981 0.968 -13.981 0.242 75.527
14625.667 0.242 75.488 0.968 -14.022 0.968 -14.022 0.242 75.488
14650.625 0.243 75.448 0.968 -14.064 0.968 -14.064 0.243 75.448
14675.583 0.244 75.408 0.968 -14.105 0.968 -14.105 0.244 75.408
14700.542 0.244 75.369 0.968 -14.146 0.968 -14.146 0.244 75.369
14725.5 0.245 75.329 0.967 -14.187 0.967 -14.187 0.245 75.329
14750.458 0.246 75.29 0.967 -14.228 0.967 -14.228 0.246 75.29
14775.417 0.246 75.25 0.967 -14.268 0.967 -14.268 0.246 75.25
14800.375 0.247 75.211 0.967 -14.309 0.967 -14.309 0.247 75.211
14825.333 0.248 75.171 0.967 -14.35 0.967 -14.35 0.248 75.171
14850.292 0.249 75.132 0.967 -14.391 0.967 -14.391 0.249 75.132
14875.25 0.249 75.093 0.966 -14.432 0.966 -14.432 0.249 75.093
14900.208 0.25 75.054 0.966 -14.472 0.966 -14.472 0.25 75.054
14925.167 0.251 75.014 0.966 -14.513 0.966 -14.513 0.251 75.014
14950.125 0.251 74.975 0.966 -14.554 0.966 -14.554 0.251 74.975
14975.083 0.252 74.936 0.966 -14.594 0.966 -14.594 0.252 74.936
15000.042 0.253 74.897 0.965 -14.635 0.965 -14.635 0.253 74.897
15025 0.253 74.858 0.965 -14.675 0.965 -14.675 0.253 74.858
15049.958 0.254 74.819 0.965 -14.716 0.965 -14.716 0.254 74.819
15074.917 0.255 74.779 0.965 -14.756 0.965 -14.756 0.255 74.779
15099.875 0.255 74.74 0.965 -14.796 0.965 -14.796 0.255 74.74
15124.833 0.256 74.701 0.965 -14.837 0.965 -14.837 0.256 74.701
15149.792 0.257 74.663 0.964 -14.877 0.964 -14.877 0.257 74.663
15174.75 0.257 74.624 0.964 -14.917 0.964 -14.917 0.257 74.624
15199.708 0.258 74.585 0.964 -14.957 0.964 -14.957 0.258 74.585
15224.667 0.259 74.546 0.964 -14.997 0.964 -14.997 0.259 74.546
15249.625 0.259 74.507 0.964 -15.037 0.964 -15.037 0.259 74.507
15274.583 0.26 74.468 0.964 -15.077 0.964 -15.077 0.26 74.468
15299.542 0.261 74.43 0.963 -15.117 0.963 -15.117 0.261 74.43
15324.5 0.261 74.391 0.963 -15.157 0.963 -15.157 0.261 74.391
15349.458 0.262 74.352 0.963 -15.197 0.963 -15.197 0.262 74.352
15374.417 0.263 74.314 0.963 -15.237 0.963 -15.237 0.263 74.314
15399.375 0.263 74.275 0.963 -15.277 0.963 -15.277 0.263 74.275
15424.333 0.264 74.236 0.962 -15.317 0.962 -15.317 0.264 74.236
15449.292 0.265 74.198 0.962 -15.356 0.962 -15.356 0.265 74.198
15474.25 0.265 74.159 0.962 -15.396 0.962 -15.396 0.265 74.159
15499.208 0.266 74.121 0.962 -15.436 0.962 -15.436 0.266 74.121
15524.167 0.267 74.083 0.962 -15.475 0.962 -15.475 0.267 74.083
15549.125 0.267 74.044 0.962 -15.515 0.962 -15.515 0.267 74.044
15574.083 0.268 74.006 0.961 -15.555 0.961 -15.555 0.268 74.006
15599.042 0.269 73.967 0.961 -15.594 0.961 -15.594 0.269 73.967
15624 0.269 73.929 0.961 -15.634 0.961 -15.634 0.269 73.929
15648.958 0.27 73.891 0.961 -15.673 0.961 -15.673 0.27 73.891
15673.917 0.271 73.853 0.961 -15.712 0.961 -15.712 0.271 73.853
15698.875 0.271 73.814 0.96 -15.752 0.96 -15.752 0.271 73.814
15723.833 0.272 73.776 0.96 -15.791 0.96 -15.791 0.272 73.776
15748.792 0.273 73.738 0.96 -15.83 0.96 -15.83 0.273 73.738
15773.75 0.273 73.7 0.96 -15.869 0.96 -15.869 0.273 73.7
15798.708 0.274 73.662 0.96 -15.909 0.96 -15.909 0.274 73.662
15823.667 0.275 73.624 0.959 -15.948 0.959 -15.948 0.275 73.624
15848.625 0.275 73.586 0.959 -15.987 0.959 -15.987 0.275 73.586
15873.583 0.276 73.548 0.959 -16.026 0.959 -16.026 0.276 73.548
15898.542 0.277 73.51 0.959 -16.065 0.959 -16.065 0.277 73.51
15923.5 0.277 73.472 0.959 -16.104 0.959 -16.104 0.277 73.472
15948.458 0.278 73.434 0.959 -16.143 0.959 -16.143 0.278 73.434
15973.417 0.279 73.396 0.958 -16.182 0.958 -16.182 0.279 73.396
15998.375 0.279 73.359 0.958 -16.221 0.958 -16.221 0.279 73.359
16023.333 0.28 73.321 0.958 -16.259 0.958 -16.259 0.28 73.321
16048.292 0.281 73.283 0.958 -16.298 0.958 -16.298 0.281 73.283
16073.25 0.281 73.245 0.958 -16.337 0.958 -16.337 0.281 73.245
16098.208 0.282 73.208 0.957 -16.376 0.957 -16.376 0.282 73.208
16123.167 0.283 73.17 0.957 -16.414 0.957 -16.414 0.283 73.17
16148.125 0.283 73.133 0.957 -16.453 0.957 -16.453 0.283 73.133
16173.083 0.284 73.095 0.957 -16.492 0.957 -16.492 0.284 73.095
16198.042 0.285 73.057 0.957 -16.53 0.957 -16.53 0.285 73.057
16223 0.285 73.02 0.956 -16.569 0.956 -16.569 0.285 73.02
16247.958 0.286 72.982 0.956 -16.607 0.956 -16.607 0.286 72.982
16272.917 0.286 72.945 0.956 -16.646 0.956 -16.646 0.286 72.945
16297.875 0.287 72.908 0.956 -16.684 0.956 -16.684 0.287 72.908
16322.833 0.288 72.87 0.956 -16.722 0.956 -16.722 0.288 72.87
16347.792 0.288 72.833 0.955 -16.761 0.955 -16.761 0.288 72.833
16372.75 0.289 72.796 0.955 -16.799 0.955 -16.799 0.289 72.796
16397.708 0.29 72.758 0.955 -16.837 0.955 -16.837 0.29 72.758
16422.667 0.29 72.721 0.955 -16.876 0.955 -16.876 0.29 72.721
16447.625 0.291 72.684 0.955 -16.914 0.955 -16.914 0.291 72.684
16472.583 0.292 72.647 0.955 -16.952 0.955 -16.952 0.292 72.647
16497.542 0.292 72.609 0.954 -16.99 0.954 -16.99 0.292 72.609
16522.5 0.293 72.572 0.954 -17.028 0.954 -17.028 0.293 72.572
16547.458 0.293 72.535 0.954 -17.066 0.954 -17.066 0.293 72.535
16572.417 0.294 72.498 0.954 -17.104 0.954 -17.104 0.294 72.498
16597.375 0.295 72.461 0.954 -17.142 0.954 -17.142 0.295 72.461
16622.333 0.295 72.424 0.953 -17.18 0.953 -17.18 0.295 72.424
16647.292 0.296 72.387 0.953 -17.218 0.953 -17.218 0.296 72.387
16672.25 0.297 72.35 0.953 -17.256 0.953 -17.256 0.297 72.35
16697.208 0.297 72.313 0.953 -17.294 0.953 -17.294 0.297 72.313
16722.167 0.298 72.276 0.953 -17.332 0.953 -17.332 0.298 72.276
16747.125 0.299 72.24 0.952 -17.369 0.952 -17.369 0.299 72.24
16772.083 0.299 72.203 0.952 -17.407 0.952 -17.407 0.299 72.203
16797.042 0.3 72.166 0.952 -17.445 0.952 -17.445 0.3 72.166
16822 0.3 72.129 0.952 -17.482 0.952 -17.482 0.3 72.129
16846.958 0.301 72.092 0.952 -17.52 0.952 -17.52 0.301 72.092
16871.917 0.302 72.056 0.951 -17.558 0.951 -17.558 0.302 72.056
16896.875 0.302 72.019 0.951 -17.595 0.951 -17.595 0.302 72.019
16921.833 0.303 71.982 0.951 -17.633 0.951 -17.633 0.303 71.982
16946.792 0.304 71.946 0.951 -17.67 0.951 -17.67 0.304 71.946
16971.75 0.304 71.909 0.951 -17.707 0.951 -17.707 0.304 71.909
16996.708 0.305 71.873 0.95 -17.745 0.95 -17.745 0.305 71.873
17021.667 0.305 71.836 0.95 -17.782 0.95 -17.782 0.305 71.836
17046.625 0.306 71.8 0.95 -17.82 0.95 -17.82 0.306 71.8
17071.583 0.307 71.763 0.95 -17.857 0.95 -17.857 0.307 71.763
17096.542 0.307 71.727 0.95 -17.894 0.95 -17.894 0.307 71.727
17121.5 0.308 71.69 0.949 -17.931 0.949 -17.931 0.308 71.69
17146.458 0.309 71.654 0.949 -17.969 0.949 -17.969 0.309 71.654
17171.417 0.309 71.618 0.949 -18.006 0.949 -18.006 0.309 71.618
17196.375 0.31 71.581 0.949 -18.043 0.949 -18.043 0.31 71.581
17221.333 0.31 71.545 0.949 -18.08 0.949 -18.08 0.31 71.545
17246.292 0.311 71.509 0.948 -18.117 0.948 -18.117 0.311 71.509
17271.25 0.312 71.473 0.948 -18.154 0.948 -18.154 0.312 71.473
17296.208 0.312 71.437 0.948 -18.191 0.948 -18.191 0.312 71.437
17321.167 0.313 71.4 0.948 -18.228 0.948 -18.228 0.313 71.4
17346.125 0.313 71.364 0.948 -18.265 0.948 -18.265 0.313 71.364
17371.083 0.314 71.328 0.947 -18.302 0.947 -18.302 0.314 71.328
17396.042 0.315 71.292 0.947 -18.339 0.947 -18.339 0.315 71.292
17421 0.315 71.256 0.947 -18.376 0.947 -18.376 0.315 71.256
17445.958 0.316 71.22 0.947 -18.412 0.947 -18.412 0.316 71.22
17470.917 0.316 71.184 0.947 -18.449 0.947 -18.449 0.316 71.184
17495.875 0.317 71.148 0.946 -18.486 0.946 -18.486 0.317 71.148
17520.833 0.318 71.112 0.946 -18.523 0.946 -18.523 0.318 71.112
17545.792 0.318 71.076 0.946 -18.559 0.946 -18.559 0.318 71.076
17570.75 0.319 71.04 0.946 -18.596 0.946 -18.596 0.319 71.04
17595.708 0.32 71.005 0.946 -18.632 0.946 -18.632 0.32 71.005
17620.667 0.32 70.969 0.945 -18.669 0.945 -18.669 0.32 70.969
17645.625 0.321 70.933 0.945 -18.706 0.945 -18.706 0.321 70.933
17670.583 0.321 70.897 0.945 -18.742 0.945 -18.742 0.321 70.897
17695.542 0.322 70.862 0.945 -18.778 0.945 -18.778 0.322 70.862
17720.5 0.323 70.826 0.945 -18.815 0.945 -18.815 0.323 70.826
17745.458 0.323 70.79 0.944 -18.851 0.944 -18.851 0.323 70.79
17770.417 0.324 70.755 0.944 -18.888 0.944 -18.888 0.324 70.755
17795.375 0.324 70.719 0.944 -18.924 0.944 -18.924 0.324 70.719
17820.333 0.325 70.683 0.944 -18.96 0.944 -18.96 0.325 70.683
17845.292 0.326 70.648 0.944 -18.997 0.944 -18.997 0.326 70.648
17870.25 0.326 70.612 0.943 -19.033 0.943 -19.033 0.326 70.612
17895.208 0.327 70.577 0.943 -19.069 0.943 -19.069 0.327 70.577
17920.167 0.327 70.541 0.943 -19.105 0.943 -19.105 0.327 70.541
17945.125 0.328 70.506 0.943 -19.141 0.943 -19.141 0.328 70.506
17970.083 0.329 70.471 0.942 -19.177 0.942 -19.177 0.329 70.471
17995.042 0.329 70.435 0.942 -19.214 0.942 -19.214 0.329 70.435
18020 0.33 70.4 0.942 -19.25 0.942 -19.25 0.33 70.4
18044.958 0.33 70.365 0.942 -19.286 0.942 -19.286 0.33 70.365
18069.917 0.331 70.329 0.942 -19.322 0.942 -19.322 0.331 70.329
18094.875 0.331 70.294 0.941 -19.358 0.941 -19.358 0.331 70.294
18119.833 0.332 70.259 0.941 -19.393 0.941 -19.393 0.332 70.259
18144.792 0.333 70.224 0.941 -19.429 0.941 -19.429 0.333 70.224
18169.75 0.333 70.189 0.941 -19.465 0.941 -19.465 0.333 70.189
18194.708 0.334 70.153 0.941 -19.501 0.941 -19.501 0.334 70.153
18219.667 0.334 70.118 0.94 -19.537 0.94 -19.537 0.334 70.118
18244.625 0.335 70.083 0.94 -19.573 0.94 -19.573 0.335 70.083
18269.583 0.336 70.048 0.94 -19.608 0.94 -19.608 0.336 70.048
18294.542 0.336 70.013 0.94 -19.644 0.94 -19.644 0.336 70.013
18319.5 0.337 69.978 0.94 -19.68 0.94 -19.68 0.337 69.978
18344.458 0.337 69.943 0.939 -19.715 0.939 -19.715 0.337 69.943
18369.417 0.338 69.908 0.939 -19.751 0.939 -19.751 0.338 69.908
18394.375 0.339 69.873 0.939 -19.787 0.939 -19.787 0.339 69.873
18419.333 0.339 69.838 0.939 -19.822 0.939 -19.822 0.339 69.838
18444.292 0.34 69.803 0.939 -19.858 0.939 -19.858 0.34 69.803
18469.25 0.34 69.769 0.938 -19.893 0.938 -19.893 0.34 69.769
18494.208 0.341 69.734 0.938 -19.929 0.938 -19.929 0.341 69.734
18519.167 0.341 69.699 0.938 -19.964 0.938 -19.964 0.341 69.699
18544.125 0.342 69.664 0.938 -19.999 0.938 -19.999 0.342 69.664
18569.083 0.343 69.63 0.937 -20.035 0.937 -20.035 0.343 69.63
18594.042 0.343 69.595 0.937 -20.07 0.937 -20.07 0.343 69.595
18619 0.344 69.56 0.937 -20.105 0.937 -20.105 0.344 69.56
18643.958 0.344 69.526 0.937 -20.141 0.937 -20.141 0.344 69.526
18668.917 0.345 69.491 0.937 -20.176 0.937 -20.176 0.345 69.491
18693.875 0.345 69.456 0.936 -20.211 0.936 -20.211 0.345 69.456
18718.833 0.346 69.422 0.936 -20.246 0.936 -20.246 0.346 69.422
18743.792 0.347 69.387 0.936 -20.282 0.936 -20.282 0.347 69.387
18768.75 0.347 69.353 0.936 -20.317 0.936 -20.317 0.347 69.353
18793.708 0.348 69.318 0.936 -20.352 0.936 -20.352 0.348 69.318
18818.667 0.348 69.284 0.935 -20.387 0.935 -20.387 0.348 69.284
18843.625 0.349 69.249 0.935 -20.422 0.935 -20.422 0.349 69.249
18868.583 0.35 69.215 0.935 -20.457 0.935 -20.457 0.35 69.215
18893.542 0.35 69.181 0.935 -20.492 0.935 -20.492 0.35 69.181
18918.5 0.351 69.146 0.935 -20.527 0.935 -20.527 0.351 69.146
18943.458 0.351 69.112 0.934 -20.562 0.934 -20.562 0.351 69.112
18968.417 0.352 69.078 0.934 -20.597 0.934 -20.597 0.352 69.078
18993.375 0.352 69.043 0.934 -20.632 0.934 -20.632 0.352 69.043
19018.333 0.353 69.009 0.934 -20.666 0.934 -20.666 0.353 69.009
19043.292 0.354 68.975 0.933 -20.701 0.933 -20.701 0.354 68.975
19068.25 0.354 68.941 0.933 -20.736 0.933 -20.736 0.354 68.941
19093.208 0.355 68.907 0.933 -20.771 0.933 -20.771 0.355 68.907
19118.167 0.355 68.872 0.933 -20.805 0.933 -20.805 0.355 68.872
19143.125 0.356 68.838 0.933 -20.84 0.933 -20.84 0.356 68.838
19168.083 0.356 68.804 0.932 -20.875 0.932 -20.875 0.356 68.804
19193.042 0.357 68.77 0.932 -20.909 0.932 -20.909 0.357 68.77
19218 0.357 68.736 0.932 -20.944 0.932 -20.944 0.357 68.736
19242.958 0.358 68.702 0.932 -20.979 0.932 -20.979 0.358 68.702
19267.917 0.359 68.668 0.932 -21.013 0.932 -21.013 0.359 68.668
19292.875 0.359 68.634 0.931 -21.048 0.931 -21.048 0.359 68.634
19317.833 0.36 68.6 0.931 -21.082 0.931 -21.082 0.36 68.6
19342.792 0.36 68.566 0.931 -21.117 0.931 -21.117 0.36 68.566
19367.75 0.361 68.533 0.931 -21.151 0.931 -21.151 0.361 68.533
19392.708 0.361 68.499 0.93 -21.186 0.93 -21.186 0.361 68.499
19417.667 0.362 68.465 0.93 -21.22 0.93 -21.22 0.362 68.465
19442.625 0.363 68.431 0.93 -21.254 0.93 -21.254 0.363 68.431
19467.583 0.363 68.397 0.93 -21.289 0.93 -21.289 0.363 68.397
19492.542 0.364 68.364 0.93 -21.323 0.93 -21.323 0.364 68.364
19517.5 0.364 68.33 0.929 -21.357 0.929 -21.357 0.364 68.33
19542.458 0.365 68.296 0.929 -21.391 0.929 -21.391 0.365 68.296
19567.417 0.365 68.263 0.929 -21.426 0.929 -21.426 0.365 68.263
19592.375 0.366 68.229 0.929 -21.46 0.929 -21.46 0.366 68.229
19617.333 0.366 68.195 0.928 -21.494 0.928 -21.494 0.366 68.195
19642.292 0.367 68.162 0.928 -21.528 0.928 -21.528 0.367 68.162
19667.25 0.368 68.128 0.928 -21.562 0.928 -21.562 0.368 68.128
19692.208 0.368 68.095 0.928 -21.596 0.928 -21.596 0.368 68.095
19717.167 0.369 68.061 0.928 -21.63 0.928 -21.63 0.369 68.061
19742.125 0.369 68.028 0.927 -21.664 0.927 -21.664 0.369 68.028
19767.083 0.37 67.994 0.927 -21.698 0.927 -21.698 0.37 67.994
19792.042 0.37 67.961 0.927 -21.732 0.927 -21.732 0.37 67.961
19817 0.371 67.927 0.927 -21.766 0.927 -21.766 0.371 67.927
19841.958 0.371 67.894 0.927 -21.8 0.927 -21.8 0.371 67.894
19866.917 0.372 67.861 0.926 -21.834 0.926 -21.834 0.372 67.861
19891.875 0.372 67.827 0.926 -21.868 0.926 -21.868 0.372 67.827
19916.833 0.373 67.794 0.926 -21.902 0.926 -21.902 0.373 67.794
19941.792 0.374 67.761 0.926 -21.935 0.926 -21.935 0.374 67.761
19966.75 0.374 67.727 0.925 -21.969 0.925 -21.969 0.374 67.727
19991.708 0.375 67.694 0.925 -22.003 0.925 -22.003 0.375 67.694
20016.667 0.375 67.661 0.925 -22.037 0.925 -22.037 0.375 67.661
20041.625 0.376 67.628 0.925 -22.07 0.925 -22.07 0.376 67.628
20066.583 0.376 67.595 0.925 -22.104 0.925 -22.104 0.376 67.595
20091.542 0.377 67.562 0.924 -22.138 0.924 -22.138 0.377 67.562
20116.5 0.377 67.528 0.924 -22.171 0.924 -22.171 0.377 67.528
20141.458 0.378 67.495 0.924 -22.205 0.924 -22.205 0.378 67.495
20166.417 0.378 67.462 0.924 -22.238 0.924 -22.238 0.378 67.462
20191.375 0.379 67.429 0.923 -22.272 0.923 -22.272 0.379 67.429
20216.333 0.38 67.396 0.923 -22.305 0.923 -22.305 0.38 67.396
20241.292 0.38 67.363 0.923 -22.339 0.923 -22.339 0.38 67.363
20266.25 0.381 67.33 0.923 -22.372 0.923 -22.372 0.381 67.33
20291.208 0.381 67.297 0.923 -22.406 0.923 -22.406 0.381 67.297
20316.167 0.382 67.265 0.922 -22.439 0.922 -22.439 0.382 67.265
20341.125 0.382 67.232 0.922 -22.473 0.922 -22.473 0.382 67.232
20366.083 0.383 67.199 0.922 -22.506 0.922 -22.506 0.383 67.199
20391.042 0.383 67.166 0.922 -22.539 0.922 -22.539 0.383 67.166
20416 0.384 67.133 0.921 -22.572 0.921 -22.572 0.384 67.133
20440.958 0.384 67.1 0.921 -22.606 0.921 -22.606 0.384 67.1
20465.917 0.385 67.068 0.921 -22.639 0.921 -22.639 0.385 67.068
20490.875 0.385 67.035 0.921 -22.672 0.921 -22.672 0.385 67.035
20515.833 0.386 67.002 0.921 -22.705 0.921 -22.705 0.386 67.002
20540.792 0.387 66.97 0.92 -22.738 0.92 -22.738 0.387 66.97
20565.75 0.387 66.937 0.92 -22.772 0.92 -22.772 0.387 66.937
20590.708 0.388 66.904 0.92 -22.805 0.92 -22.805 0.388 66.904
20615.667 0.388 66.872 0.92 -22.838 0.92 -22.838 0.388 66.872
20640.625 0.389 66.839 0.919 -22.871 0.919 -22.871 0.389 66.839
20665.583 0.389 66.806 0.919 -22.904 0.919 -22.904 0.389 66.806
20690.542 0.39 66.774 0.919 -22.937 0.919 -22.937 0.39 66.774
20715.5 0.39 66.741 0.919 -22.97 0.919 -22.97 0.39 66.741
20740.458 0.391 66.709 0.919 -23.003 0.919 -23.003 0.391 66.709
20765.417 0.391 66.676 0.918 -23.036 0.918 -23.036 0.391 66.676
20790.375 0.392 66.644 0.918 -23.069 0.918 -23.069 0.392 66.644
20815.333 0.392 66.612 0.918 -23.101 0.918 -23.101 0.392 66.612
20840.292 0.393 66.579 0.918 -23.134 0.918 -23.134 0.393 66.579
20865.25 0.393 66.547 0.917 -23.167 0.917 -23.167 0.393 66.547
20890.208 0.394 66.515 0.917 -23.2 0.917 -23.2 0.394 66.515
20915.167 0.394 66.482 0.917 -23.233 0.917 -23.233 0.394 66.482
20940.125 0.395 66.45 0.917 -23.265 0.917 -23.265 0.395 66.45
20965.083 0.396 66.418 0.916 -23.298 0.916 -23.298 0.396 66.418
20990.042 0.396 66.385 0.916 -23.331 0.916 -23.331 0.396 66.385
21015 0.397 66.353 0.916 -23.364 0.916 -23.364 0.397 66.353
21039.958 0.397 66.321 0.916 -23.396 0.916 -23.396 0.397 66.321
21064.917 0.398 66.289 0.916 -23.429 0.916 -23.429 0.398 66.289
21089.875 0.398 66.257 0.915 -23.461 0.915 -23.461 0.398 66.257
21114.833 0.399 66.225 0.915 -23.494 0.915 -23.494 0.399 66.225
21139.792 0.399 66.192 0.915 -23.526 0.915 -23.526 0.399 66.192
21164.75 0.4 66.16 0.915 -23.559 0.915 -23.559 0.4 66.16
21189.708 0.4 66.128 0.914 -23.591 0.914 -23.591 0.4 66.128
21214.667 0.401 66.096 0.914 -23.624 0.914 -23.624 0.401 66.096
21239.625 0.401 66.064 0.914 -23.656 0.914 -23.656 0.401 66.064
21264.583 0.402 66.032 0.914 -23.689 0.914 -23.689 0.402 66.032
21289.542 0.402 66 0.914 -23.721 0.914 -23.721 0.402 66
21314.5 0.403 65.968 0.913 -23.754 0.913 -23.754 0.403 65.968
21339.458 0.403 65.936 0.913 -23.786 0.913 -23.786 0.403 65.936
21364.417 0.404 65.905 0.913 -23.818 0.913 -23.818 0.404 65.905
21389.375 0.404 65.873 0.913 -23.85 0.913 -23.85 0.404 65.873
21414.333 0.405 65.841 0.912 -23.883 0.912 -23.883 0.405 65.841
21439.292 0.405 65.809 0.912 -23.915 0.912 -23.915 0.405 65.809
21464.25 0.406 65.777 0.912 -23.947 0.912 -23.947 0.406 65.777
21489.208 0.406 65.746 0.912 -23.979 0.912 -23.979 0.406 65.746
21514.167 0.407 65.714 0.912 -24.012 0.912 -24.012 0.407 65.714
21539.125 0.407 65.682 0.911 -24.044 0.911 -24.044 0.407 65.682
21564.083 0.408 65.65 0.911 -24.076 0.911 -24.076 0.408 65.65
21589.042 0.408 65.619 0.911 -24.108 0.911 -24.108 0.408 65.619
21614 0.409 65.587 0.911 -24.14 0.911 -24.14 0.409 65.587
21638.958 0.409 65.555 0.91 -24.172 0.91 -24.172 0.409 65.555
21663.917 0.41 65.524 0.91 -24.204 0.91 -24.204 0.41 65.524
21688.875 0.41 65.492 0.91 -24.236 0.91 -24.236 0.41 65.492
21713.833 0.411 65.461 0.91 -24.268 0.91 -24.268 0.411 65.461
21738.792 0.412 65.429 0.909 -24.3 0.909 -24.3 0.412 65.429
21763.75 0.412 65.398 0.909 -24.332 0.909 -24.332 0.412 65.398
21788.708 0.413 65.366 0.909 -24.364 0.909 -24.364 0.413 65.366
21813.667 0.413 65.335 0.909 -24.396 0.909 -24.396 0.413 65.335
21838.625 0.414 65.303 0.909 -24.427 0.909 -24.427 0.414 65.303
21863.583 0.414 65.272 0.908 -24.459 0.908 -24.459 0.414 65.272
21888.542 0.415 65.24 0.908 -24.491 0.908 -24.491 0.415 65.24
21913.5 0.415 65.209 0.908 -24.523 0.908 -24.523 0.415 65.209
21938.458 0.416 65.178 0.908 -24.555 0.908 -24.555 0.416 65.178
21963.417 0.416 65.146 0.907 -24.586 0.907 -24.586 0.416 65.146
21988.375 0.417 65.115 0.907 -24.618 0.907 -24.618 0.417 65.115
22013.333 0.417 65.084 0.907 -24.65 0.907 -24.65 0.417 65.084
22038.292 0.418 65.052 0.907 -24.681 0.907 -24.681 0.418 65.052
22063.25 0.418 65.021 0.906 -24.713 0.906 -24.713 0.418 65.021
22088.208 0.419 64.99 0.906 -24.744 0.906 -24.744 0.419 64.99
22113.167 0.419 64.959 0.906 -24.776 0.906 -24.776 0.419 64.959
22138.125 0.42 64.928 0.906 -24.808 0.906 -24.808 0.42 64.928
22163.083 0.42 64.896 0.906 -24.839 0.906 -24.839 0.42 64.896
22188.042 0.421 64.865 0.905 -24.871 0.905 -24.871 0.421 64.865
22213 0.421 64.834 0.905 -24.902 0.905 -24.902 0.421 64.834
22237.958 0.422 64.803 0.905 -24.934 0.905 -24.934 0.422 64.803
22262.917 0.422 64.772 0.905 -24.965 0.905 -24.965 0.422 64.772
22287.875 0.423 64.741 0.904 -24.996 0.904 -24.996 0.423 64.741
22312.833 0.423 64.71 0.904 -25.028 0.904 -25.028 0.423 64.71
22337.792 0.424 64.679 0.904 -25.059 0.904 -25.059 0.424 64.679
22362.75 0.424 64.648 0.904 -25.091 0.904 -25.091 0.424 64.648
22387.708 0.425 64.617 0.903 -25.122 0.903 -25.122 0.425 64.617
22412.667 0.425 64.586 0.903 -25.153 0.903 -25.153 0.425 64.586
22437.625 0.426 64.555 0.903 -25.184 0.903 -25.184 0.426 64.555
22462.583 0.426 64.524 0.903 -25.216 0.903 -25.216 0.426 64.524
22487.542 0.427 64.494 0.903 -25.247 0.903 -25.247 0.427 64.494
22512.5 0.427 64.463 0.902 -25.278 0.902 -25.278 0.427 64.463
22537.458 0.428 64.432 0.902 -25.309 0.902 -25.309 0.428 64.432
22562.417 0.428 64.401 0.902 -25.34 0.902 -25.34 0.428 64.401
22587.375 0.428 64.37 0.902 -25.372 0.902 -25.372 0.428 64.37
22612.333 0.429 64.34 0.901 -25.403 0.901 -25.403 0.429 64.34
22637.292 0.429 64.309 0.901 -25.434 0.901 -25.434 0.429 64.309
22662.25 0.43 64.278 0.901 -25.465 0.901 -25.465 0.43 64.278
22687.208 0.43 64.248 0.901 -25.496 0.901 -25.496 0.43 64.248
22712.167 0.431 64.217 0.9 -25.527 0.9 -25.527 0.431 64.217
22737.125 0.431 64.186 0.9 -25.558 0.9 -25.558 0.431 64.186
22762.083 0.432 64.156 0.9 -25.589 0.9 -25.589 0.432 64.156
22787.042 0.432 64.125 0.9 -25.62 0.9 -25.62 0.432 64.125
22812 0.433 64.094 0.9 -25.651 0.9 -25.651 0.433 64.094
22836.958 0.433 64.064 0.899 -25.682 0.899 -25.682 0.433 64.064
22861.917 0.434 64.033 0.899 -25.712 0.899 -25.712 0.434 64.033
22886.875 0.434 64.003 0.899 -25.743 0.899 -25.743 0.434 64.003
22911.833 0.435 63.972 0.899 -25.774 0.899 -25.774 0.435 63.972
22936.792 0.435 63.942 0.898 -25.805 0.898 -25.805 0.435 63.942
22961.75 0.436 63.911 0.898 -25.836 0.898 -25.836 0.436 63.911
22986.708 0.436 63.881 0.898 -25.867 0.898 -25.867 0.436 63.881
23011.667 0.437 63.851 0.898 -25.897 0.898 -25.897 0.437 63.851
23036.625 0.437 63.82 0.897 -25.928 0.897 -25.928 0.437 63.82
23061.583 0.438 63.79 0.897 -25.959 0.897 -25.959 0.438 63.79
23086.542 0.438 63.76 0.897 -25.989 0.897 -25.989 0.438 63.76
23111.5 0.439 63.729 0.897 -26.02 0.897 -26.02 0.439 63.729
23136.458 0.439 63.699 0.896 -26.051 0.896 -26.051 0.439 63.699
23161.417 0.44 63.669 0.896 -26.081 0.896 -26.081 0.44 63.669
23186.375 0.44 63.639 0.896 -26.112 0.896 -26.112 0.44 63.639
23211.333 0.441 63.608 0.896 -26.142 0.896 -26.142 0.441 63.608
23236.292 0.441 63.578 0.896 -26.173 0.896 -26.173 0.441 63.578
23261.25 0.442 63.548 0.895 -26.203 0.895 -26.203 0.442 63.548
23286.208 0.442 63.518 0.895 -26.234 0.895 -26.234 0.442 63.518
23311.167 0.443 63.488 0.895 -26.264 0.895 -26.264 0.443 63.488
23336.125 0.443 63.458 0.895 -26.295 0.895 -26.295 0.443 63.458
23361.083 0.443 63.427 0.894 -26.325 0.894 -26.325 0.443 63.427
23386.042 0.444 63.397 0.894 -26.356 0.894 -26.356 0.444 63.397
23411 0.444 63.367 0.894 -26.386 0.894 -26.386 0.444 63.367
23435.958 0.445 63.337 0.894 -26.416 0.894 -26.416 0.445 63.337
23460.917 0.445 63.307 0.893 -26.447 0.893 -26.447 0.445 63.307
23485.875 0.446 63.277 0.893 -26.477 0.893 -26.477 0.446 63.277
23510.833 0.446 63.247 0.893 -26.507 0.893 -26.507 0.446 63.247
23535.792 0.447 63.217 0.893 -26.537 0.893 -26.537 0.447 63.217
23560.75 0.447 63.188 0.892 -26.568 0.892 -26.568 0.447 63.188
23585.708 0.448 63.158 0.892 -26.598 0.892 -26.598 0.448 63.158
23610.667 0.448 63.128 0.892 -26.628 0.892 -26.628 0.448 63.128
23635.625 0.449 63.098 0.892 -26.658 0.892 -26.658 0.449 63.098
23660.583 0.449 63.068 0.892 -26.688 0.892 -26.688 0.449 63.068
23685.542 0.45 63.038 0.891 -26.719 0.891 -26.719 0.45 63.038
23710.5 0.45 63.008 0.891 -26.749 0.891 -26.749 0.45 63.008
23735.458 0.451 62.979 0.891 -26.779 0.891 -26.779 0.451 62.979
23760.417 0.451 62.949 0.891 -26.809 0.891 -26.809 0.451 62.949
23785.375 0.451 62.919 0.89 -26.839 0.89 -26.839 0.451 62.919
23810.333 0.452 62.89 0.89 -26.869 0.89 -26.869 0.452 62.89
23835.292 0.452 62.86 0.89 -26.899 0.89 -26.899 0.452 62.86
23860.25 0.453 62.83 0.89 -26.929 0.89 -26.929 0.453 62.83
23885.208 0.453 62.801 0.889 -26.959 0.889 -26.959 0.453 62.801
23910.167 0.454 62.771 0.889 -26.989 0.889 -26.989 0.454 62.771
23935.125 0.454 62.741 0.889 -27.019 0.889 -27.019 0.454 62.741
23960.083 0.455 62.712 0.889 -27.049 0.889 -27.049 0.455 62.712
23985.042 0.455 62.682 0.888 -27.078 0.888 -27.078 0.455 62.682
24010 0.456 62.653 0.888 -27.108 0.888 -27.108 0.456 62.653
24034.958 0.456 62.623 0.888 -27.138 0.888 -27.138 0.456 62.623
24059.917 0.457 62.594 0.888 -27.168 0.888 -27.168 0.457 62.594
24084.875 0.457 62.564 0.888 -27.198 0.888 -27.198 0.457 62.564
24109.833 0.458 62.535 0.887 -27.227 0.887 -27.227 0.458 62.535
24134.792 0.458 62.505 0.887 -27.257 0.887 -27.257 0.458 62.505
24159.75 0.458 62.476 0.887 -27.287 0.887 -27.287 0.458 62.476
24184.708 0.459 62.446 0.887 -27.317 0.887 -27.317 0.459 62.446
24209.667 0.459 62.417 0.886 -27.346 0.886 -27.346 0.459 62.417
24234.625 0.46 62.388 0.886 -27.376 0.886 -27.376 0.46 62.388
24259.583 0.46 62.358 0.886 -27.406 0.886 -27.406 0.46 62.358
24284.542 0.461 62.329 0.886 -27.435 0.886 -27.435 0.461 62.329
24309.5 0.461 62.3 0.885 -27.465 0.885 -27.465 0.461 62.3
24334.458 0.462 62.271 0.885 -27.494 0.885 -27.494 0.462 62.271
24359.417 0.462 62.241 0.885 -27.524 0.885 -27.524 0.462 62.241
24384.375 0.463 62.212 0.885 -27.553 0.885 -27.553 0.463 62.212
24409.333 0.463 62.183 0.884 -27.583 0.884 -27.583 0.463 62.183
24434.292 0.463 62.154 0.884 -27.612 0.884 -27.612 0.463 62.154
24459.25 0.464 62.125 0.884 -27.642 0.884 -27.642 0.464 62.125
24484.208 0.464 62.095 0.884 -27.671 0.884 -27.671 0.464 62.095
24509.167 0.465 62.066 0.883 -27.701 0.883 -27.701 0.465 62.066
24534.125 0.465 62.037 0.883 -27.73 0.883 -27.73 0.465 62.037
24559.083 0.466 62.008 0.883 -27.759 0.883 -27.759 0.466 62.008
24584.042 0.466 61.979 0.883 -27.789 0.883 -27.789 0.466 61.979
24609 0.467 61.95 0.883 -27.818 0.883 -27.818 0.467 61.95
24633.958 0.467 61.921 0.882 -27.847 0.882 -27.847 0.467 61.921
24658.917 0.468 61.892 0.882 -27.877 0.882 -27.877 0.468 61.892
24683.875 0.468 61.863 0.882 -27.906 0.882 -27.906 0.468 61.863
24708.833 0.468 61.834 0.882 -27.935 0.882 -27.935 0.468 61.834
24733.792 0.469 61.805 0.881 -27.964 0.881 -27.964 0.469 61.805
24758.75 0.469 61.776 0.881 -27.994 0.881 -27.994 0.469 61.776
24783.708 0.47 61.747 0.881 -28.023 0.881 -28.023 0.47 61.747
24808.667 0.47 61.718 0.881 -28.052 0.881 -28.052 0.47 61.718
24833.625 0.471 61.69 0.88 -28.081 0.88 -28.081 0.471 61.69
24858.583 0.471 61.661 0.88 -28.11 0.88 -28.11 0.471 61.661
24883.542 0.472 61.632 0.88 -28.139 0.88 -28.139 0.472 61.632
24908.5 0.472 61.603 0.88 -28.168 0.88 -28.168 0.472 61.603
24933.458 0.473 61.574 0.879 -28.197 0.879 -28.197 0.473 61.574
24958.417 0.473 61.546 0.879 -28.226 0.879 -28.226 0.473 61.546
24983.375 0.473 61.517 0.879 -28.255 0.879 -28.255 0.473 61.517
25008.333 0.474 61.488 0.879 -28.284 0.879 -28.284 0.474 61.488
25033.292 0.474 61.459 0.878 -28.313 0.878 -28.313 0.474 61.459
25058.25 0.475 61.431 0.878 -28.342 0.878 -28.342 0.475 61.431
25083.208 0.475 61.402 0.878 -28.371 0.878 -28.371 0.475 61.402
25108.167 0.476 61.373 0.878 -28.4 0.878 -28.4 0.476 61.373
25133.125 0.476 61.345 0.878 -28.429 0.878 -28.429 0.476 61.345
25158.083 0.477 61.316 0.877 -28.458 0.877 -28.458 0.477 61.316
25183.042 0.477 61.288 0.877 -28.487 0.877 -28.487 0.477 61.288
25208 0.477 61.259 0.877 -28.516 0.877 -28.516 0.477 61.259
25232.958 0.478 61.231 0.877 -28.544 0.877 -28.544 0.478 61.231
25257.917 0.478 61.202 0.876 -28.573 0.876 -28.573 0.478 61.202
25282.875 0.479 61.174 0.876 -28.602 0.876 -28.602 0.479 61.174
25307.833 0.479 61.145 0.876 -28.631 0.876 -28.631 0.479 61.145
25332.792 0.48 61.117 0.876 -28.659 0.876 -28.659 0.48 61.117
25357.75 0.48 61.088 0.875 -28.688 0.875 -28.688 0.48 61.088
25382.708 0.48 61.06 0.875 -28.717 0.875 -28.717 0.48 61.06
25407.667 0.481 61.031 0.875 -28.745 0.875 -28.745 0.481 61.031
25432.625 0.481 61.003 0.875 -28.774 0.875 -28.774 0.481 61.003
25457.583 0.482 60.975 0.874 -28.803 0.874 -28.803 0.482 60.975
25482.542 0.482 60.946 0.874 -28.831 0.874 -28.831 0.482 60.946
25507.5 0.483 60.918 0.874 -28.86 0.874 -28.86 0.483 60.918
25532.458 0.483 60.89 0.874 -28.888 0.874 -28.888 0.483 60.89
25557.417 0.484 60.861 0.873 -28.917 0.873 -28.917 0.484 60.861
25582.375 0.484 60.833 0.873 -28.946 0.873 -28.946 0.484 60.833
25607.333 0.484 60.805 0.873 -28.974 0.873 -28.974 0.484 60.805
25632.292 0.485 60.777 0.873 -29.002 0.873 -29.002 0.485 60.777
25657.25 0.485 60.749 0.872 -29.031 0.872 -29.031 0.485 60.749
25682.208 0.486 60.72 0.872 -29.059 0.872 -29.059 0.486 60.72
25707.167 0.486 60.692 0.872 -29.088 0.872 -29.088 0.486 60.692
25732.125 0.487 60.664 0.872 -29.116 0.872 -29.116 0.487 60.664
25757.083 0.487 60.636 0.872 -29.145 0.872 -29.145 0.487 60.636
25782.042 0.487 60.608 0.871 -29.173 0.871 -29.173 0.487 60.608
25807 0.488 60.58 0.871 -29.201 0.871 -29.201 0.488 60.58
25831.958 0.488 60.552 0.871 -29.23 0.871 -29.23 0.488 60.552
25856.917 0.489 60.524 0.871 -29.258 0.871 -29.258 0.489 60.524
25881.875 0.489 60.496 0.87 -29.286 0.87 -29.286 0.489 60.496
25906.833 0.49 60.468 0.87 -29.314 0.87 -29.314 0.49 60.468
25931.792 0.49 60.44 0.87 -29.343 0.87 -29.343 0.49 60.44
25956.75 0.49 60.412 0.87 -29.371 0.87 -29.371 0.49 60.412
25981.708 0.491 60.384 0.869 -29.399 0.869 -29.399 0.491 60.384
26006.667 0.491 60.356 0.869 -29.427 0.869 -29.427 0.491 60.356
26031.625 0.492 60.328 0.869 -29.455 0.869 -29.455 0.492 60.328
26056.583 0.492 60.3 0.869 -29.483 0.869 -29.483 0.492 60.3
26081.542 0.493 60.272 0.868 -29.512 0.868 -29.512 0.493 60.272
26106.5 0.493 60.244 0.868 -29.54 0.868 -29.54 0.493 60.244
26131.458 0.493 60.217 0.868 -29.568 0.868 -29.568 0.493 60.217
26156.417 0.494 60.189 0.868 -29.596 0.868 -29.596 0.494 60.189
26181.375 0.494 60.161 0.867 -29.624 0.867 -29.624 0.494 60.161
26206.333 0.495 60.133 0.867 -29.652 0.867 -29.652 0.495 60.133
26231.292 0.495 60.105 0.867 -29.68 0.867 -29.68 0.495 60.105
26256.25 0.496 60.078 0.867 -29.708 0.867 -29.708 0.496 60.078
26281.208 0.496 60.05 0.866 -29.736 0.866 -29.736 0.496 60.05
26306.167 0.496 60.022 0.866 -29.764 0.866 -29.764 0.496 60.022
26331.125 0.497 59.995 0.866 -29.792 0.866 -29.792 0.497 59.995
26356.083 0.497 59.967 0.866 -29.819 0.866 -29.819 0.497 59.967
26381.042 0.498 59.939 0.866 -29.847 0.866 -29.847 0.498 59.939
26406 0.498 59.912 0.865 -29.875 0.865 -29.875 0.498 59.912
26430.958 0.499 59.884 0.865 -29.903 0.865 -29.903 0.499 59.884
26455.917 0.499 59.857 0.865 -29.931 0.865 -29.931 0.499 59.857
26480.875 0.499 59.829 0.865 -29.959 0.865 -29.959 0.499 59.829
26505.833 0.5 59.801 0.864 -29.986 0.864 -29.986 0.5 59.801
26530.792 0.5 59.774 0.864 -30.014 0.864 -30.014 0.5 59.774
26555.75 0.501 59.746 0.864 -30.042 0.864 -30.042 0.501 59.746
26580.708 0.501 59.719 0.864 -30.07 0.864 -30.07 0.501 59.719
26605.667 0.501 59.692 0.863 -30.097 0.863 -30.097 0.501 59.692
26630.625 0.502 59.664 0.863 -30.125 0.863 -30.125 0.502 59.664
26655.583 0.502 59.637 0.863 -30.153 0.863 -30.153 0.502 59.637
26680.542 0.503 59.609 0.863 -30.18 0.863 -30.18 0.503 59.609
26705.5 0.503 59.582 0.862 -30.208 0.862 -30.208 0.503 59.582
26730.458 0.504 59.555 0.862 -30.235 0.862 -30.235 0.504 59.555
26755.417 0.504 59.527 0.862 -30.263 0.862 -30.263 0.504 59.527
26780.375 0.504 59.5 0.862 -30.291 0.862 -30.291 0.504 59.5
26805.333 0.505 59.473 0.861 -30.318 0.861 -30.318 0.505 59.473
26830.292 0.505 59.445 0.861 -30.346 0.861 -30.346 0.505 59.445
26855.25 0.506 59.418 0.861 -30.373 0.861 -30.373 0.506 59.418
26880.208 0.506 59.391 0.861 -30.401 0.861 -30.401 0.506 59.391
26905.167 0.506 59.363 0.86 -30.428 0.86 -30.428 0.506 59.363
26930.125 0.507 59.336 0.86 -30.456 0.86 -30.456 0.507 59.336
26955.083 0.507 59.309 0.86 -30.483 0.86 -30.483 0.507 59.309
26980.042 0.508 59.282 0.86 -30.51 0.86 -30.51 0.508 59.282
27005 0.508 59.255 0.859 -30.538 0.859 -30.538 0.508 59.255
27029.958 0.509 59.228 0.859 -30.565 0.859 -30.565 0.509 59.228
27054.917 0.509 59.2 0.859 -30.592 0.859 -30.592 0.509 59.2
27079.875 0.509 59.173 0.859 -30.62 0.859 -30.62 0.509 59.173
27104.833 0.51 59.146 0.858 -30.647 0.858 -30.647 0.51 59.146
27129.792 0.51 59.119 0.858 -30.674 0.858 -30.674 0.51 59.119
27154.75 0.511 59.092 0.858 -30.702 0.858 -30.702 0.511 59.092
27179.708 0.511 59.065 0.858 -30.729 0.858 -30.729 0.511 59.065
27204.667 0.511 59.038 0.858 -30.756 0.858 -30.756 0.511 59.038
27229.625 0.512 59.011 0.857 -30.783 0.857 -30.783 0.512 59.011
27254.583 0.512 58.984 0.857 -30.811 0.857 -30.811 0.512 58.984
27279.542 0.513 58.957 0.857 -30.838 0.857 -30.838 0.513 58.957
27304.5 0.513 58.93 0.857 -30.865 0.857 -30.865 0.513 58.93
27329.458 0.513 58.903 0.856 -30.892 0.856 -30.892 0.513 58.903
27354.417 0.514 58.877 0.856 -30.919 0.856 -30.919 0.514 58.877
27379.375 0.514 58.85 0.856 -30.946 0.856 -30.946 0.514 58.85
27404.333 0.515 58.823 0.856 -30.973 0.856 -30.973 0.515 58.823
27429.292 0.515 58.796 0.855 -31 0.855 -31 0.515 58.796
27454.25 0.515 58.769 0.855 -31.027 0.855 -31.027 0.515 58.769
27479.208 0.516 58.742 0.855 -31.054 0.855 -31.054 0.516 58.742
27504.167 0.516 58.716 0.855 -31.081 0.855 -31.081 0.516 58.716
27529.125 0.517 58.689 0.854 -31.108 0.854 -31.108 0.517 58.689
27554.083 0.517 58.662 0.854 -31.135 0.854 -31.135 0.517 58.662
27579.042 0.517 58.635 0.854 -31.162 0.854 -31.162 0.517 58.635
27604 0.518 58.609 0.854 -31.189 0.854 -31.189 0.518 58.609
27628.958 0.518 58.582 0.853 -31.216 0.853 -31.216 0.518 58.582
27653.917 0.519 58.555 0.853 -31.243 0.853 -31.243 0.519 58.555
27678.875 0.519 58.529 0.853 -31.27 0.853 -31.27 0.519 58.529
27703.833 0.519 58.502 0.853 -31.297 0.853 -31.297 0.519 58.502
27728.792 0.52 58.475 0.852 -31.324 0.852 -31.324 0.52 58.475
27753.75 0.52 58.449 0.852 -31.35 0.852 -31.35 0.52 58.449
27778.708 0.521 58.422 0.852 -31.377 0.852 -31.377 0.521 58.422
27803.667 0.521 58.396 0.852 -31.404 0.852 -31.404 0.521 58.396
27828.625 0.521 58.369 0.851 -31.431 0.851 -31.431 0.521 58.369
27853.583 0.522 58.342 0.851 -31.457 0.851 -31.457 0.522 58.342
27878.542 0.522 58.316 0.851 -31.484 0.851 -31.484 0.522 58.316
27903.5 0.523 58.289 0.851 -31.511 0.851 -31.511 0.523 58.289
27928.458 0.523 58.263 0.85 -31.538 0.85 -31.538 0.523 58.263
27953.417 0.523 58.237 0.85 -31.564 0.85 -31.564 0.523 58.237
27978.375 0.524 58.21 0.85 -31.591 0.85 -31.591 0.524 58.21
28003.333 0.524 58.184 0.85 -31.617 0.85 -31.617 0.524 58.184
28028.292 0.525 58.157 0.85 -31.644 0.85 -31.644 0.525 58.157
28053.25 0.525 58.131 0.849 -31.671 0.849 -31.671 0.525 58.131
28078.208 0.525 58.105 0.849 -31.697 0.849 -31.697 0.525 58.105
28103.167 0.526 58.078 0.849 -31.724 0.849 -31.724 0.526 58.078
28128.125 0.526 58.052 0.849 -31.75 0.849 -31.75 0.526 58.052
28153.083 0.527 58.026 0.848 -31.777 0.848 -31.777 0.527 58.026
28178.042 0.527 57.999 0.848 -31.803 0.848 -31.803 0.527 57.999
28203 0.527 57.973 0.848 -31.83 0.848 -31.83 0.527 57.973
28227.958 0.528 57.947 0.848 -31.856 0.848 -31.856 0.528 57.947
28252.917 0.528 57.921 0.847 -31.883 0.847 -31.883 0.528 57.921
28277.875 0.529 57.894 0.847 -31.909 0.847 -31.909 0.529 57.894
28302.833 0.529 57.868 0.847 -31.936 0.847 -31.936 0.529 57.868
28327.792 0.529 57.842 0.847 -31.962 0.847 -31.962 0.529 57.842
28352.75 0.53 57.816 0.846 -31.988 0.846 -31.988 0.53 57.816
28377.708 0.53 57.79 0.846 -32.015 0.846 -32.015 0.53 57.79
28402.667 0.531 57.763 0.846 -32.041 0.846 -32.041 0.531 57.763
28427.625 0.531 57.737 0.846 -32.067 0.846 -32.067 0.531 57.737
28452.583 0.531 57.711 0.845 -32.094 0.845 -32.094 0.531 57.711
28477.542 0.532 57.685 0.845 -32.12 0.845 -32.12 0.532 57.685
28502.5 0.532 57.659 0.845 -32.146 0.845 -32.146 0.532 57.659
28527.458 0.532 57.633 0.845 -32.172 0.845 -32.172 0.532 57.633
28552.417 0.533 57.607 0.844 -32.199 0.844 -32.199 0.533 57.607
28577.375 0.533 57.581 0.844 -32.225 0.844 -32.225 0.533 57.581
28602.333 0.534 57.555 0.844 -32.251 0.844 -32.251 0.534 57.555
28627.292 0.534 57.529 0.844 -32.277 0.844 -32.277 0.534 57.529
28652.25 0.534 57.503 0.843 -32.303 0.843 -32.303 0.534 57.503
28677.208 0.535 57.477 0.843 -32.329 0.843 -32.329 0.535 57.477
28702.167 0.535 57.451 0.843 -32.355 0.843 -32.355 0.535 57.451
28727.125 0.536 57.425 0.843 -32.382 0.843 -32.382 0.536 57.425
28752.083 0.536 57.4 0.842 -32.408 0.842 -32.408 0.536 57.4
28777.042 0.536 57.374 0.842 -32.434 0.842 -32.434 0.536 57.374
28802 0.537 57.348 0.842 -32.46 0.842 -32.46 0.537 57.348
28826.958 0.537 57.322 0.842 -32.486 0.842 -32.486 0.537 57.322
28851.917 0.537 57.296 0.841 -32.512 0.841 -32.512 0.537 57.296
28876.875 0.538 57.27 0.841 -32.538 0.841 -32.538 0.538 57.27
28901.833 0.538 57.245 0.841 -32.564 0.841 -32.564 0.538 57.245
28926.792 0.539 57.219 0.841 -32.59 0.841 -32.59 0.539 57.219
28951.75 0.539 57.193 0.841 -32.616 0.841 -32.616 0.539 57.193
28976.708 0.539 57.167 0.84 -32.642 0.84 -32.642 0.539 57.167
29001.667 0.54 57.142 0.84 -32.667 0.84 -32.667 0.54 57.142
29026.625 0.54 57.116 0.84 -32.693 0.84 -32.693 0.54 57.116
29051.583 0.541 57.09 0.84 -32.719 0.84 -32.719 0.541 57.09
29076.542 0.541 57.065 0.839 -32.745 0.839 -32.745 0.541 57.065
29101.5 0.541 57.039 0.839 -32.771 0.839 -32.771 0.541 57.039
29126.458 0.542 57.013 0.839 -32.797 0.839 -32.797 0.542 57.013
29151.417 0.542 56.988 0.839 -32.822 0.839 -32.822 0.542 56.988
29176.375 0.542 56.962 0.838 -32.848 0.838 -32.848 0.542 56.962
29201.333 0.543 56.937 0.838 -32.874 0.838 -32.874 0.543 56.937
29226.292 0.543 56.911 0.838 -32.9 0.838 -32.9 0.543 56.911
29251.25 0.544 56.886 0.838 -32.925 0.838 -32.925 0.544 56.886
29276.208 0.544 56.86 0.837 -32.951 0.837 -32.951 0.544 56.86
29301.167 0.544 56.835 0.837 -32.977 0.837 -32.977 0.544 56.835
29326.125 0.545 56.809 0.837 -33.002 0.837 -33.002 0.545 56.809
29351.083 0.545 56.784 0.837 -33.028 0.837 -33.028 0.545 56.784
29376.042 0.545 56.758 0.836 -33.054 0.836 -33.054 0.545 56.758
29401 0.546 56.733 0.836 -33.079 0.836 -33.079 0.546 56.733
29425.958 0.546 56.707 0.836 -33.105 0.836 -33.105 0.546 56.707
29450.917 0.547 56.682 0.836 -33.13 0.836 -33.13 0.547 56.682
29475.875 0.547 56.657 0.835 -33.156 0.835 -33.156 0.547 56.657
29500.833 0.547 56.631 0.835 -33.181 0.835 -33.181 0.547 56.631
29525.792 0.548 56.606 0.835 -33.207 0.835 -33.207 0.548 56.606
29550.75 0.548 56.581 0.835 -33.233 0.835 -33.233 0.548 56.581
29575.708 0.548 56.555 0.834 -33.258 0.834 -33.258 0.548 56.555
29600.667 0.549 56.53 0.834 -33.283 0.834 -33.283 0.549 56.53
29625.625 0.549 56.505 0.834 -33.309 0.834 -33.309 0.549 56.505
29650.583 0.55 56.48 0.834 -33.334 0.834 -33.334 0.55 56.48
29675.542 0.55 56.454 0.833 -33.36 0.833 -33.36 0.55 56.454
29700.5 0.55 56.429 0.833 -33.385 0.833 -33.385 0.55 56.429
29725.458 0.551 56.404 0.833 -33.411 0.833 -33.411 0.551 56.404
29750.417 0.551 56.379 0.833 -33.436 0.833 -33.436 0.551 56.379
29775.375 0.551 56.354 0.832 -33.461 0.832 -33.461 0.551 56.354
29800.333 0.552 56.328 0.832 -33.487 0.832 -33.487 0.552 56.328
29825.292 0.552 56.303 0.832 -33.512 0.832 -33.512 0.552 56.303
29850.25 0.552 56.278 0.832 -33.537 0.832 -33.537 0.552 56.278
29875.208 0.553 56.253 0.832 -33.562 0.832 -33.562 0.553 56.253
29900.167 0.553 56.228 0.831 -33.588 0.831 -33.588 0.553 56.228
29925.125 0.554 56.203 0.831 -33.613 0.831 -33.613 0.554 56.203
29950.083 0.554 56.178 0.831 -33.638 0.831 -33.638 0.554 56.178
29975.042 0.554 56.153 0.831 -33.663 0.831 -33.663 0.554 56.153
30000 0.555 56.128 0.83 -33.689 0.83 -33.689 0.555 56.128
