!	AVX Thin Film Operation 	Date: April 2014		
!	Description: Accu-P® Series, Thin Film  SMD RF Capacitor
!	Part Number: 04025J3R8ABSTR					
!
# MHZ S MA R 50

50 0.993 -6.809 0.119 83.188 0.119 83.188 0.993 -6.809
74.958 0.984 -10.15 0.176 79.845 0.176 79.845 0.984 -10.15
99.917 0.973 -13.425 0.232 76.568 0.232 76.568 0.973 -13.425
124.875 0.958 -16.616 0.286 73.375 0.286 73.375 0.958 -16.616
149.833 0.941 -19.708 0.337 70.282 0.337 70.282 0.941 -19.708
174.792 0.923 -22.689 0.386 67.299 0.386 67.299 0.923 -22.689
199.75 0.902 -25.549 0.431 64.437 0.431 64.437 0.902 -25.549
224.708 0.88 -28.284 0.474 61.7 0.474 61.7 0.88 -28.284
249.667 0.858 -30.891 0.513 59.092 0.513 59.092 0.858 -30.891
274.625 0.835 -33.368 0.55 56.613 0.55 56.613 0.835 -33.368
299.583 0.812 -35.717 0.584 54.262 0.584 54.262 0.812 -35.717
324.542 0.788 -37.941 0.615 52.037 0.615 52.037 0.788 -37.941
349.5 0.765 -40.044 0.643 49.932 0.643 49.932 0.765 -40.044
374.458 0.742 -42.031 0.67 47.943 0.67 47.943 0.742 -42.031
399.417 0.72 -43.906 0.693 46.066 0.693 46.066 0.72 -43.906
424.375 0.698 -45.677 0.715 44.294 0.715 44.294 0.698 -45.677
449.333 0.677 -47.348 0.735 42.621 0.735 42.621 0.677 -47.348
474.292 0.657 -48.926 0.754 41.042 0.754 41.042 0.657 -48.926
499.25 0.637 -50.415 0.771 39.55 0.771 39.55 0.637 -50.415
524.208 0.618 -51.823 0.786 38.141 0.786 38.141 0.618 -51.823
549.167 0.599 -53.154 0.8 36.808 0.8 36.808 0.599 -53.154
574.125 0.581 -54.412 0.813 35.548 0.813 35.548 0.581 -54.412
599.083 0.564 -55.604 0.825 34.354 0.825 34.354 0.564 -55.604
624.042 0.548 -56.733 0.836 33.223 0.836 33.223 0.548 -56.733
649 0.532 -57.804 0.846 32.15 0.846 32.15 0.532 -57.804
673.958 0.517 -58.821 0.856 31.132 0.856 31.132 0.517 -58.821
698.917 0.502 -59.786 0.864 30.164 0.864 30.164 0.502 -59.786
723.875 0.489 -60.704 0.872 29.244 0.872 29.244 0.489 -60.704
748.833 0.475 -61.578 0.879 28.369 0.879 28.369 0.475 -61.578
773.792 0.462 -62.411 0.886 27.534 0.886 27.534 0.462 -62.411
798.75 0.45 -63.205 0.893 26.738 0.893 26.738 0.45 -63.205
823.708 0.438 -63.963 0.899 25.979 0.899 25.979 0.438 -63.963
848.667 0.427 -64.687 0.904 25.253 0.904 25.253 0.427 -64.687
873.625 0.416 -65.379 0.909 24.559 0.909 24.559 0.416 -65.379
898.583 0.405 -66.041 0.914 23.894 0.914 23.894 0.405 -66.041
923.542 0.395 -66.676 0.918 23.258 0.918 23.258 0.395 -66.676
948.5 0.385 -67.284 0.922 22.647 0.922 22.647 0.385 -67.284
973.458 0.376 -67.867 0.926 22.062 0.926 22.062 0.376 -67.867
998.417 0.366 -68.428 0.93 21.499 0.93 21.499 0.366 -68.428
1023.375 0.358 -68.966 0.933 20.959 0.933 20.959 0.358 -68.966
1048.333 0.349 -69.485 0.937 20.439 0.937 20.439 0.349 -69.485
1073.292 0.341 -69.983 0.94 19.938 0.94 19.938 0.341 -69.983
1098.25 0.333 -70.463 0.942 19.456 0.942 19.456 0.333 -70.463
1123.208 0.325 -70.926 0.945 18.99 0.945 18.99 0.325 -70.926
1148.167 0.318 -71.373 0.948 18.542 0.948 18.542 0.318 -71.373
1173.125 0.311 -71.804 0.95 18.108 0.95 18.108 0.311 -71.804
1198.083 0.304 -72.22 0.952 17.69 0.952 17.69 0.304 -72.22
1223.042 0.297 -72.623 0.954 17.285 0.954 17.285 0.297 -72.623
1248 0.291 -73.012 0.956 16.894 0.956 16.894 0.291 -73.012
1272.958 0.284 -73.389 0.958 16.515 0.958 16.515 0.284 -73.389
1297.917 0.278 -73.754 0.96 16.147 0.96 16.147 0.278 -73.754
1322.875 0.272 -74.107 0.962 15.791 0.962 15.791 0.272 -74.107
1347.833 0.266 -74.45 0.963 15.446 0.963 15.446 0.266 -74.45
1372.792 0.261 -74.782 0.965 15.111 0.965 15.111 0.261 -74.782
1397.75 0.255 -75.105 0.966 14.786 0.966 14.786 0.255 -75.105
1422.708 0.25 -75.419 0.968 14.47 0.968 14.47 0.25 -75.419
1447.667 0.245 -75.723 0.969 14.163 0.969 14.163 0.245 -75.723
1472.625 0.24 -76.019 0.97 13.865 0.97 13.865 0.24 -76.019
1497.583 0.235 -76.307 0.972 13.574 0.972 13.574 0.235 -76.307
1522.542 0.23 -76.587 0.973 13.292 0.973 13.292 0.23 -76.587
1547.5 0.225 -76.86 0.974 13.016 0.974 13.016 0.225 -76.86
1572.458 0.221 -77.125 0.975 12.748 0.975 12.748 0.221 -77.125
1597.417 0.216 -77.384 0.976 12.486 0.976 12.486 0.216 -77.384
1622.375 0.212 -77.637 0.977 12.231 0.977 12.231 0.212 -77.637
1647.333 0.208 -77.883 0.978 11.982 0.978 11.982 0.208 -77.883
1672.292 0.203 -78.123 0.979 11.739 0.979 11.739 0.203 -78.123
1697.25 0.199 -78.357 0.979 11.502 0.979 11.502 0.199 -78.357
1722.208 0.195 -78.586 0.98 11.27 0.98 11.27 0.195 -78.586
1747.167 0.192 -78.809 0.981 11.044 0.981 11.044 0.192 -78.809
1772.125 0.188 -79.028 0.982 10.822 0.982 10.822 0.188 -79.028
1797.083 0.184 -79.241 0.982 10.606 0.982 10.606 0.184 -79.241
1822.042 0.18 -79.45 0.983 10.394 0.983 10.394 0.18 -79.45
1847 0.177 -79.654 0.984 10.187 0.984 10.187 0.177 -79.654
1871.958 0.173 -79.854 0.984 9.983 0.984 9.983 0.173 -79.854
1896.917 0.17 -80.049 0.985 9.785 0.985 9.785 0.17 -80.049
1921.875 0.167 -80.241 0.986 9.59 0.986 9.59 0.167 -80.241
1946.833 0.163 -80.428 0.986 9.399 0.986 9.399 0.163 -80.428
1971.792 0.16 -80.612 0.987 9.211 0.987 9.211 0.16 -80.612
1996.75 0.157 -80.792 0.987 9.028 0.987 9.028 0.157 -80.792
2021.708 0.154 -80.968 0.988 8.848 0.988 8.848 0.154 -80.968
2046.667 0.151 -81.141 0.988 8.671 0.988 8.671 0.151 -81.141
2071.625 0.148 -81.311 0.989 8.497 0.989 8.497 0.148 -81.311
2096.583 0.145 -81.478 0.989 8.327 0.989 8.327 0.145 -81.478
2121.542 0.142 -81.641 0.989 8.159 0.989 8.159 0.142 -81.641
2146.5 0.139 -81.801 0.99 7.995 0.99 7.995 0.139 -81.801
2171.458 0.136 -81.959 0.99 7.833 0.99 7.833 0.136 -81.959
2196.417 0.134 -82.113 0.991 7.674 0.991 7.674 0.134 -82.113
2221.375 0.131 -82.265 0.991 7.518 0.991 7.518 0.131 -82.265
2246.333 0.128 -82.414 0.991 7.364 0.991 7.364 0.128 -82.414
2271.292 0.126 -82.561 0.992 7.213 0.992 7.213 0.126 -82.561
2296.25 0.123 -82.705 0.992 7.064 0.992 7.064 0.123 -82.705
2321.208 0.12 -82.846 0.992 6.918 0.992 6.918 0.12 -82.846
2346.167 0.118 -82.985 0.993 6.773 0.993 6.773 0.118 -82.985
2371.125 0.115 -83.122 0.993 6.631 0.993 6.631 0.115 -83.122
2396.083 0.113 -83.257 0.993 6.492 0.993 6.492 0.113 -83.257
2421.042 0.111 -83.389 0.993 6.354 0.993 6.354 0.111 -83.389
2446 0.108 -83.519 0.994 6.218 0.994 6.218 0.108 -83.519
2470.958 0.106 -83.647 0.994 6.084 0.994 6.084 0.106 -83.647
2495.917 0.104 -83.773 0.994 5.952 0.994 5.952 0.104 -83.773
2520.875 0.101 -83.897 0.994 5.822 0.994 5.822 0.101 -83.897
2545.833 0.099 -84.019 0.995 5.694 0.995 5.694 0.099 -84.019
2570.792 0.097 -84.139 0.995 5.567 0.995 5.567 0.097 -84.139
2595.75 0.095 -84.257 0.995 5.442 0.995 5.442 0.095 -84.257
2620.708 0.093 -84.373 0.995 5.319 0.995 5.319 0.093 -84.373
2645.667 0.091 -84.488 0.995 5.197 0.995 5.197 0.091 -84.488
2670.625 0.088 -84.6 0.996 5.077 0.996 5.077 0.088 -84.6
2695.583 0.086 -84.711 0.996 4.959 0.996 4.959 0.086 -84.711
2720.542 0.084 -84.82 0.996 4.841 0.996 4.841 0.084 -84.82
2745.5 0.082 -84.928 0.996 4.726 0.996 4.726 0.082 -84.928
2770.458 0.08 -85.033 0.996 4.611 0.996 4.611 0.08 -85.033
2795.417 0.078 -85.137 0.996 4.498 0.996 4.498 0.078 -85.137
2820.375 0.076 -85.24 0.997 4.387 0.997 4.387 0.076 -85.24
2845.333 0.075 -85.34 0.997 4.277 0.997 4.277 0.075 -85.34
2870.292 0.073 -85.439 0.997 4.167 0.997 4.167 0.073 -85.439
2895.25 0.071 -85.537 0.997 4.06 0.997 4.06 0.071 -85.537
2920.208 0.069 -85.632 0.997 3.953 0.997 3.953 0.069 -85.632
2945.167 0.067 -85.727 0.997 3.848 0.997 3.848 0.067 -85.727
2970.125 0.065 -85.819 0.997 3.743 0.997 3.743 0.065 -85.819
2995.083 0.063 -85.91 0.997 3.64 0.997 3.64 0.063 -85.91
3020.042 0.062 -85.999 0.998 3.538 0.998 3.538 0.062 -85.999
3045 0.06 -86.086 0.998 3.437 0.998 3.437 0.06 -86.086
3069.958 0.058 -86.172 0.998 3.337 0.998 3.337 0.058 -86.172
3094.917 0.056 -86.256 0.998 3.238 0.998 3.238 0.056 -86.256
3119.875 0.055 -86.338 0.998 3.14 0.998 3.14 0.055 -86.338
3144.833 0.053 -86.419 0.998 3.043 0.998 3.043 0.053 -86.419
3169.792 0.051 -86.497 0.998 2.946 0.998 2.946 0.051 -86.497
3194.75 0.05 -86.574 0.998 2.851 0.998 2.851 0.05 -86.574
3219.708 0.048 -86.648 0.998 2.757 0.998 2.757 0.048 -86.648
3244.667 0.046 -86.721 0.998 2.663 0.998 2.663 0.046 -86.721
3269.625 0.045 -86.791 0.998 2.571 0.998 2.571 0.045 -86.791
3294.583 0.043 -86.859 0.999 2.479 0.999 2.479 0.043 -86.859
3319.542 0.042 -86.925 0.999 2.388 0.999 2.388 0.042 -86.925
3344.5 0.04 -86.988 0.999 2.298 0.999 2.298 0.04 -86.988
3369.458 0.039 -87.049 0.999 2.209 0.999 2.209 0.039 -87.049
3394.417 0.037 -87.106 0.999 2.12 0.999 2.12 0.037 -87.106
3419.375 0.035 -87.161 0.999 2.032 0.999 2.032 0.035 -87.161
3444.333 0.034 -87.211 0.999 1.945 0.999 1.945 0.034 -87.211
3469.292 0.032 -87.259 0.999 1.859 0.999 1.859 0.032 -87.259
3494.25 0.031 -87.302 0.999 1.773 0.999 1.773 0.031 -87.302
3519.208 0.029 -87.34 0.999 1.688 0.999 1.688 0.029 -87.34
3544.167 0.028 -87.373 0.999 1.604 0.999 1.604 0.028 -87.373
3569.125 0.027 -87.401 0.999 1.52 0.999 1.52 0.027 -87.401
3594.083 0.025 -87.421 0.999 1.437 0.999 1.437 0.025 -87.421
3619.042 0.024 -87.434 0.999 1.355 0.999 1.355 0.024 -87.434
3644 0.022 -87.438 0.999 1.273 0.999 1.273 0.022 -87.438
3668.958 0.021 -87.432 0.999 1.192 0.999 1.192 0.021 -87.432
3693.917 0.019 -87.412 0.999 1.112 0.999 1.112 0.019 -87.412
3718.875 0.018 -87.378 0.999 1.032 0.999 1.032 0.018 -87.378
3743.833 0.017 -87.325 0.999 0.952 0.999 0.952 0.017 -87.325
3768.792 0.015 -87.249 0.999 0.874 0.999 0.874 0.015 -87.249
3793.75 0.014 -87.142 0.999 0.795 0.999 0.795 0.014 -87.142
3818.708 0.013 -86.997 0.999 0.718 0.999 0.718 0.013 -86.997
3843.667 0.011 -86.799 0.999 0.641 0.999 0.641 0.011 -86.799
3868.625 9.856e-3 -86.529 0.999 0.564 0.999 0.564 9.856e-3 -86.529
3893.583 8.53e-3 -86.152 0.999 0.488 0.999 0.488 8.53e-3 -86.152
3918.542 7.213e-3 -85.613 0.999 0.412 0.999 0.412 7.213e-3 -85.613
3943.5 5.907e-3 -84.807 0.999 0.337 0.999 0.337 5.907e-3 -84.807
3968.458 4.61e-3 -83.512 0.999 0.263 0.999 0.263 4.61e-3 -83.512
3993.417 3.327e-3 -81.169 0.999 0.188 0.999 0.188 3.327e-3 -81.169
4018.375 2.065e-3 -75.875 0.999 0.115 0.999 0.115 2.065e-3 -75.875
4043.333 881.6e-6 -55.41 0.999 0.042 0.999 0.042 881.6e-6 -55.41
4068.292 738.6e-6 47.366 0.999 -0.031 0.999 -0.031 738.6e-6 47.366
4093.25 1.874e-3 74.42 0.999 -0.103 0.999 -0.103 1.874e-3 74.42
4118.208 3.101e-3 80.546 0.999 -0.175 0.999 -0.175 3.101e-3 80.546
4143.167 4.336e-3 83.132 0.999 -0.247 0.999 -0.247 4.336e-3 83.132
4168.125 5.569e-3 84.532 0.999 -0.318 0.999 -0.318 5.569e-3 84.532
4193.083 6.797e-3 85.394 0.999 -0.388 0.999 -0.388 6.797e-3 85.394
4218.042 8.02e-3 85.967 0.999 -0.459 0.999 -0.459 8.02e-3 85.967
4243 9.236e-3 86.369 0.999 -0.528 0.999 -0.528 9.236e-3 86.369
4267.958 0.01 86.659 0.999 -0.598 0.999 -0.598 0.01 86.659
4292.917 0.012 86.874 0.999 -0.667 0.999 -0.667 0.012 86.874
4317.875 0.013 87.034 0.999 -0.735 0.999 -0.735 0.013 87.034
4342.833 0.014 87.155 0.999 -0.804 0.999 -0.804 0.014 87.155
4367.792 0.015 87.246 0.999 -0.872 0.999 -0.872 0.015 87.246
4392.75 0.016 87.314 0.999 -0.939 0.999 -0.939 0.016 87.314
4417.708 0.018 87.363 0.999 -1.006 0.999 -1.006 0.018 87.363
4442.667 0.019 87.398 0.999 -1.073 0.999 -1.073 0.019 87.398
4467.625 0.02 87.421 0.999 -1.14 0.999 -1.14 0.02 87.421
4492.583 0.021 87.434 0.999 -1.206 0.999 -1.206 0.021 87.434
4517.542 0.022 87.438 0.999 -1.272 0.999 -1.272 0.022 87.438
4542.5 0.023 87.436 0.999 -1.337 0.999 -1.337 0.023 87.436
4567.458 0.024 87.428 0.999 -1.402 0.999 -1.402 0.024 87.428
4592.417 0.026 87.415 0.999 -1.467 0.999 -1.467 0.026 87.415
4617.375 0.027 87.397 0.999 -1.532 0.999 -1.532 0.027 87.397
4642.333 0.028 87.376 0.999 -1.596 0.999 -1.596 0.028 87.376
4667.292 0.029 87.352 0.999 -1.66 0.999 -1.66 0.029 87.352
4692.25 0.03 87.325 0.999 -1.724 0.999 -1.724 0.03 87.325
4717.208 0.031 87.295 0.999 -1.787 0.999 -1.787 0.031 87.295
4742.167 0.032 87.263 0.999 -1.85 0.999 -1.85 0.032 87.263
4767.125 0.033 87.23 0.999 -1.913 0.999 -1.913 0.033 87.23
4792.083 0.034 87.194 0.999 -1.975 0.999 -1.975 0.034 87.194
4817.042 0.036 87.157 0.999 -2.037 0.999 -2.037 0.036 87.157
4842 0.037 87.119 0.999 -2.099 0.999 -2.099 0.037 87.119
4866.958 0.038 87.08 0.999 -2.161 0.999 -2.161 0.038 87.08
4891.917 0.039 87.039 0.999 -2.223 0.999 -2.223 0.039 87.039
4916.875 0.04 86.998 0.999 -2.284 0.999 -2.284 0.04 86.998
4941.833 0.041 86.956 0.999 -2.345 0.999 -2.345 0.041 86.956
4966.792 0.042 86.913 0.999 -2.405 0.999 -2.405 0.042 86.913
4991.75 0.043 86.869 0.999 -2.466 0.999 -2.466 0.043 86.869
5016.708 0.044 86.825 0.999 -2.526 0.999 -2.526 0.044 86.825
5041.667 0.045 86.78 0.998 -2.586 0.998 -2.586 0.045 86.78
5066.625 0.046 86.735 0.998 -2.645 0.998 -2.645 0.046 86.735
5091.583 0.047 86.689 0.998 -2.705 0.998 -2.705 0.047 86.689
5116.542 0.048 86.643 0.998 -2.764 0.998 -2.764 0.048 86.643
5141.5 0.049 86.596 0.998 -2.823 0.998 -2.823 0.049 86.596
5166.458 0.05 86.549 0.998 -2.882 0.998 -2.882 0.05 86.549
5191.417 0.051 86.502 0.998 -2.94 0.998 -2.94 0.051 86.502
5216.375 0.052 86.455 0.998 -2.999 0.998 -2.999 0.052 86.455
5241.333 0.053 86.407 0.998 -3.057 0.998 -3.057 0.053 86.407
5266.292 0.054 86.359 0.998 -3.115 0.998 -3.115 0.054 86.359
5291.25 0.055 86.311 0.998 -3.172 0.998 -3.172 0.055 86.311
5316.208 0.056 86.263 0.998 -3.23 0.998 -3.23 0.056 86.263
5341.167 0.057 86.214 0.998 -3.287 0.998 -3.287 0.057 86.214
5366.125 0.058 86.166 0.998 -3.344 0.998 -3.344 0.058 86.166
5391.083 0.059 86.117 0.998 -3.401 0.998 -3.401 0.059 86.117
5416.042 0.06 86.068 0.998 -3.457 0.998 -3.457 0.06 86.068
5441 0.061 86.02 0.998 -3.514 0.998 -3.514 0.061 86.02
5465.958 0.062 85.971 0.998 -3.57 0.998 -3.57 0.062 85.971
5490.917 0.063 85.922 0.997 -3.626 0.997 -3.626 0.063 85.922
5515.875 0.064 85.873 0.997 -3.682 0.997 -3.682 0.064 85.873
5540.833 0.065 85.824 0.997 -3.738 0.997 -3.738 0.065 85.824
5565.792 0.066 85.775 0.997 -3.793 0.997 -3.793 0.066 85.775
5590.75 0.067 85.725 0.997 -3.849 0.997 -3.849 0.067 85.725
5615.708 0.068 85.676 0.997 -3.904 0.997 -3.904 0.068 85.676
5640.667 0.069 85.627 0.997 -3.959 0.997 -3.959 0.069 85.627
5665.625 0.07 85.578 0.997 -4.014 0.997 -4.014 0.07 85.578
5690.583 0.071 85.529 0.997 -4.068 0.997 -4.068 0.071 85.529
5715.542 0.072 85.48 0.997 -4.123 0.997 -4.123 0.072 85.48
5740.5 0.073 85.431 0.997 -4.177 0.997 -4.177 0.073 85.431
5765.458 0.074 85.381 0.997 -4.231 0.997 -4.231 0.074 85.381
5790.417 0.075 85.332 0.997 -4.285 0.997 -4.285 0.075 85.332
5815.375 0.076 85.283 0.997 -4.339 0.997 -4.339 0.076 85.283
5840.333 0.077 85.234 0.997 -4.393 0.997 -4.393 0.077 85.234
5865.292 0.078 85.185 0.996 -4.446 0.996 -4.446 0.078 85.185
5890.25 0.078 85.136 0.996 -4.5 0.996 -4.5 0.078 85.136
5915.208 0.079 85.087 0.996 -4.553 0.996 -4.553 0.079 85.087
5940.167 0.08 85.038 0.996 -4.606 0.996 -4.606 0.08 85.038
5965.125 0.081 84.99 0.996 -4.659 0.996 -4.659 0.081 84.99
5990.083 0.082 84.941 0.996 -4.712 0.996 -4.712 0.082 84.941
6015.042 0.083 84.892 0.996 -4.764 0.996 -4.764 0.083 84.892
6040 0.084 84.843 0.996 -4.817 0.996 -4.817 0.084 84.843
6064.958 0.085 84.795 0.996 -4.869 0.996 -4.869 0.085 84.795
6089.917 0.086 84.746 0.996 -4.921 0.996 -4.921 0.086 84.746
6114.875 0.087 84.697 0.996 -4.973 0.996 -4.973 0.087 84.697
6139.833 0.088 84.649 0.996 -5.025 0.996 -5.025 0.088 84.649
6164.792 0.088 84.601 0.996 -5.077 0.996 -5.077 0.088 84.601
6189.75 0.089 84.552 0.995 -5.129 0.995 -5.129 0.089 84.552
6214.708 0.09 84.504 0.995 -5.18 0.995 -5.18 0.09 84.504
6239.667 0.091 84.456 0.995 -5.232 0.995 -5.232 0.091 84.456
6264.625 0.092 84.407 0.995 -5.283 0.995 -5.283 0.092 84.407
6289.583 0.093 84.359 0.995 -5.334 0.995 -5.334 0.093 84.359
6314.542 0.094 84.311 0.995 -5.385 0.995 -5.385 0.094 84.311
6339.5 0.095 84.263 0.995 -5.436 0.995 -5.436 0.095 84.263
6364.458 0.096 84.215 0.995 -5.486 0.995 -5.486 0.096 84.215
6389.417 0.096 84.167 0.995 -5.537 0.995 -5.537 0.096 84.167
6414.375 0.097 84.12 0.995 -5.588 0.995 -5.588 0.097 84.12
6439.333 0.098 84.072 0.995 -5.638 0.995 -5.638 0.098 84.072
6464.292 0.099 84.024 0.995 -5.688 0.995 -5.688 0.099 84.024
6489.25 0.1 83.977 0.994 -5.738 0.994 -5.738 0.1 83.977
6514.208 0.101 83.929 0.994 -5.788 0.994 -5.788 0.101 83.929
6539.167 0.102 83.882 0.994 -5.838 0.994 -5.838 0.102 83.882
6564.125 0.103 83.834 0.994 -5.888 0.994 -5.888 0.103 83.834
6589.083 0.103 83.787 0.994 -5.938 0.994 -5.938 0.103 83.787
6614.042 0.104 83.74 0.994 -5.987 0.994 -5.987 0.104 83.74
6639 0.105 83.692 0.994 -6.037 0.994 -6.037 0.105 83.692
6663.958 0.106 83.645 0.994 -6.086 0.994 -6.086 0.106 83.645
6688.917 0.107 83.598 0.994 -6.135 0.994 -6.135 0.107 83.598
6713.875 0.108 83.551 0.994 -6.184 0.994 -6.184 0.108 83.551
6738.833 0.109 83.504 0.994 -6.233 0.994 -6.233 0.109 83.504
6763.792 0.109 83.458 0.993 -6.282 0.993 -6.282 0.109 83.458
6788.75 0.11 83.411 0.993 -6.331 0.993 -6.331 0.11 83.411
6813.708 0.111 83.364 0.993 -6.38 0.993 -6.38 0.111 83.364
6838.667 0.112 83.317 0.993 -6.428 0.993 -6.428 0.112 83.317
6863.625 0.113 83.271 0.993 -6.477 0.993 -6.477 0.113 83.271
6888.583 0.114 83.224 0.993 -6.525 0.993 -6.525 0.114 83.224
6913.542 0.114 83.178 0.993 -6.574 0.993 -6.574 0.114 83.178
6938.5 0.115 83.132 0.993 -6.622 0.993 -6.622 0.115 83.132
6963.458 0.116 83.085 0.993 -6.67 0.993 -6.67 0.116 83.085
6988.417 0.117 83.039 0.993 -6.718 0.993 -6.718 0.117 83.039
7013.375 0.118 82.993 0.993 -6.766 0.993 -6.766 0.118 82.993
7038.333 0.119 82.947 0.992 -6.814 0.992 -6.814 0.119 82.947
7063.292 0.119 82.901 0.992 -6.861 0.992 -6.861 0.119 82.901
7088.25 0.12 82.855 0.992 -6.909 0.992 -6.909 0.12 82.855
7113.208 0.121 82.809 0.992 -6.956 0.992 -6.956 0.121 82.809
7138.167 0.122 82.763 0.992 -7.004 0.992 -7.004 0.122 82.763
7163.125 0.123 82.717 0.992 -7.051 0.992 -7.051 0.123 82.717
7188.083 0.124 82.672 0.992 -7.098 0.992 -7.098 0.124 82.672
7213.042 0.124 82.626 0.992 -7.146 0.992 -7.146 0.124 82.626
7238 0.125 82.58 0.992 -7.193 0.992 -7.193 0.125 82.58
7262.958 0.126 82.535 0.992 -7.24 0.992 -7.24 0.126 82.535
7287.917 0.127 82.489 0.991 -7.287 0.991 -7.287 0.127 82.489
7312.875 0.128 82.444 0.991 -7.333 0.991 -7.333 0.128 82.444
7337.833 0.128 82.399 0.991 -7.38 0.991 -7.38 0.128 82.399
7362.792 0.129 82.353 0.991 -7.427 0.991 -7.427 0.129 82.353
7387.75 0.13 82.308 0.991 -7.473 0.991 -7.473 0.13 82.308
7412.708 0.131 82.263 0.991 -7.52 0.991 -7.52 0.131 82.263
7437.667 0.132 82.218 0.991 -7.566 0.991 -7.566 0.132 82.218
7462.625 0.132 82.173 0.991 -7.613 0.991 -7.613 0.132 82.173
7487.583 0.133 82.128 0.991 -7.659 0.991 -7.659 0.133 82.128
7512.542 0.134 82.083 0.99 -7.705 0.99 -7.705 0.134 82.083
7537.5 0.135 82.038 0.99 -7.751 0.99 -7.751 0.135 82.038
7562.458 0.136 81.994 0.99 -7.797 0.99 -7.797 0.136 81.994
7587.417 0.136 81.949 0.99 -7.843 0.99 -7.843 0.136 81.949
7612.375 0.137 81.904 0.99 -7.889 0.99 -7.889 0.137 81.904
7637.333 0.138 81.86 0.99 -7.935 0.99 -7.935 0.138 81.86
7662.292 0.139 81.815 0.99 -7.98 0.99 -7.98 0.139 81.815
7687.25 0.14 81.771 0.99 -8.026 0.99 -8.026 0.14 81.771
7712.208 0.14 81.727 0.99 -8.071 0.99 -8.071 0.14 81.727
7737.167 0.141 81.682 0.989 -8.117 0.989 -8.117 0.141 81.682
7762.125 0.142 81.638 0.989 -8.162 0.989 -8.162 0.142 81.638
7787.083 0.143 81.594 0.989 -8.208 0.989 -8.208 0.143 81.594
7812.042 0.144 81.55 0.989 -8.253 0.989 -8.253 0.144 81.55
7837 0.144 81.505 0.989 -8.298 0.989 -8.298 0.144 81.505
7861.958 0.145 81.461 0.989 -8.343 0.989 -8.343 0.145 81.461
7886.917 0.146 81.417 0.989 -8.388 0.989 -8.388 0.146 81.417
7911.875 0.147 81.374 0.989 -8.433 0.989 -8.433 0.147 81.374
7936.833 0.147 81.33 0.989 -8.478 0.989 -8.478 0.147 81.33
7961.792 0.148 81.286 0.988 -8.523 0.988 -8.523 0.148 81.286
7986.75 0.149 81.242 0.988 -8.568 0.988 -8.568 0.149 81.242
8011.708 0.15 81.198 0.988 -8.612 0.988 -8.612 0.15 81.198
8036.667 0.151 81.155 0.988 -8.657 0.988 -8.657 0.151 81.155
8061.625 0.151 81.111 0.988 -8.702 0.988 -8.702 0.151 81.111
8086.583 0.152 81.068 0.988 -8.746 0.988 -8.746 0.152 81.068
8111.542 0.153 81.024 0.988 -8.791 0.988 -8.791 0.153 81.024
8136.5 0.154 80.981 0.988 -8.835 0.988 -8.835 0.154 80.981
8161.458 0.154 80.937 0.988 -8.879 0.988 -8.879 0.154 80.937
8186.417 0.155 80.894 0.987 -8.923 0.987 -8.923 0.155 80.894
8211.375 0.156 80.851 0.987 -8.968 0.987 -8.968 0.156 80.851
8236.333 0.157 80.808 0.987 -9.012 0.987 -9.012 0.157 80.808
8261.292 0.157 80.765 0.987 -9.056 0.987 -9.056 0.157 80.765
8286.25 0.158 80.721 0.987 -9.1 0.987 -9.1 0.158 80.721
8311.208 0.159 80.678 0.987 -9.144 0.987 -9.144 0.159 80.678
8336.167 0.16 80.635 0.987 -9.188 0.987 -9.188 0.16 80.635
8361.125 0.16 80.592 0.987 -9.231 0.987 -9.231 0.16 80.592
8386.083 0.161 80.55 0.986 -9.275 0.986 -9.275 0.161 80.55
8411.042 0.162 80.507 0.986 -9.319 0.986 -9.319 0.162 80.507
8436 0.163 80.464 0.986 -9.362 0.986 -9.362 0.163 80.464
8460.958 0.163 80.421 0.986 -9.406 0.986 -9.406 0.163 80.421
8485.917 0.164 80.378 0.986 -9.449 0.986 -9.449 0.164 80.378
8510.875 0.165 80.336 0.986 -9.493 0.986 -9.493 0.165 80.336
8535.833 0.166 80.293 0.986 -9.536 0.986 -9.536 0.166 80.293
8560.792 0.166 80.251 0.986 -9.58 0.986 -9.58 0.166 80.251
8585.75 0.167 80.208 0.985 -9.623 0.985 -9.623 0.167 80.208
8610.708 0.168 80.166 0.985 -9.666 0.985 -9.666 0.168 80.166
8635.667 0.169 80.123 0.985 -9.709 0.985 -9.709 0.169 80.123
8660.625 0.169 80.081 0.985 -9.752 0.985 -9.752 0.169 80.081
8685.583 0.17 80.039 0.985 -9.795 0.985 -9.795 0.17 80.039
8710.542 0.171 79.997 0.985 -9.838 0.985 -9.838 0.171 79.997
8735.5 0.172 79.954 0.985 -9.881 0.985 -9.881 0.172 79.954
8760.458 0.172 79.912 0.985 -9.924 0.985 -9.924 0.172 79.912
8785.417 0.173 79.87 0.984 -9.967 0.984 -9.967 0.173 79.87
8810.375 0.174 79.828 0.984 -10.01 0.984 -10.01 0.174 79.828
8835.333 0.175 79.786 0.984 -10.052 0.984 -10.052 0.175 79.786
8860.292 0.175 79.744 0.984 -10.095 0.984 -10.095 0.175 79.744
8885.25 0.176 79.702 0.984 -10.138 0.984 -10.138 0.176 79.702
8910.208 0.177 79.66 0.984 -10.18 0.984 -10.18 0.177 79.66
8935.167 0.177 79.618 0.984 -10.223 0.984 -10.223 0.177 79.618
8960.125 0.178 79.577 0.984 -10.265 0.984 -10.265 0.178 79.577
8985.083 0.179 79.535 0.983 -10.308 0.983 -10.308 0.179 79.535
9010.042 0.18 79.493 0.983 -10.35 0.983 -10.35 0.18 79.493
9035 0.18 79.452 0.983 -10.392 0.983 -10.392 0.18 79.452
9059.958 0.181 79.41 0.983 -10.434 0.983 -10.434 0.181 79.41
9084.917 0.182 79.368 0.983 -10.477 0.983 -10.477 0.182 79.368
9109.875 0.183 79.327 0.983 -10.519 0.983 -10.519 0.183 79.327
9134.833 0.183 79.285 0.983 -10.561 0.983 -10.561 0.183 79.285
9159.792 0.184 79.244 0.982 -10.603 0.982 -10.603 0.184 79.244
9184.75 0.185 79.203 0.982 -10.645 0.982 -10.645 0.185 79.203
9209.708 0.185 79.161 0.982 -10.687 0.982 -10.687 0.185 79.161
9234.667 0.186 79.12 0.982 -10.729 0.982 -10.729 0.186 79.12
9259.625 0.187 79.079 0.982 -10.771 0.982 -10.771 0.187 79.079
9284.583 0.188 79.038 0.982 -10.812 0.982 -10.812 0.188 79.038
9309.542 0.188 78.996 0.982 -10.854 0.982 -10.854 0.188 78.996
9334.5 0.189 78.955 0.981 -10.896 0.981 -10.896 0.189 78.955
9359.458 0.19 78.914 0.981 -10.938 0.981 -10.938 0.19 78.914
9384.417 0.19 78.873 0.981 -10.979 0.981 -10.979 0.19 78.873
9409.375 0.191 78.832 0.981 -11.021 0.981 -11.021 0.191 78.832
9434.333 0.192 78.791 0.981 -11.062 0.981 -11.062 0.192 78.791
9459.292 0.193 78.75 0.981 -11.104 0.981 -11.104 0.193 78.75
9484.25 0.193 78.709 0.981 -11.145 0.981 -11.145 0.193 78.709
9509.208 0.194 78.669 0.981 -11.187 0.981 -11.187 0.194 78.669
9534.167 0.195 78.628 0.98 -11.228 0.98 -11.228 0.195 78.628
9559.125 0.195 78.587 0.98 -11.269 0.98 -11.269 0.195 78.587
9584.083 0.196 78.546 0.98 -11.31 0.98 -11.31 0.196 78.546
9609.042 0.197 78.506 0.98 -11.352 0.98 -11.352 0.197 78.506
9634 0.198 78.465 0.98 -11.393 0.98 -11.393 0.198 78.465
9658.958 0.198 78.424 0.98 -11.434 0.98 -11.434 0.198 78.424
9683.917 0.199 78.384 0.98 -11.475 0.98 -11.475 0.199 78.384
9708.875 0.2 78.343 0.979 -11.516 0.979 -11.516 0.2 78.343
9733.833 0.2 78.303 0.979 -11.557 0.979 -11.557 0.2 78.303
9758.792 0.201 78.262 0.979 -11.598 0.979 -11.598 0.201 78.262
9783.75 0.202 78.222 0.979 -11.639 0.979 -11.639 0.202 78.222
9808.708 0.202 78.182 0.979 -11.68 0.979 -11.68 0.202 78.182
9833.667 0.203 78.141 0.979 -11.721 0.979 -11.721 0.203 78.141
9858.625 0.204 78.101 0.979 -11.761 0.979 -11.761 0.204 78.101
9883.583 0.205 78.061 0.978 -11.802 0.978 -11.802 0.205 78.061
9908.542 0.205 78.021 0.978 -11.843 0.978 -11.843 0.205 78.021
9933.5 0.206 77.98 0.978 -11.883 0.978 -11.883 0.206 77.98
9958.458 0.207 77.94 0.978 -11.924 0.978 -11.924 0.207 77.94
9983.417 0.207 77.9 0.978 -11.965 0.978 -11.965 0.207 77.9
10008.375 0.208 77.86 0.978 -12.005 0.978 -12.005 0.208 77.86
10033.333 0.209 77.82 0.977 -12.046 0.977 -12.046 0.209 77.82
10058.292 0.209 77.78 0.977 -12.086 0.977 -12.086 0.209 77.78
10083.25 0.21 77.74 0.977 -12.126 0.977 -12.126 0.21 77.74
10108.208 0.211 77.7 0.977 -12.167 0.977 -12.167 0.211 77.7
10133.167 0.211 77.66 0.977 -12.207 0.977 -12.207 0.211 77.66
10158.125 0.212 77.621 0.977 -12.247 0.977 -12.247 0.212 77.621
10183.083 0.213 77.581 0.977 -12.288 0.977 -12.288 0.213 77.581
10208.042 0.214 77.541 0.976 -12.328 0.976 -12.328 0.214 77.541
10233 0.214 77.501 0.976 -12.368 0.976 -12.368 0.214 77.501
10257.958 0.215 77.462 0.976 -12.408 0.976 -12.408 0.215 77.462
10282.917 0.216 77.422 0.976 -12.448 0.976 -12.448 0.216 77.422
10307.875 0.216 77.382 0.976 -12.488 0.976 -12.488 0.216 77.382
10332.833 0.217 77.343 0.976 -12.528 0.976 -12.528 0.217 77.343
10357.792 0.218 77.303 0.976 -12.568 0.976 -12.568 0.218 77.303
10382.75 0.218 77.264 0.975 -12.608 0.975 -12.608 0.218 77.264
10407.708 0.219 77.224 0.975 -12.648 0.975 -12.648 0.219 77.224
10432.667 0.22 77.185 0.975 -12.688 0.975 -12.688 0.22 77.185
10457.625 0.22 77.145 0.975 -12.728 0.975 -12.728 0.22 77.145
10482.583 0.221 77.106 0.975 -12.768 0.975 -12.768 0.221 77.106
10507.542 0.222 77.067 0.975 -12.807 0.975 -12.807 0.222 77.067
10532.5 0.222 77.027 0.974 -12.847 0.974 -12.847 0.222 77.027
10557.458 0.223 76.988 0.974 -12.887 0.974 -12.887 0.223 76.988
10582.417 0.224 76.949 0.974 -12.926 0.974 -12.926 0.224 76.949
10607.375 0.224 76.91 0.974 -12.966 0.974 -12.966 0.224 76.91
10632.333 0.225 76.87 0.974 -13.005 0.974 -13.005 0.225 76.87
10657.292 0.226 76.831 0.974 -13.045 0.974 -13.045 0.226 76.831
10682.25 0.226 76.792 0.974 -13.084 0.974 -13.084 0.226 76.792
10707.208 0.227 76.753 0.973 -13.124 0.973 -13.124 0.227 76.753
10732.167 0.228 76.714 0.973 -13.163 0.973 -13.163 0.228 76.714
10757.125 0.228 76.675 0.973 -13.203 0.973 -13.203 0.228 76.675
10782.083 0.229 76.636 0.973 -13.242 0.973 -13.242 0.229 76.636
10807.042 0.23 76.597 0.973 -13.281 0.973 -13.281 0.23 76.597
10832 0.23 76.558 0.973 -13.321 0.973 -13.321 0.23 76.558
10856.958 0.231 76.519 0.972 -13.36 0.972 -13.36 0.231 76.519
10881.917 0.232 76.481 0.972 -13.399 0.972 -13.399 0.232 76.481
10906.875 0.232 76.442 0.972 -13.438 0.972 -13.438 0.232 76.442
10931.833 0.233 76.403 0.972 -13.477 0.972 -13.477 0.233 76.403
10956.792 0.234 76.364 0.972 -13.517 0.972 -13.517 0.234 76.364
10981.75 0.234 76.326 0.972 -13.556 0.972 -13.556 0.234 76.326
11006.708 0.235 76.287 0.971 -13.595 0.971 -13.595 0.235 76.287
11031.667 0.236 76.248 0.971 -13.634 0.971 -13.634 0.236 76.248
11056.625 0.236 76.21 0.971 -13.673 0.971 -13.673 0.236 76.21
11081.583 0.237 76.171 0.971 -13.712 0.971 -13.712 0.237 76.171
11106.542 0.238 76.132 0.971 -13.75 0.971 -13.75 0.238 76.132
11131.5 0.238 76.094 0.971 -13.789 0.971 -13.789 0.238 76.094
11156.458 0.239 76.055 0.971 -13.828 0.971 -13.828 0.239 76.055
11181.417 0.24 76.017 0.97 -13.867 0.97 -13.867 0.24 76.017
11206.375 0.24 75.979 0.97 -13.906 0.97 -13.906 0.24 75.979
11231.333 0.241 75.94 0.97 -13.944 0.97 -13.944 0.241 75.94
11256.292 0.242 75.902 0.97 -13.983 0.97 -13.983 0.242 75.902
11281.25 0.242 75.863 0.97 -14.022 0.97 -14.022 0.242 75.863
11306.208 0.243 75.825 0.97 -14.06 0.97 -14.06 0.243 75.825
11331.167 0.244 75.787 0.969 -14.099 0.969 -14.099 0.244 75.787
11356.125 0.244 75.749 0.969 -14.138 0.969 -14.138 0.244 75.749
11381.083 0.245 75.71 0.969 -14.176 0.969 -14.176 0.245 75.71
11406.042 0.246 75.672 0.969 -14.215 0.969 -14.215 0.246 75.672
11431 0.246 75.634 0.969 -14.253 0.969 -14.253 0.246 75.634
11455.958 0.247 75.596 0.969 -14.292 0.969 -14.292 0.247 75.596
11480.917 0.248 75.558 0.968 -14.33 0.968 -14.33 0.248 75.558
11505.875 0.248 75.52 0.968 -14.368 0.968 -14.368 0.248 75.52
11530.833 0.249 75.482 0.968 -14.407 0.968 -14.407 0.249 75.482
11555.792 0.249 75.444 0.968 -14.445 0.968 -14.445 0.249 75.444
11580.75 0.25 75.406 0.968 -14.483 0.968 -14.483 0.25 75.406
11605.708 0.251 75.368 0.968 -14.522 0.968 -14.522 0.251 75.368
11630.667 0.251 75.33 0.967 -14.56 0.967 -14.56 0.251 75.33
11655.625 0.252 75.292 0.967 -14.598 0.967 -14.598 0.252 75.292
11680.583 0.253 75.254 0.967 -14.636 0.967 -14.636 0.253 75.254
11705.542 0.253 75.216 0.967 -14.674 0.967 -14.674 0.253 75.216
11730.5 0.254 75.178 0.967 -14.712 0.967 -14.712 0.254 75.178
11755.458 0.255 75.141 0.967 -14.751 0.967 -14.751 0.255 75.141
11780.417 0.255 75.103 0.966 -14.789 0.966 -14.789 0.255 75.103
11805.375 0.256 75.065 0.966 -14.827 0.966 -14.827 0.256 75.065
11830.333 0.257 75.028 0.966 -14.865 0.966 -14.865 0.257 75.028
11855.292 0.257 74.99 0.966 -14.902 0.966 -14.902 0.257 74.99
11880.25 0.258 74.952 0.966 -14.94 0.966 -14.94 0.258 74.952
11905.208 0.258 74.915 0.966 -14.978 0.966 -14.978 0.258 74.915
11930.167 0.259 74.877 0.965 -15.016 0.965 -15.016 0.259 74.877
11955.125 0.26 74.839 0.965 -15.054 0.965 -15.054 0.26 74.839
11980.083 0.26 74.802 0.965 -15.092 0.965 -15.092 0.26 74.802
12005.042 0.261 74.764 0.965 -15.13 0.965 -15.13 0.261 74.764
12030 0.262 74.727 0.965 -15.167 0.965 -15.167 0.262 74.727
12054.958 0.262 74.69 0.965 -15.205 0.965 -15.205 0.262 74.69
12079.917 0.263 74.652 0.964 -15.243 0.964 -15.243 0.263 74.652
12104.875 0.264 74.615 0.964 -15.28 0.964 -15.28 0.264 74.615
12129.833 0.264 74.577 0.964 -15.318 0.964 -15.318 0.264 74.577
12154.792 0.265 74.54 0.964 -15.356 0.964 -15.356 0.265 74.54
12179.75 0.265 74.503 0.964 -15.393 0.964 -15.393 0.265 74.503
12204.708 0.266 74.466 0.963 -15.431 0.963 -15.431 0.266 74.466
12229.667 0.267 74.428 0.963 -15.468 0.963 -15.468 0.267 74.428
12254.625 0.267 74.391 0.963 -15.506 0.963 -15.506 0.267 74.391
12279.583 0.268 74.354 0.963 -15.543 0.963 -15.543 0.268 74.354
12304.542 0.269 74.317 0.963 -15.58 0.963 -15.58 0.269 74.317
12329.5 0.269 74.28 0.963 -15.618 0.963 -15.618 0.269 74.28
12354.458 0.27 74.243 0.962 -15.655 0.962 -15.655 0.27 74.243
12379.417 0.27 74.205 0.962 -15.693 0.962 -15.693 0.27 74.205
12404.375 0.271 74.168 0.962 -15.73 0.962 -15.73 0.271 74.168
12429.333 0.272 74.131 0.962 -15.767 0.962 -15.767 0.272 74.131
12454.292 0.272 74.094 0.962 -15.804 0.962 -15.804 0.272 74.094
12479.25 0.273 74.057 0.962 -15.842 0.962 -15.842 0.273 74.057
12504.208 0.274 74.02 0.961 -15.879 0.961 -15.879 0.274 74.02
12529.167 0.274 73.984 0.961 -15.916 0.961 -15.916 0.274 73.984
12554.125 0.275 73.947 0.961 -15.953 0.961 -15.953 0.275 73.947
12579.083 0.275 73.91 0.961 -15.99 0.961 -15.99 0.275 73.91
12604.042 0.276 73.873 0.961 -16.027 0.961 -16.027 0.276 73.873
12629 0.277 73.836 0.96 -16.064 0.96 -16.064 0.277 73.836
12653.958 0.277 73.799 0.96 -16.101 0.96 -16.101 0.277 73.799
12678.917 0.278 73.763 0.96 -16.138 0.96 -16.138 0.278 73.763
12703.875 0.279 73.726 0.96 -16.175 0.96 -16.175 0.279 73.726
12728.833 0.279 73.689 0.96 -16.212 0.96 -16.212 0.279 73.689
12753.792 0.28 73.652 0.96 -16.249 0.96 -16.249 0.28 73.652
12778.75 0.28 73.616 0.959 -16.286 0.959 -16.286 0.28 73.616
12803.708 0.281 73.579 0.959 -16.323 0.959 -16.323 0.281 73.579
12828.667 0.282 73.543 0.959 -16.36 0.959 -16.36 0.282 73.543
12853.625 0.282 73.506 0.959 -16.397 0.959 -16.397 0.282 73.506
12878.583 0.283 73.469 0.959 -16.433 0.959 -16.433 0.283 73.469
12903.542 0.284 73.433 0.958 -16.47 0.958 -16.47 0.284 73.433
12928.5 0.284 73.396 0.958 -16.507 0.958 -16.507 0.284 73.396
12953.458 0.285 73.36 0.958 -16.544 0.958 -16.544 0.285 73.36
12978.417 0.285 73.323 0.958 -16.58 0.958 -16.58 0.285 73.323
13003.375 0.286 73.287 0.958 -16.617 0.958 -16.617 0.286 73.287
13028.333 0.287 73.251 0.958 -16.654 0.958 -16.654 0.287 73.251
13053.292 0.287 73.214 0.957 -16.69 0.957 -16.69 0.287 73.214
13078.25 0.288 73.178 0.957 -16.727 0.957 -16.727 0.288 73.178
13103.208 0.288 73.142 0.957 -16.763 0.957 -16.763 0.288 73.142
13128.167 0.289 73.105 0.957 -16.8 0.957 -16.8 0.289 73.105
13153.125 0.29 73.069 0.957 -16.836 0.957 -16.836 0.29 73.069
13178.083 0.29 73.033 0.956 -16.873 0.956 -16.873 0.29 73.033
13203.042 0.291 72.997 0.956 -16.909 0.956 -16.909 0.291 72.997
13228 0.291 72.96 0.956 -16.946 0.956 -16.946 0.291 72.96
13252.958 0.292 72.924 0.956 -16.982 0.956 -16.982 0.292 72.924
13277.917 0.293 72.888 0.956 -17.018 0.956 -17.018 0.293 72.888
13302.875 0.293 72.852 0.956 -17.055 0.956 -17.055 0.293 72.852
13327.833 0.294 72.816 0.955 -17.091 0.955 -17.091 0.294 72.816
13352.792 0.294 72.78 0.955 -17.127 0.955 -17.127 0.294 72.78
13377.75 0.295 72.744 0.955 -17.164 0.955 -17.164 0.295 72.744
13402.708 0.296 72.708 0.955 -17.2 0.955 -17.2 0.296 72.708
13427.667 0.296 72.672 0.955 -17.236 0.955 -17.236 0.296 72.672
13452.625 0.297 72.636 0.954 -17.272 0.954 -17.272 0.297 72.636
13477.583 0.298 72.6 0.954 -17.308 0.954 -17.308 0.298 72.6
13502.542 0.298 72.564 0.954 -17.344 0.954 -17.344 0.298 72.564
13527.5 0.299 72.528 0.954 -17.381 0.954 -17.381 0.299 72.528
13552.458 0.299 72.492 0.954 -17.417 0.954 -17.417 0.299 72.492
13577.417 0.3 72.456 0.953 -17.453 0.953 -17.453 0.3 72.456
13602.375 0.301 72.42 0.953 -17.489 0.953 -17.489 0.301 72.42
13627.333 0.301 72.384 0.953 -17.525 0.953 -17.525 0.301 72.384
13652.292 0.302 72.349 0.953 -17.561 0.953 -17.561 0.302 72.349
13677.25 0.302 72.313 0.953 -17.597 0.953 -17.597 0.302 72.313
13702.208 0.303 72.277 0.953 -17.633 0.953 -17.633 0.303 72.277
13727.167 0.304 72.242 0.952 -17.669 0.952 -17.669 0.304 72.242
13752.125 0.304 72.206 0.952 -17.704 0.952 -17.704 0.304 72.206
13777.083 0.305 72.17 0.952 -17.74 0.952 -17.74 0.305 72.17
13802.042 0.305 72.135 0.952 -17.776 0.952 -17.776 0.305 72.135
13827 0.306 72.099 0.952 -17.812 0.952 -17.812 0.306 72.099
13851.958 0.306 72.063 0.951 -17.848 0.951 -17.848 0.306 72.063
13876.917 0.307 72.028 0.951 -17.883 0.951 -17.883 0.307 72.028
13901.875 0.308 71.992 0.951 -17.919 0.951 -17.919 0.308 71.992
13926.833 0.308 71.957 0.951 -17.955 0.951 -17.955 0.308 71.957
13951.792 0.309 71.921 0.951 -17.991 0.951 -17.991 0.309 71.921
13976.75 0.309 71.886 0.95 -18.026 0.95 -18.026 0.309 71.886
14001.708 0.31 71.85 0.95 -18.062 0.95 -18.062 0.31 71.85
14026.667 0.311 71.815 0.95 -18.097 0.95 -18.097 0.311 71.815
14051.625 0.311 71.779 0.95 -18.133 0.95 -18.133 0.311 71.779
14076.583 0.312 71.744 0.95 -18.169 0.95 -18.169 0.312 71.744
14101.542 0.312 71.709 0.949 -18.204 0.949 -18.204 0.312 71.709
14126.5 0.313 71.673 0.949 -18.24 0.949 -18.24 0.313 71.673
14151.458 0.314 71.638 0.949 -18.275 0.949 -18.275 0.314 71.638
14176.417 0.314 71.603 0.949 -18.311 0.949 -18.311 0.314 71.603
14201.375 0.315 71.567 0.949 -18.346 0.949 -18.346 0.315 71.567
14226.333 0.315 71.532 0.949 -18.382 0.949 -18.382 0.315 71.532
14251.292 0.316 71.497 0.948 -18.417 0.948 -18.417 0.316 71.497
14276.25 0.317 71.462 0.948 -18.452 0.948 -18.452 0.317 71.462
14301.208 0.317 71.427 0.948 -18.488 0.948 -18.488 0.317 71.427
14326.167 0.318 71.392 0.948 -18.523 0.948 -18.523 0.318 71.392
14351.125 0.318 71.356 0.948 -18.558 0.948 -18.558 0.318 71.356
14376.083 0.319 71.321 0.947 -18.594 0.947 -18.594 0.319 71.321
14401.042 0.319 71.286 0.947 -18.629 0.947 -18.629 0.319 71.286
14426 0.32 71.251 0.947 -18.664 0.947 -18.664 0.32 71.251
14450.958 0.321 71.216 0.947 -18.699 0.947 -18.699 0.321 71.216
14475.917 0.321 71.181 0.947 -18.734 0.947 -18.734 0.321 71.181
14500.875 0.322 71.146 0.946 -18.77 0.946 -18.77 0.322 71.146
14525.833 0.322 71.111 0.946 -18.805 0.946 -18.805 0.322 71.111
14550.792 0.323 71.076 0.946 -18.84 0.946 -18.84 0.323 71.076
14575.75 0.324 71.041 0.946 -18.875 0.946 -18.875 0.324 71.041
14600.708 0.324 71.006 0.946 -18.91 0.946 -18.91 0.324 71.006
14625.667 0.325 70.971 0.945 -18.945 0.945 -18.945 0.325 70.971
14650.625 0.325 70.937 0.945 -18.98 0.945 -18.98 0.325 70.937
14675.583 0.326 70.902 0.945 -19.015 0.945 -19.015 0.326 70.902
14700.542 0.326 70.867 0.945 -19.05 0.945 -19.05 0.326 70.867
14725.5 0.327 70.832 0.945 -19.085 0.945 -19.085 0.327 70.832
14750.458 0.328 70.797 0.944 -19.12 0.944 -19.12 0.328 70.797
14775.417 0.328 70.763 0.944 -19.155 0.944 -19.155 0.328 70.763
14800.375 0.329 70.728 0.944 -19.19 0.944 -19.19 0.329 70.728
14825.333 0.329 70.693 0.944 -19.225 0.944 -19.225 0.329 70.693
14850.292 0.33 70.659 0.944 -19.259 0.944 -19.259 0.33 70.659
14875.25 0.33 70.624 0.943 -19.294 0.943 -19.294 0.33 70.624
14900.208 0.331 70.589 0.943 -19.329 0.943 -19.329 0.331 70.589
14925.167 0.332 70.555 0.943 -19.364 0.943 -19.364 0.332 70.555
14950.125 0.332 70.52 0.943 -19.398 0.943 -19.398 0.332 70.52
14975.083 0.333 70.486 0.943 -19.433 0.943 -19.433 0.333 70.486
15000.042 0.333 70.451 0.942 -19.468 0.942 -19.468 0.333 70.451
15025 0.334 70.417 0.942 -19.503 0.942 -19.503 0.334 70.417
15049.958 0.334 70.382 0.942 -19.537 0.942 -19.537 0.334 70.382
15074.917 0.335 70.348 0.942 -19.572 0.942 -19.572 0.335 70.348
15099.875 0.336 70.313 0.942 -19.606 0.942 -19.606 0.336 70.313
15124.833 0.336 70.279 0.941 -19.641 0.941 -19.641 0.336 70.279
15149.792 0.337 70.244 0.941 -19.676 0.941 -19.676 0.337 70.244
15174.75 0.337 70.21 0.941 -19.71 0.941 -19.71 0.337 70.21
15199.708 0.338 70.176 0.941 -19.745 0.941 -19.745 0.338 70.176
15224.667 0.338 70.141 0.941 -19.779 0.941 -19.779 0.338 70.141
15249.625 0.339 70.107 0.94 -19.814 0.94 -19.814 0.339 70.107
15274.583 0.34 70.073 0.94 -19.848 0.94 -19.848 0.34 70.073
15299.542 0.34 70.038 0.94 -19.882 0.94 -19.882 0.34 70.038
15324.5 0.341 70.004 0.94 -19.917 0.94 -19.917 0.341 70.004
15349.458 0.341 69.97 0.94 -19.951 0.94 -19.951 0.341 69.97
15374.417 0.342 69.936 0.939 -19.986 0.939 -19.986 0.342 69.936
15399.375 0.342 69.901 0.939 -20.02 0.939 -20.02 0.342 69.901
15424.333 0.343 69.867 0.939 -20.054 0.939 -20.054 0.343 69.867
15449.292 0.343 69.833 0.939 -20.089 0.939 -20.089 0.343 69.833
15474.25 0.344 69.799 0.938 -20.123 0.938 -20.123 0.344 69.799
15499.208 0.345 69.765 0.938 -20.157 0.938 -20.157 0.345 69.765
15524.167 0.345 69.731 0.938 -20.191 0.938 -20.191 0.345 69.731
15549.125 0.346 69.697 0.938 -20.226 0.938 -20.226 0.346 69.697
15574.083 0.346 69.663 0.938 -20.26 0.938 -20.26 0.346 69.663
15599.042 0.347 69.629 0.937 -20.294 0.937 -20.294 0.347 69.629
15624 0.347 69.595 0.937 -20.328 0.937 -20.328 0.347 69.595
15648.958 0.348 69.561 0.937 -20.362 0.937 -20.362 0.348 69.561
15673.917 0.349 69.527 0.937 -20.396 0.937 -20.396 0.349 69.527
15698.875 0.349 69.493 0.937 -20.43 0.937 -20.43 0.349 69.493
15723.833 0.35 69.459 0.936 -20.464 0.936 -20.464 0.35 69.459
15748.792 0.35 69.425 0.936 -20.498 0.936 -20.498 0.35 69.425
15773.75 0.351 69.391 0.936 -20.532 0.936 -20.532 0.351 69.391
15798.708 0.351 69.357 0.936 -20.566 0.936 -20.566 0.351 69.357
15823.667 0.352 69.323 0.936 -20.6 0.936 -20.6 0.352 69.323
15848.625 0.352 69.29 0.935 -20.634 0.935 -20.634 0.352 69.29
15873.583 0.353 69.256 0.935 -20.668 0.935 -20.668 0.353 69.256
15898.542 0.354 69.222 0.935 -20.702 0.935 -20.702 0.354 69.222
15923.5 0.354 69.188 0.935 -20.736 0.935 -20.736 0.354 69.188
15948.458 0.355 69.155 0.935 -20.77 0.935 -20.77 0.355 69.155
15973.417 0.355 69.121 0.934 -20.804 0.934 -20.804 0.355 69.121
15998.375 0.356 69.087 0.934 -20.837 0.934 -20.837 0.356 69.087
16023.333 0.356 69.054 0.934 -20.871 0.934 -20.871 0.356 69.054
16048.292 0.357 69.02 0.934 -20.905 0.934 -20.905 0.357 69.02
16073.25 0.357 68.986 0.933 -20.939 0.933 -20.939 0.357 68.986
16098.208 0.358 68.953 0.933 -20.973 0.933 -20.973 0.358 68.953
16123.167 0.358 68.919 0.933 -21.006 0.933 -21.006 0.358 68.919
16148.125 0.359 68.886 0.933 -21.04 0.933 -21.04 0.359 68.886
16173.083 0.36 68.852 0.933 -21.074 0.933 -21.074 0.36 68.852
16198.042 0.36 68.819 0.932 -21.107 0.932 -21.107 0.36 68.819
16223 0.361 68.785 0.932 -21.141 0.932 -21.141 0.361 68.785
16247.958 0.361 68.752 0.932 -21.174 0.932 -21.174 0.361 68.752
16272.917 0.362 68.718 0.932 -21.208 0.932 -21.208 0.362 68.718
16297.875 0.362 68.685 0.932 -21.242 0.932 -21.242 0.362 68.685
16322.833 0.363 68.651 0.931 -21.275 0.931 -21.275 0.363 68.651
16347.792 0.363 68.618 0.931 -21.309 0.931 -21.309 0.363 68.618
16372.75 0.364 68.585 0.931 -21.342 0.931 -21.342 0.364 68.585
16397.708 0.364 68.551 0.931 -21.376 0.931 -21.376 0.364 68.551
16422.667 0.365 68.518 0.931 -21.409 0.931 -21.409 0.365 68.518
16447.625 0.366 68.485 0.93 -21.442 0.93 -21.442 0.366 68.485
16472.583 0.366 68.451 0.93 -21.476 0.93 -21.476 0.366 68.451
16497.542 0.367 68.418 0.93 -21.509 0.93 -21.509 0.367 68.418
16522.5 0.367 68.385 0.93 -21.543 0.93 -21.543 0.367 68.385
16547.458 0.368 68.352 0.929 -21.576 0.929 -21.576 0.368 68.352
16572.417 0.368 68.318 0.929 -21.609 0.929 -21.609 0.368 68.318
16597.375 0.369 68.285 0.929 -21.643 0.929 -21.643 0.369 68.285
16622.333 0.369 68.252 0.929 -21.676 0.929 -21.676 0.369 68.252
16647.292 0.37 68.219 0.929 -21.709 0.929 -21.709 0.37 68.219
16672.25 0.37 68.186 0.928 -21.742 0.928 -21.742 0.37 68.186
16697.208 0.371 68.153 0.928 -21.776 0.928 -21.776 0.371 68.153
16722.167 0.372 68.12 0.928 -21.809 0.928 -21.809 0.372 68.12
16747.125 0.372 68.087 0.928 -21.842 0.928 -21.842 0.372 68.087
16772.083 0.373 68.053 0.928 -21.875 0.928 -21.875 0.373 68.053
16797.042 0.373 68.02 0.927 -21.908 0.927 -21.908 0.373 68.02
16822 0.374 67.987 0.927 -21.941 0.927 -21.941 0.374 67.987
16846.958 0.374 67.955 0.927 -21.974 0.927 -21.974 0.374 67.955
16871.917 0.375 67.922 0.927 -22.008 0.927 -22.008 0.375 67.922
16896.875 0.375 67.889 0.926 -22.041 0.926 -22.041 0.375 67.889
16921.833 0.376 67.856 0.926 -22.074 0.926 -22.074 0.376 67.856
16946.792 0.376 67.823 0.926 -22.107 0.926 -22.107 0.376 67.823
16971.75 0.377 67.79 0.926 -22.14 0.926 -22.14 0.377 67.79
16996.708 0.377 67.757 0.926 -22.173 0.926 -22.173 0.377 67.757
17021.667 0.378 67.724 0.925 -22.206 0.925 -22.206 0.378 67.724
17046.625 0.378 67.691 0.925 -22.238 0.925 -22.238 0.378 67.691
17071.583 0.379 67.659 0.925 -22.271 0.925 -22.271 0.379 67.659
17096.542 0.38 67.626 0.925 -22.304 0.925 -22.304 0.38 67.626
17121.5 0.38 67.593 0.925 -22.337 0.925 -22.337 0.38 67.593
17146.458 0.381 67.56 0.924 -22.37 0.924 -22.37 0.381 67.56
17171.417 0.381 67.528 0.924 -22.403 0.924 -22.403 0.381 67.528
17196.375 0.382 67.495 0.924 -22.436 0.924 -22.436 0.382 67.495
17221.333 0.382 67.462 0.924 -22.468 0.924 -22.468 0.382 67.462
17246.292 0.383 67.43 0.923 -22.501 0.923 -22.501 0.383 67.43
17271.25 0.383 67.397 0.923 -22.534 0.923 -22.534 0.383 67.397
17296.208 0.384 67.364 0.923 -22.567 0.923 -22.567 0.384 67.364
17321.167 0.384 67.332 0.923 -22.599 0.923 -22.599 0.384 67.332
17346.125 0.385 67.299 0.923 -22.632 0.923 -22.632 0.385 67.299
17371.083 0.385 67.267 0.922 -22.665 0.922 -22.665 0.385 67.267
17396.042 0.386 67.234 0.922 -22.697 0.922 -22.697 0.386 67.234
17421 0.386 67.202 0.922 -22.73 0.922 -22.73 0.386 67.202
17445.958 0.387 67.169 0.922 -22.762 0.922 -22.762 0.387 67.169
17470.917 0.387 67.137 0.921 -22.795 0.921 -22.795 0.387 67.137
17495.875 0.388 67.104 0.921 -22.828 0.921 -22.828 0.388 67.104
17520.833 0.388 67.072 0.921 -22.86 0.921 -22.86 0.388 67.072
17545.792 0.389 67.039 0.921 -22.893 0.921 -22.893 0.389 67.039
17570.75 0.39 67.007 0.921 -22.925 0.921 -22.925 0.39 67.007
17595.708 0.39 66.975 0.92 -22.958 0.92 -22.958 0.39 66.975
17620.667 0.391 66.942 0.92 -22.99 0.92 -22.99 0.391 66.942
17645.625 0.391 66.91 0.92 -23.023 0.92 -23.023 0.391 66.91
17670.583 0.392 66.878 0.92 -23.055 0.92 -23.055 0.392 66.878
17695.542 0.392 66.845 0.919 -23.087 0.919 -23.087 0.392 66.845
17720.5 0.393 66.813 0.919 -23.12 0.919 -23.12 0.393 66.813
17745.458 0.393 66.781 0.919 -23.152 0.919 -23.152 0.393 66.781
17770.417 0.394 66.749 0.919 -23.184 0.919 -23.184 0.394 66.749
17795.375 0.394 66.716 0.919 -23.217 0.919 -23.217 0.394 66.716
17820.333 0.395 66.684 0.918 -23.249 0.918 -23.249 0.395 66.684
17845.292 0.395 66.652 0.918 -23.281 0.918 -23.281 0.395 66.652
17870.25 0.396 66.62 0.918 -23.314 0.918 -23.314 0.396 66.62
17895.208 0.396 66.588 0.918 -23.346 0.918 -23.346 0.396 66.588
17920.167 0.397 66.556 0.917 -23.378 0.917 -23.378 0.397 66.556
17945.125 0.397 66.524 0.917 -23.41 0.917 -23.41 0.397 66.524
17970.083 0.398 66.491 0.917 -23.442 0.917 -23.442 0.398 66.491
17995.042 0.398 66.459 0.917 -23.475 0.917 -23.475 0.398 66.459
18020 0.399 66.427 0.917 -23.507 0.917 -23.507 0.399 66.427
18044.958 0.399 66.395 0.916 -23.539 0.916 -23.539 0.399 66.395
18069.917 0.4 66.363 0.916 -23.571 0.916 -23.571 0.4 66.363
18094.875 0.4 66.331 0.916 -23.603 0.916 -23.603 0.4 66.331
18119.833 0.401 66.299 0.916 -23.635 0.916 -23.635 0.401 66.299
18144.792 0.401 66.268 0.915 -23.667 0.915 -23.667 0.401 66.268
18169.75 0.402 66.236 0.915 -23.699 0.915 -23.699 0.402 66.236
18194.708 0.402 66.204 0.915 -23.731 0.915 -23.731 0.402 66.204
18219.667 0.403 66.172 0.915 -23.763 0.915 -23.763 0.403 66.172
18244.625 0.403 66.14 0.915 -23.795 0.915 -23.795 0.403 66.14
18269.583 0.404 66.108 0.914 -23.827 0.914 -23.827 0.404 66.108
18294.542 0.404 66.076 0.914 -23.859 0.914 -23.859 0.404 66.076
18319.5 0.405 66.045 0.914 -23.891 0.914 -23.891 0.405 66.045
18344.458 0.406 66.013 0.914 -23.923 0.914 -23.923 0.406 66.013
18369.417 0.406 65.981 0.913 -23.955 0.913 -23.955 0.406 65.981
18394.375 0.407 65.949 0.913 -23.986 0.913 -23.986 0.407 65.949
18419.333 0.407 65.918 0.913 -24.018 0.913 -24.018 0.407 65.918
18444.292 0.408 65.886 0.913 -24.05 0.913 -24.05 0.408 65.886
18469.25 0.408 65.854 0.913 -24.082 0.913 -24.082 0.408 65.854
18494.208 0.409 65.822 0.912 -24.114 0.912 -24.114 0.409 65.822
18519.167 0.409 65.791 0.912 -24.145 0.912 -24.145 0.409 65.791
18544.125 0.41 65.759 0.912 -24.177 0.912 -24.177 0.41 65.759
18569.083 0.41 65.728 0.912 -24.209 0.912 -24.209 0.41 65.728
18594.042 0.411 65.696 0.911 -24.24 0.911 -24.24 0.411 65.696
18619 0.411 65.664 0.911 -24.272 0.911 -24.272 0.411 65.664
18643.958 0.412 65.633 0.911 -24.304 0.911 -24.304 0.412 65.633
18668.917 0.412 65.601 0.911 -24.335 0.911 -24.335 0.412 65.601
18693.875 0.413 65.57 0.91 -24.367 0.91 -24.367 0.413 65.57
18718.833 0.413 65.538 0.91 -24.398 0.91 -24.398 0.413 65.538
18743.792 0.414 65.507 0.91 -24.43 0.91 -24.43 0.414 65.507
18768.75 0.414 65.475 0.91 -24.462 0.91 -24.462 0.414 65.475
18793.708 0.415 65.444 0.91 -24.493 0.91 -24.493 0.415 65.444
18818.667 0.415 65.413 0.909 -24.525 0.909 -24.525 0.415 65.413
18843.625 0.416 65.381 0.909 -24.556 0.909 -24.556 0.416 65.381
18868.583 0.416 65.35 0.909 -24.588 0.909 -24.588 0.416 65.35
18893.542 0.417 65.318 0.909 -24.619 0.909 -24.619 0.417 65.318
18918.5 0.417 65.287 0.908 -24.65 0.908 -24.65 0.417 65.287
18943.458 0.418 65.256 0.908 -24.682 0.908 -24.682 0.418 65.256
18968.417 0.418 65.225 0.908 -24.713 0.908 -24.713 0.418 65.225
18993.375 0.419 65.193 0.908 -24.745 0.908 -24.745 0.419 65.193
19018.333 0.419 65.162 0.907 -24.776 0.907 -24.776 0.419 65.162
19043.292 0.42 65.131 0.907 -24.807 0.907 -24.807 0.42 65.131
19068.25 0.42 65.1 0.907 -24.839 0.907 -24.839 0.42 65.1
19093.208 0.421 65.068 0.907 -24.87 0.907 -24.87 0.421 65.068
19118.167 0.421 65.037 0.907 -24.901 0.907 -24.901 0.421 65.037
19143.125 0.422 65.006 0.906 -24.932 0.906 -24.932 0.422 65.006
19168.083 0.422 64.975 0.906 -24.964 0.906 -24.964 0.422 64.975
19193.042 0.423 64.944 0.906 -24.995 0.906 -24.995 0.423 64.944
19218 0.423 64.913 0.906 -25.026 0.906 -25.026 0.423 64.913
19242.958 0.424 64.882 0.905 -25.057 0.905 -25.057 0.424 64.882
19267.917 0.424 64.85 0.905 -25.088 0.905 -25.088 0.424 64.85
19292.875 0.425 64.819 0.905 -25.119 0.905 -25.119 0.425 64.819
19317.833 0.425 64.788 0.905 -25.151 0.905 -25.151 0.425 64.788
19342.792 0.425 64.757 0.905 -25.182 0.905 -25.182 0.425 64.757
19367.75 0.426 64.726 0.904 -25.213 0.904 -25.213 0.426 64.726
19392.708 0.426 64.695 0.904 -25.244 0.904 -25.244 0.426 64.695
19417.667 0.427 64.664 0.904 -25.275 0.904 -25.275 0.427 64.664
19442.625 0.427 64.633 0.904 -25.306 0.904 -25.306 0.427 64.633
19467.583 0.428 64.603 0.903 -25.337 0.903 -25.337 0.428 64.603
19492.542 0.428 64.572 0.903 -25.368 0.903 -25.368 0.428 64.572
19517.5 0.429 64.541 0.903 -25.399 0.903 -25.399 0.429 64.541
19542.458 0.429 64.51 0.903 -25.43 0.903 -25.43 0.429 64.51
19567.417 0.43 64.479 0.902 -25.461 0.902 -25.461 0.43 64.479
19592.375 0.43 64.448 0.902 -25.492 0.902 -25.492 0.43 64.448
19617.333 0.431 64.417 0.902 -25.522 0.902 -25.522 0.431 64.417
19642.292 0.431 64.387 0.902 -25.553 0.902 -25.553 0.431 64.387
19667.25 0.432 64.356 0.902 -25.584 0.902 -25.584 0.432 64.356
19692.208 0.432 64.325 0.901 -25.615 0.901 -25.615 0.432 64.325
19717.167 0.433 64.294 0.901 -25.646 0.901 -25.646 0.433 64.294
19742.125 0.433 64.264 0.901 -25.677 0.901 -25.677 0.433 64.264
19767.083 0.434 64.233 0.901 -25.707 0.901 -25.707 0.434 64.233
19792.042 0.434 64.202 0.9 -25.738 0.9 -25.738 0.434 64.202
19817 0.435 64.172 0.9 -25.769 0.9 -25.769 0.435 64.172
19841.958 0.435 64.141 0.9 -25.8 0.9 -25.8 0.435 64.141
19866.917 0.436 64.11 0.9 -25.83 0.9 -25.83 0.436 64.11
19891.875 0.436 64.08 0.899 -25.861 0.899 -25.861 0.436 64.08
19916.833 0.437 64.049 0.899 -25.892 0.899 -25.892 0.437 64.049
19941.792 0.437 64.019 0.899 -25.922 0.899 -25.922 0.437 64.019
19966.75 0.438 63.988 0.899 -25.953 0.899 -25.953 0.438 63.988
19991.708 0.438 63.958 0.898 -25.983 0.898 -25.983 0.438 63.958
20016.667 0.439 63.927 0.898 -26.014 0.898 -26.014 0.439 63.927
20041.625 0.439 63.897 0.898 -26.045 0.898 -26.045 0.439 63.897
20066.583 0.44 63.866 0.898 -26.075 0.898 -26.075 0.44 63.866
20091.542 0.44 63.836 0.898 -26.106 0.898 -26.106 0.44 63.836
20116.5 0.441 63.805 0.897 -26.136 0.897 -26.136 0.441 63.805
20141.458 0.441 63.775 0.897 -26.167 0.897 -26.167 0.441 63.775
20166.417 0.441 63.745 0.897 -26.197 0.897 -26.197 0.441 63.745
20191.375 0.442 63.714 0.897 -26.228 0.897 -26.228 0.442 63.714
20216.333 0.442 63.684 0.896 -26.258 0.896 -26.258 0.442 63.684
20241.292 0.443 63.654 0.896 -26.288 0.896 -26.288 0.443 63.654
20266.25 0.443 63.623 0.896 -26.319 0.896 -26.319 0.443 63.623
20291.208 0.444 63.593 0.896 -26.349 0.896 -26.349 0.444 63.593
20316.167 0.444 63.563 0.895 -26.38 0.895 -26.38 0.444 63.563
20341.125 0.445 63.532 0.895 -26.41 0.895 -26.41 0.445 63.532
20366.083 0.445 63.502 0.895 -26.44 0.895 -26.44 0.445 63.502
20391.042 0.446 63.472 0.895 -26.471 0.895 -26.471 0.446 63.472
20416 0.446 63.442 0.894 -26.501 0.894 -26.501 0.446 63.442
20440.958 0.447 63.412 0.894 -26.531 0.894 -26.531 0.447 63.412
20465.917 0.447 63.381 0.894 -26.561 0.894 -26.561 0.447 63.381
20490.875 0.448 63.351 0.894 -26.592 0.894 -26.592 0.448 63.351
20515.833 0.448 63.321 0.894 -26.622 0.894 -26.622 0.448 63.321
20540.792 0.449 63.291 0.893 -26.652 0.893 -26.652 0.449 63.291
20565.75 0.449 63.261 0.893 -26.682 0.893 -26.682 0.449 63.261
20590.708 0.45 63.231 0.893 -26.712 0.893 -26.712 0.45 63.231
20615.667 0.45 63.201 0.893 -26.742 0.893 -26.742 0.45 63.201
20640.625 0.45 63.171 0.892 -26.772 0.892 -26.772 0.45 63.171
20665.583 0.451 63.141 0.892 -26.803 0.892 -26.803 0.451 63.141
20690.542 0.451 63.111 0.892 -26.833 0.892 -26.833 0.451 63.111
20715.5 0.452 63.081 0.892 -26.863 0.892 -26.863 0.452 63.081
20740.458 0.452 63.051 0.891 -26.893 0.891 -26.893 0.452 63.051
20765.417 0.453 63.021 0.891 -26.923 0.891 -26.923 0.453 63.021
20790.375 0.453 62.991 0.891 -26.953 0.891 -26.953 0.453 62.991
20815.333 0.454 62.961 0.891 -26.983 0.891 -26.983 0.454 62.961
20840.292 0.454 62.931 0.89 -27.013 0.89 -27.013 0.454 62.931
20865.25 0.455 62.901 0.89 -27.043 0.89 -27.043 0.455 62.901
20890.208 0.455 62.871 0.89 -27.073 0.89 -27.073 0.455 62.871
20915.167 0.456 62.842 0.89 -27.102 0.89 -27.102 0.456 62.842
20940.125 0.456 62.812 0.89 -27.132 0.89 -27.132 0.456 62.812
20965.083 0.457 62.782 0.889 -27.162 0.889 -27.162 0.457 62.782
20990.042 0.457 62.752 0.889 -27.192 0.889 -27.192 0.457 62.752
21015 0.457 62.722 0.889 -27.222 0.889 -27.222 0.457 62.722
21039.958 0.458 62.693 0.889 -27.252 0.889 -27.252 0.458 62.693
21064.917 0.458 62.663 0.888 -27.282 0.888 -27.282 0.458 62.663
21089.875 0.459 62.633 0.888 -27.311 0.888 -27.311 0.459 62.633
21114.833 0.459 62.603 0.888 -27.341 0.888 -27.341 0.459 62.603
21139.792 0.46 62.574 0.888 -27.371 0.888 -27.371 0.46 62.574
21164.75 0.46 62.544 0.887 -27.401 0.887 -27.401 0.46 62.544
21189.708 0.461 62.515 0.887 -27.43 0.887 -27.43 0.461 62.515
21214.667 0.461 62.485 0.887 -27.46 0.887 -27.46 0.461 62.485
21239.625 0.462 62.455 0.887 -27.49 0.887 -27.49 0.462 62.455
21264.583 0.462 62.426 0.886 -27.519 0.886 -27.519 0.462 62.426
21289.542 0.463 62.396 0.886 -27.549 0.886 -27.549 0.463 62.396
21314.5 0.463 62.367 0.886 -27.578 0.886 -27.578 0.463 62.367
21339.458 0.463 62.337 0.886 -27.608 0.886 -27.608 0.463 62.337
21364.417 0.464 62.308 0.885 -27.638 0.885 -27.638 0.464 62.308
21389.375 0.464 62.278 0.885 -27.667 0.885 -27.667 0.464 62.278
21414.333 0.465 62.249 0.885 -27.697 0.885 -27.697 0.465 62.249
21439.292 0.465 62.219 0.885 -27.726 0.885 -27.726 0.465 62.219
21464.25 0.466 62.19 0.884 -27.756 0.884 -27.756 0.466 62.19
21489.208 0.466 62.16 0.884 -27.785 0.884 -27.785 0.466 62.16
21514.167 0.467 62.131 0.884 -27.815 0.884 -27.815 0.467 62.131
21539.125 0.467 62.102 0.884 -27.844 0.884 -27.844 0.467 62.102
21564.083 0.468 62.072 0.884 -27.874 0.884 -27.874 0.468 62.072
21589.042 0.468 62.043 0.883 -27.903 0.883 -27.903 0.468 62.043
21614 0.468 62.014 0.883 -27.932 0.883 -27.932 0.468 62.014
21638.958 0.469 61.984 0.883 -27.962 0.883 -27.962 0.469 61.984
21663.917 0.469 61.955 0.883 -27.991 0.883 -27.991 0.469 61.955
21688.875 0.47 61.926 0.882 -28.02 0.882 -28.02 0.47 61.926
21713.833 0.47 61.896 0.882 -28.05 0.882 -28.05 0.47 61.896
21738.792 0.471 61.867 0.882 -28.079 0.882 -28.079 0.471 61.867
21763.75 0.471 61.838 0.882 -28.108 0.882 -28.108 0.471 61.838
21788.708 0.472 61.809 0.881 -28.138 0.881 -28.138 0.472 61.809
21813.667 0.472 61.78 0.881 -28.167 0.881 -28.167 0.472 61.78
21838.625 0.472 61.75 0.881 -28.196 0.881 -28.196 0.472 61.75
21863.583 0.473 61.721 0.881 -28.225 0.881 -28.225 0.473 61.721
21888.542 0.473 61.692 0.88 -28.254 0.88 -28.254 0.473 61.692
21913.5 0.474 61.663 0.88 -28.284 0.88 -28.284 0.474 61.663
21938.458 0.474 61.634 0.88 -28.313 0.88 -28.313 0.474 61.634
21963.417 0.475 61.605 0.88 -28.342 0.88 -28.342 0.475 61.605
21988.375 0.475 61.576 0.879 -28.371 0.879 -28.371 0.475 61.576
22013.333 0.476 61.547 0.879 -28.4 0.879 -28.4 0.476 61.547
22038.292 0.476 61.518 0.879 -28.429 0.879 -28.429 0.476 61.518
22063.25 0.477 61.489 0.879 -28.458 0.879 -28.458 0.477 61.489
22088.208 0.477 61.46 0.878 -28.487 0.878 -28.487 0.477 61.46
22113.167 0.477 61.431 0.878 -28.516 0.878 -28.516 0.477 61.431
22138.125 0.478 61.402 0.878 -28.545 0.878 -28.545 0.478 61.402
22163.083 0.478 61.373 0.878 -28.574 0.878 -28.574 0.478 61.373
22188.042 0.479 61.344 0.878 -28.603 0.878 -28.603 0.479 61.344
22213 0.479 61.315 0.877 -28.632 0.877 -28.632 0.479 61.315
22237.958 0.48 61.286 0.877 -28.661 0.877 -28.661 0.48 61.286
22262.917 0.48 61.257 0.877 -28.69 0.877 -28.69 0.48 61.257
22287.875 0.481 61.229 0.877 -28.719 0.877 -28.719 0.481 61.229
22312.833 0.481 61.2 0.876 -28.748 0.876 -28.748 0.481 61.2
22337.792 0.481 61.171 0.876 -28.777 0.876 -28.777 0.481 61.171
22362.75 0.482 61.142 0.876 -28.806 0.876 -28.806 0.482 61.142
22387.708 0.482 61.113 0.876 -28.834 0.876 -28.834 0.482 61.113
22412.667 0.483 61.085 0.875 -28.863 0.875 -28.863 0.483 61.085
22437.625 0.483 61.056 0.875 -28.892 0.875 -28.892 0.483 61.056
22462.583 0.484 61.027 0.875 -28.921 0.875 -28.921 0.484 61.027
22487.542 0.484 60.999 0.875 -28.95 0.875 -28.95 0.484 60.999
22512.5 0.484 60.97 0.874 -28.978 0.874 -28.978 0.484 60.97
22537.458 0.485 60.941 0.874 -29.007 0.874 -29.007 0.485 60.941
22562.417 0.485 60.913 0.874 -29.036 0.874 -29.036 0.485 60.913
22587.375 0.486 60.884 0.874 -29.064 0.874 -29.064 0.486 60.884
22612.333 0.486 60.855 0.873 -29.093 0.873 -29.093 0.486 60.855
22637.292 0.487 60.827 0.873 -29.122 0.873 -29.122 0.487 60.827
22662.25 0.487 60.798 0.873 -29.15 0.873 -29.15 0.487 60.798
22687.208 0.488 60.77 0.873 -29.179 0.873 -29.179 0.488 60.77
22712.167 0.488 60.741 0.872 -29.208 0.872 -29.208 0.488 60.741
22737.125 0.488 60.713 0.872 -29.236 0.872 -29.236 0.488 60.713
22762.083 0.489 60.684 0.872 -29.265 0.872 -29.265 0.489 60.684
22787.042 0.489 60.656 0.872 -29.293 0.872 -29.293 0.489 60.656
22812 0.49 60.627 0.871 -29.322 0.871 -29.322 0.49 60.627
22836.958 0.49 60.599 0.871 -29.35 0.871 -29.35 0.49 60.599
22861.917 0.491 60.57 0.871 -29.379 0.871 -29.379 0.491 60.57
22886.875 0.491 60.542 0.871 -29.407 0.871 -29.407 0.491 60.542
22911.833 0.491 60.513 0.87 -29.436 0.87 -29.436 0.491 60.513
22936.792 0.492 60.485 0.87 -29.464 0.87 -29.464 0.492 60.485
22961.75 0.492 60.457 0.87 -29.493 0.87 -29.493 0.492 60.457
22986.708 0.493 60.428 0.87 -29.521 0.87 -29.521 0.493 60.428
23011.667 0.493 60.4 0.869 -29.549 0.869 -29.549 0.493 60.4
23036.625 0.494 60.372 0.869 -29.578 0.869 -29.578 0.494 60.372
23061.583 0.494 60.343 0.869 -29.606 0.869 -29.606 0.494 60.343
23086.542 0.494 60.315 0.869 -29.634 0.869 -29.634 0.494 60.315
23111.5 0.495 60.287 0.869 -29.663 0.869 -29.663 0.495 60.287
23136.458 0.495 60.259 0.868 -29.691 0.868 -29.691 0.495 60.259
23161.417 0.496 60.231 0.868 -29.719 0.868 -29.719 0.496 60.231
23186.375 0.496 60.202 0.868 -29.748 0.868 -29.748 0.496 60.202
23211.333 0.497 60.174 0.868 -29.776 0.868 -29.776 0.497 60.174
23236.292 0.497 60.146 0.867 -29.804 0.867 -29.804 0.497 60.146
23261.25 0.497 60.118 0.867 -29.832 0.867 -29.832 0.497 60.118
23286.208 0.498 60.09 0.867 -29.86 0.867 -29.86 0.498 60.09
23311.167 0.498 60.062 0.867 -29.889 0.867 -29.889 0.498 60.062
23336.125 0.499 60.033 0.866 -29.917 0.866 -29.917 0.499 60.033
23361.083 0.499 60.005 0.866 -29.945 0.866 -29.945 0.499 60.005
23386.042 0.5 59.977 0.866 -29.973 0.866 -29.973 0.5 59.977
23411 0.5 59.949 0.866 -30.001 0.866 -30.001 0.5 59.949
23435.958 0.5 59.921 0.865 -30.029 0.865 -30.029 0.5 59.921
23460.917 0.501 59.893 0.865 -30.057 0.865 -30.057 0.501 59.893
23485.875 0.501 59.865 0.865 -30.085 0.865 -30.085 0.501 59.865
23510.833 0.502 59.837 0.865 -30.113 0.865 -30.113 0.502 59.837
23535.792 0.502 59.809 0.864 -30.141 0.864 -30.141 0.502 59.809
23560.75 0.503 59.781 0.864 -30.169 0.864 -30.169 0.503 59.781
23585.708 0.503 59.754 0.864 -30.197 0.864 -30.197 0.503 59.754
23610.667 0.503 59.726 0.864 -30.225 0.864 -30.225 0.503 59.726
23635.625 0.504 59.698 0.863 -30.253 0.863 -30.253 0.504 59.698
23660.583 0.504 59.67 0.863 -30.281 0.863 -30.281 0.504 59.67
23685.542 0.505 59.642 0.863 -30.309 0.863 -30.309 0.505 59.642
23710.5 0.505 59.614 0.863 -30.337 0.863 -30.337 0.505 59.614
23735.458 0.506 59.586 0.862 -30.365 0.862 -30.365 0.506 59.586
23760.417 0.506 59.559 0.862 -30.393 0.862 -30.393 0.506 59.559
23785.375 0.506 59.531 0.862 -30.42 0.862 -30.42 0.506 59.531
23810.333 0.507 59.503 0.862 -30.448 0.862 -30.448 0.507 59.503
23835.292 0.507 59.475 0.861 -30.476 0.861 -30.476 0.507 59.475
23860.25 0.508 59.448 0.861 -30.504 0.861 -30.504 0.508 59.448
23885.208 0.508 59.42 0.861 -30.532 0.861 -30.532 0.508 59.42
23910.167 0.508 59.392 0.861 -30.559 0.861 -30.559 0.508 59.392
23935.125 0.509 59.364 0.86 -30.587 0.86 -30.587 0.509 59.364
23960.083 0.509 59.337 0.86 -30.615 0.86 -30.615 0.509 59.337
23985.042 0.51 59.309 0.86 -30.642 0.86 -30.642 0.51 59.309
24010 0.51 59.282 0.86 -30.67 0.86 -30.67 0.51 59.282
24034.958 0.511 59.254 0.859 -30.698 0.859 -30.698 0.511 59.254
24059.917 0.511 59.226 0.859 -30.725 0.859 -30.725 0.511 59.226
24084.875 0.511 59.199 0.859 -30.753 0.859 -30.753 0.511 59.199
24109.833 0.512 59.171 0.859 -30.781 0.859 -30.781 0.512 59.171
24134.792 0.512 59.144 0.858 -30.808 0.858 -30.808 0.512 59.144
24159.75 0.513 59.116 0.858 -30.836 0.858 -30.836 0.513 59.116
24184.708 0.513 59.089 0.858 -30.863 0.858 -30.863 0.513 59.089
24209.667 0.513 59.061 0.858 -30.891 0.858 -30.891 0.513 59.061
24234.625 0.514 59.034 0.857 -30.918 0.857 -30.918 0.514 59.034
24259.583 0.514 59.006 0.857 -30.946 0.857 -30.946 0.514 59.006
24284.542 0.515 58.979 0.857 -30.973 0.857 -30.973 0.515 58.979
24309.5 0.515 58.951 0.857 -31.001 0.857 -31.001 0.515 58.951
24334.458 0.515 58.924 0.856 -31.028 0.856 -31.028 0.515 58.924
24359.417 0.516 58.897 0.856 -31.056 0.856 -31.056 0.516 58.897
24384.375 0.516 58.869 0.856 -31.083 0.856 -31.083 0.516 58.869
24409.333 0.517 58.842 0.856 -31.111 0.856 -31.111 0.517 58.842
24434.292 0.517 58.815 0.855 -31.138 0.855 -31.138 0.517 58.815
24459.25 0.518 58.787 0.855 -31.165 0.855 -31.165 0.518 58.787
24484.208 0.518 58.76 0.855 -31.193 0.855 -31.193 0.518 58.76
24509.167 0.518 58.733 0.855 -31.22 0.855 -31.22 0.518 58.733
24534.125 0.519 58.705 0.855 -31.247 0.855 -31.247 0.519 58.705
24559.083 0.519 58.678 0.854 -31.275 0.854 -31.275 0.519 58.678
24584.042 0.52 58.651 0.854 -31.302 0.854 -31.302 0.52 58.651
24609 0.52 58.624 0.854 -31.329 0.854 -31.329 0.52 58.624
24633.958 0.52 58.597 0.854 -31.356 0.854 -31.356 0.52 58.597
24658.917 0.521 58.569 0.853 -31.384 0.853 -31.384 0.521 58.569
24683.875 0.521 58.542 0.853 -31.411 0.853 -31.411 0.521 58.542
24708.833 0.522 58.515 0.853 -31.438 0.853 -31.438 0.522 58.515
24733.792 0.522 58.488 0.853 -31.465 0.853 -31.465 0.522 58.488
24758.75 0.522 58.461 0.852 -31.492 0.852 -31.492 0.522 58.461
24783.708 0.523 58.434 0.852 -31.519 0.852 -31.519 0.523 58.434
24808.667 0.523 58.407 0.852 -31.547 0.852 -31.547 0.523 58.407
24833.625 0.524 58.38 0.852 -31.574 0.852 -31.574 0.524 58.38
24858.583 0.524 58.353 0.851 -31.601 0.851 -31.601 0.524 58.353
24883.542 0.524 58.326 0.851 -31.628 0.851 -31.628 0.524 58.326
24908.5 0.525 58.299 0.851 -31.655 0.851 -31.655 0.525 58.299
24933.458 0.525 58.272 0.851 -31.682 0.851 -31.682 0.525 58.272
24958.417 0.526 58.245 0.85 -31.709 0.85 -31.709 0.526 58.245
24983.375 0.526 58.218 0.85 -31.736 0.85 -31.736 0.526 58.218
25008.333 0.526 58.191 0.85 -31.763 0.85 -31.763 0.526 58.191
25033.292 0.527 58.164 0.85 -31.79 0.85 -31.79 0.527 58.164
25058.25 0.527 58.137 0.849 -31.817 0.849 -31.817 0.527 58.137
25083.208 0.528 58.11 0.849 -31.844 0.849 -31.844 0.528 58.11
25108.167 0.528 58.083 0.849 -31.871 0.849 -31.871 0.528 58.083
25133.125 0.528 58.056 0.849 -31.898 0.849 -31.898 0.528 58.056
25158.083 0.529 58.03 0.848 -31.924 0.848 -31.924 0.529 58.03
25183.042 0.529 58.003 0.848 -31.951 0.848 -31.951 0.529 58.003
25208 0.53 57.976 0.848 -31.978 0.848 -31.978 0.53 57.976
25232.958 0.53 57.949 0.848 -32.005 0.848 -32.005 0.53 57.949
25257.917 0.53 57.922 0.847 -32.032 0.847 -32.032 0.53 57.922
25282.875 0.531 57.896 0.847 -32.059 0.847 -32.059 0.531 57.896
25307.833 0.531 57.869 0.847 -32.085 0.847 -32.085 0.531 57.869
25332.792 0.532 57.842 0.847 -32.112 0.847 -32.112 0.532 57.842
25357.75 0.532 57.815 0.846 -32.139 0.846 -32.139 0.532 57.815
25382.708 0.532 57.789 0.846 -32.166 0.846 -32.166 0.532 57.789
25407.667 0.533 57.762 0.846 -32.192 0.846 -32.192 0.533 57.762
25432.625 0.533 57.735 0.846 -32.219 0.846 -32.219 0.533 57.735
25457.583 0.534 57.709 0.845 -32.246 0.845 -32.246 0.534 57.709
25482.542 0.534 57.682 0.845 -32.272 0.845 -32.272 0.534 57.682
25507.5 0.534 57.656 0.845 -32.299 0.845 -32.299 0.534 57.656
25532.458 0.535 57.629 0.845 -32.326 0.845 -32.326 0.535 57.629
25557.417 0.535 57.602 0.844 -32.352 0.844 -32.352 0.535 57.602
25582.375 0.536 57.576 0.844 -32.379 0.844 -32.379 0.536 57.576
25607.333 0.536 57.549 0.844 -32.405 0.844 -32.405 0.536 57.549
25632.292 0.536 57.523 0.844 -32.432 0.844 -32.432 0.536 57.523
25657.25 0.537 57.496 0.843 -32.459 0.843 -32.459 0.537 57.496
25682.208 0.537 57.47 0.843 -32.485 0.843 -32.485 0.537 57.47
25707.167 0.537 57.443 0.843 -32.512 0.843 -32.512 0.537 57.443
25732.125 0.538 57.417 0.843 -32.538 0.843 -32.538 0.538 57.417
25757.083 0.538 57.391 0.842 -32.565 0.842 -32.565 0.538 57.391
25782.042 0.539 57.364 0.842 -32.591 0.842 -32.591 0.539 57.364
25807 0.539 57.338 0.842 -32.617 0.842 -32.617 0.539 57.338
25831.958 0.539 57.311 0.842 -32.644 0.842 -32.644 0.539 57.311
25856.917 0.54 57.285 0.841 -32.67 0.841 -32.67 0.54 57.285
25881.875 0.54 57.259 0.841 -32.697 0.841 -32.697 0.54 57.259
25906.833 0.541 57.232 0.841 -32.723 0.841 -32.723 0.541 57.232
25931.792 0.541 57.206 0.841 -32.749 0.841 -32.749 0.541 57.206
25956.75 0.541 57.18 0.84 -32.776 0.84 -32.776 0.541 57.18
25981.708 0.542 57.153 0.84 -32.802 0.84 -32.802 0.542 57.153
26006.667 0.542 57.127 0.84 -32.828 0.84 -32.828 0.542 57.127
26031.625 0.543 57.101 0.84 -32.855 0.84 -32.855 0.543 57.101
26056.583 0.543 57.075 0.839 -32.881 0.839 -32.881 0.543 57.075
26081.542 0.543 57.048 0.839 -32.907 0.839 -32.907 0.543 57.048
26106.5 0.544 57.022 0.839 -32.933 0.839 -32.933 0.544 57.022
26131.458 0.544 56.996 0.839 -32.96 0.839 -32.96 0.544 56.996
26156.417 0.544 56.97 0.838 -32.986 0.838 -32.986 0.544 56.97
26181.375 0.545 56.944 0.838 -33.012 0.838 -33.012 0.545 56.944
26206.333 0.545 56.918 0.838 -33.038 0.838 -33.038 0.545 56.918
26231.292 0.546 56.892 0.838 -33.064 0.838 -33.064 0.546 56.892
26256.25 0.546 56.865 0.837 -33.091 0.837 -33.091 0.546 56.865
26281.208 0.546 56.839 0.837 -33.117 0.837 -33.117 0.546 56.839
26306.167 0.547 56.813 0.837 -33.143 0.837 -33.143 0.547 56.813
26331.125 0.547 56.787 0.837 -33.169 0.837 -33.169 0.547 56.787
26356.083 0.547 56.761 0.836 -33.195 0.836 -33.195 0.547 56.761
26381.042 0.548 56.735 0.836 -33.221 0.836 -33.221 0.548 56.735
26406 0.548 56.709 0.836 -33.247 0.836 -33.247 0.548 56.709
26430.958 0.549 56.683 0.836 -33.273 0.836 -33.273 0.549 56.683
26455.917 0.549 56.657 0.835 -33.299 0.835 -33.299 0.549 56.657
26480.875 0.549 56.631 0.835 -33.325 0.835 -33.325 0.549 56.631
26505.833 0.55 56.605 0.835 -33.351 0.835 -33.351 0.55 56.605
26530.792 0.55 56.58 0.835 -33.377 0.835 -33.377 0.55 56.58
26555.75 0.551 56.554 0.834 -33.403 0.834 -33.403 0.551 56.554
26580.708 0.551 56.528 0.834 -33.429 0.834 -33.429 0.551 56.528
26605.667 0.551 56.502 0.834 -33.455 0.834 -33.455 0.551 56.502
26630.625 0.552 56.476 0.834 -33.481 0.834 -33.481 0.552 56.476
26655.583 0.552 56.45 0.833 -33.506 0.833 -33.506 0.552 56.45
26680.542 0.552 56.424 0.833 -33.532 0.833 -33.532 0.552 56.424
26705.5 0.553 56.399 0.833 -33.558 0.833 -33.558 0.553 56.399
26730.458 0.553 56.373 0.833 -33.584 0.833 -33.584 0.553 56.373
26755.417 0.554 56.347 0.832 -33.61 0.832 -33.61 0.554 56.347
26780.375 0.554 56.321 0.832 -33.636 0.832 -33.636 0.554 56.321
26805.333 0.554 56.296 0.832 -33.661 0.832 -33.661 0.554 56.296
26830.292 0.555 56.27 0.832 -33.687 0.832 -33.687 0.555 56.27
26855.25 0.555 56.244 0.831 -33.713 0.831 -33.713 0.555 56.244
26880.208 0.555 56.218 0.831 -33.739 0.831 -33.739 0.555 56.218
26905.167 0.556 56.193 0.831 -33.764 0.831 -33.764 0.556 56.193
26930.125 0.556 56.167 0.831 -33.79 0.831 -33.79 0.556 56.167
26955.083 0.557 56.142 0.83 -33.816 0.83 -33.816 0.557 56.142
26980.042 0.557 56.116 0.83 -33.841 0.83 -33.841 0.557 56.116
27005 0.557 56.09 0.83 -33.867 0.83 -33.867 0.557 56.09
27029.958 0.558 56.065 0.83 -33.893 0.83 -33.893 0.558 56.065
27054.917 0.558 56.039 0.829 -33.918 0.829 -33.918 0.558 56.039
27079.875 0.558 56.014 0.829 -33.944 0.829 -33.944 0.558 56.014
27104.833 0.559 55.988 0.829 -33.969 0.829 -33.969 0.559 55.988
27129.792 0.559 55.963 0.829 -33.995 0.829 -33.995 0.559 55.963
27154.75 0.559 55.937 0.828 -34.02 0.828 -34.02 0.559 55.937
27179.708 0.56 55.912 0.828 -34.046 0.828 -34.046 0.56 55.912
27204.667 0.56 55.886 0.828 -34.072 0.828 -34.072 0.56 55.886
27229.625 0.561 55.861 0.828 -34.097 0.828 -34.097 0.561 55.861
27254.583 0.561 55.835 0.827 -34.123 0.827 -34.123 0.561 55.835
27279.542 0.561 55.81 0.827 -34.148 0.827 -34.148 0.561 55.81
27304.5 0.562 55.784 0.827 -34.173 0.827 -34.173 0.562 55.784
27329.458 0.562 55.759 0.827 -34.199 0.827 -34.199 0.562 55.759
27354.417 0.562 55.734 0.826 -34.224 0.826 -34.224 0.562 55.734
27379.375 0.563 55.708 0.826 -34.25 0.826 -34.25 0.563 55.708
27404.333 0.563 55.683 0.826 -34.275 0.826 -34.275 0.563 55.683
27429.292 0.564 55.658 0.826 -34.3 0.826 -34.3 0.564 55.658
27454.25 0.564 55.632 0.825 -34.326 0.825 -34.326 0.564 55.632
27479.208 0.564 55.607 0.825 -34.351 0.825 -34.351 0.564 55.607
27504.167 0.565 55.582 0.825 -34.376 0.825 -34.376 0.565 55.582
27529.125 0.565 55.556 0.825 -34.402 0.825 -34.402 0.565 55.556
27554.083 0.565 55.531 0.824 -34.427 0.824 -34.427 0.565 55.531
27579.042 0.566 55.506 0.824 -34.452 0.824 -34.452 0.566 55.506
27604 0.566 55.481 0.824 -34.477 0.824 -34.477 0.566 55.481
27628.958 0.566 55.456 0.824 -34.503 0.824 -34.503 0.566 55.456
27653.917 0.567 55.43 0.823 -34.528 0.823 -34.528 0.567 55.43
27678.875 0.567 55.405 0.823 -34.553 0.823 -34.553 0.567 55.405
27703.833 0.568 55.38 0.823 -34.578 0.823 -34.578 0.568 55.38
27728.792 0.568 55.355 0.823 -34.604 0.823 -34.604 0.568 55.355
27753.75 0.568 55.33 0.822 -34.629 0.822 -34.629 0.568 55.33
27778.708 0.569 55.305 0.822 -34.654 0.822 -34.654 0.569 55.305
27803.667 0.569 55.28 0.822 -34.679 0.822 -34.679 0.569 55.28
27828.625 0.569 55.255 0.822 -34.704 0.822 -34.704 0.569 55.255
27853.583 0.57 55.23 0.821 -34.729 0.821 -34.729 0.57 55.23
27878.542 0.57 55.204 0.821 -34.754 0.821 -34.754 0.57 55.204
27903.5 0.57 55.179 0.821 -34.779 0.821 -34.779 0.57 55.179
27928.458 0.571 55.154 0.821 -34.804 0.821 -34.804 0.571 55.154
27953.417 0.571 55.129 0.82 -34.829 0.82 -34.829 0.571 55.129
27978.375 0.571 55.105 0.82 -34.854 0.82 -34.854 0.571 55.105
28003.333 0.572 55.08 0.82 -34.879 0.82 -34.879 0.572 55.08
28028.292 0.572 55.055 0.82 -34.904 0.82 -34.904 0.572 55.055
28053.25 0.573 55.03 0.819 -34.929 0.819 -34.929 0.573 55.03
28078.208 0.573 55.005 0.819 -34.954 0.819 -34.954 0.573 55.005
28103.167 0.573 54.98 0.819 -34.979 0.819 -34.979 0.573 54.98
28128.125 0.574 54.955 0.819 -35.004 0.819 -35.004 0.574 54.955
28153.083 0.574 54.93 0.818 -35.029 0.818 -35.029 0.574 54.93
28178.042 0.574 54.905 0.818 -35.054 0.818 -35.054 0.574 54.905
28203 0.575 54.881 0.818 -35.079 0.818 -35.079 0.575 54.881
28227.958 0.575 54.856 0.818 -35.103 0.818 -35.103 0.575 54.856
28252.917 0.575 54.831 0.817 -35.128 0.817 -35.128 0.575 54.831
28277.875 0.576 54.806 0.817 -35.153 0.817 -35.153 0.576 54.806
28302.833 0.576 54.781 0.817 -35.178 0.817 -35.178 0.576 54.781
28327.792 0.576 54.757 0.817 -35.203 0.817 -35.203 0.576 54.757
28352.75 0.577 54.732 0.816 -35.227 0.816 -35.227 0.577 54.732
28377.708 0.577 54.707 0.816 -35.252 0.816 -35.252 0.577 54.707
28402.667 0.578 54.682 0.816 -35.277 0.816 -35.277 0.578 54.682
28427.625 0.578 54.658 0.816 -35.302 0.816 -35.302 0.578 54.658
28452.583 0.578 54.633 0.815 -35.326 0.815 -35.326 0.578 54.633
28477.542 0.579 54.608 0.815 -35.351 0.815 -35.351 0.579 54.608
28502.5 0.579 54.584 0.815 -35.376 0.815 -35.376 0.579 54.584
28527.458 0.579 54.559 0.815 -35.4 0.815 -35.4 0.579 54.559
28552.417 0.58 54.535 0.814 -35.425 0.814 -35.425 0.58 54.535
28577.375 0.58 54.51 0.814 -35.45 0.814 -35.45 0.58 54.51
28602.333 0.58 54.485 0.814 -35.474 0.814 -35.474 0.58 54.485
28627.292 0.581 54.461 0.814 -35.499 0.814 -35.499 0.581 54.461
28652.25 0.581 54.436 0.813 -35.523 0.813 -35.523 0.581 54.436
28677.208 0.581 54.412 0.813 -35.548 0.813 -35.548 0.581 54.412
28702.167 0.582 54.387 0.813 -35.573 0.813 -35.573 0.582 54.387
28727.125 0.582 54.363 0.813 -35.597 0.813 -35.597 0.582 54.363
28752.083 0.582 54.338 0.812 -35.622 0.812 -35.622 0.582 54.338
28777.042 0.583 54.314 0.812 -35.646 0.812 -35.646 0.583 54.314
28802 0.583 54.289 0.812 -35.671 0.812 -35.671 0.583 54.289
28826.958 0.583 54.265 0.812 -35.695 0.812 -35.695 0.583 54.265
28851.917 0.584 54.241 0.811 -35.719 0.811 -35.719 0.584 54.241
28876.875 0.584 54.216 0.811 -35.744 0.811 -35.744 0.584 54.216
28901.833 0.585 54.192 0.811 -35.768 0.811 -35.768 0.585 54.192
28926.792 0.585 54.167 0.811 -35.793 0.811 -35.793 0.585 54.167
28951.75 0.585 54.143 0.81 -35.817 0.81 -35.817 0.585 54.143
28976.708 0.586 54.119 0.81 -35.841 0.81 -35.841 0.586 54.119
29001.667 0.586 54.094 0.81 -35.866 0.81 -35.866 0.586 54.094
29026.625 0.586 54.07 0.81 -35.89 0.81 -35.89 0.586 54.07
29051.583 0.587 54.046 0.809 -35.915 0.809 -35.915 0.587 54.046
29076.542 0.587 54.022 0.809 -35.939 0.809 -35.939 0.587 54.022
29101.5 0.587 53.997 0.809 -35.963 0.809 -35.963 0.587 53.997
29126.458 0.588 53.973 0.809 -35.987 0.809 -35.987 0.588 53.973
29151.417 0.588 53.949 0.808 -36.012 0.808 -36.012 0.588 53.949
29176.375 0.588 53.925 0.808 -36.036 0.808 -36.036 0.588 53.925
29201.333 0.589 53.901 0.808 -36.06 0.808 -36.06 0.589 53.901
29226.292 0.589 53.876 0.808 -36.084 0.808 -36.084 0.589 53.876
29251.25 0.589 53.852 0.807 -36.109 0.807 -36.109 0.589 53.852
29276.208 0.59 53.828 0.807 -36.133 0.807 -36.133 0.59 53.828
29301.167 0.59 53.804 0.807 -36.157 0.807 -36.157 0.59 53.804
29326.125 0.59 53.78 0.807 -36.181 0.807 -36.181 0.59 53.78
29351.083 0.591 53.756 0.807 -36.205 0.807 -36.205 0.591 53.756
29376.042 0.591 53.732 0.806 -36.229 0.806 -36.229 0.591 53.732
29401 0.591 53.708 0.806 -36.253 0.806 -36.253 0.591 53.708
29425.958 0.592 53.683 0.806 -36.277 0.806 -36.277 0.592 53.683
29450.917 0.592 53.659 0.806 -36.302 0.806 -36.302 0.592 53.659
29475.875 0.592 53.635 0.805 -36.326 0.805 -36.326 0.592 53.635
29500.833 0.593 53.611 0.805 -36.35 0.805 -36.35 0.593 53.611
29525.792 0.593 53.587 0.805 -36.374 0.805 -36.374 0.593 53.587
29550.75 0.593 53.563 0.805 -36.398 0.805 -36.398 0.593 53.563
29575.708 0.594 53.539 0.804 -36.422 0.804 -36.422 0.594 53.539
29600.667 0.594 53.516 0.804 -36.446 0.804 -36.446 0.594 53.516
29625.625 0.594 53.492 0.804 -36.47 0.804 -36.47 0.594 53.492
29650.583 0.595 53.468 0.804 -36.494 0.804 -36.494 0.595 53.468
29675.542 0.595 53.444 0.803 -36.517 0.803 -36.517 0.595 53.444
29700.5 0.595 53.42 0.803 -36.541 0.803 -36.541 0.595 53.42
29725.458 0.596 53.396 0.803 -36.565 0.803 -36.565 0.596 53.396
29750.417 0.596 53.372 0.803 -36.589 0.803 -36.589 0.596 53.372
29775.375 0.596 53.348 0.802 -36.613 0.802 -36.613 0.596 53.348
29800.333 0.597 53.325 0.802 -36.637 0.802 -36.637 0.597 53.325
29825.292 0.597 53.301 0.802 -36.661 0.802 -36.661 0.597 53.301
29850.25 0.597 53.277 0.802 -36.685 0.802 -36.685 0.597 53.277
29875.208 0.598 53.253 0.801 -36.708 0.801 -36.708 0.598 53.253
29900.167 0.598 53.229 0.801 -36.732 0.801 -36.732 0.598 53.229
29925.125 0.598 53.206 0.801 -36.756 0.801 -36.756 0.598 53.206
29950.083 0.599 53.182 0.801 -36.78 0.801 -36.78 0.599 53.182
29975.042 0.599 53.158 0.8 -36.803 0.8 -36.803 0.599 53.158
30000 0.599 53.135 0.8 -36.827 0.8 -36.827 0.599 53.135
