!	AVX Thin Film Operation 	Date: April 2014		
!	Description: Accu-P® Series, Thin Film  SMD RF Capacitor
!	Part Number: 04021J0R1ZBSTR					
!								
# MHZ S MA R 50

50 1 -0.18 3.142e-3 89.818 3.142e-3 89.818 1 -0.18
74.958 1 -0.27 4.71e-3 89.727 4.71e-3 89.727 1 -0.27
99.917 1 -0.36 6.278e-3 89.636 6.278e-3 89.636 1 -0.36
124.875 1 -0.45 7.846e-3 89.545 7.846e-3 89.545 1 -0.45
149.833 1 -0.539 9.414e-3 89.455 9.414e-3 89.455 1 -0.539
174.792 1 -0.629 0.011 89.364 0.011 89.364 1 -0.629
199.75 1 -0.719 0.013 89.273 0.013 89.273 1 -0.719
224.708 1 -0.809 0.014 89.182 0.014 89.182 1 -0.809
249.667 1 -0.899 0.016 89.091 0.016 89.091 1 -0.899
274.625 1 -0.989 0.017 89 0.017 89 1 -0.989
299.583 1 -1.079 0.019 88.909 0.019 88.909 1 -1.079
324.542 1 -1.169 0.02 88.818 0.02 88.818 1 -1.169
349.5 1 -1.258 0.022 88.728 0.022 88.728 1 -1.258
374.458 1 -1.348 0.024 88.637 0.024 88.637 1 -1.348
399.417 1 -1.438 0.025 88.546 0.025 88.546 1 -1.438
424.375 1 -1.528 0.027 88.455 0.027 88.455 1 -1.528
449.333 1 -1.618 0.028 88.364 0.028 88.364 1 -1.618
474.292 1 -1.708 0.03 88.273 0.03 88.273 1 -1.708
499.25 0.999 -1.798 0.031 88.182 0.031 88.182 0.999 -1.798
524.208 0.999 -1.888 0.033 88.091 0.033 88.091 0.999 -1.888
549.167 0.999 -1.978 0.035 88 0.035 88 0.999 -1.978
574.125 0.999 -2.068 0.036 87.909 0.036 87.909 0.999 -2.068
599.083 0.999 -2.158 0.038 87.818 0.038 87.818 0.999 -2.158
624.042 0.999 -2.248 0.039 87.727 0.039 87.727 0.999 -2.248
649 0.999 -2.338 0.041 87.636 0.041 87.636 0.999 -2.338
673.958 0.999 -2.428 0.042 87.545 0.042 87.545 0.999 -2.428
698.917 0.999 -2.518 0.044 87.454 0.044 87.454 0.999 -2.518
723.875 0.999 -2.608 0.045 87.363 0.045 87.363 0.999 -2.608
748.833 0.999 -2.698 0.047 87.272 0.047 87.272 0.999 -2.698
773.792 0.999 -2.788 0.049 87.181 0.049 87.181 0.999 -2.788
798.75 0.999 -2.878 0.05 87.09 0.05 87.09 0.999 -2.878
823.708 0.999 -2.968 0.052 86.999 0.052 86.999 0.999 -2.968
848.667 0.999 -3.058 0.053 86.908 0.053 86.908 0.999 -3.058
873.625 0.998 -3.148 0.055 86.817 0.055 86.817 0.998 -3.148
898.583 0.998 -3.238 0.056 86.726 0.056 86.726 0.998 -3.238
923.542 0.998 -3.328 0.058 86.634 0.058 86.634 0.998 -3.328
948.5 0.998 -3.419 0.06 86.543 0.06 86.543 0.998 -3.419
973.458 0.998 -3.509 0.061 86.452 0.061 86.452 0.998 -3.509
998.417 0.998 -3.599 0.063 86.361 0.063 86.361 0.998 -3.599
1023.375 0.998 -3.689 0.064 86.27 0.064 86.27 0.998 -3.689
1048.333 0.998 -3.779 0.066 86.178 0.066 86.178 0.998 -3.779
1073.292 0.998 -3.87 0.067 86.087 0.067 86.087 0.998 -3.87
1098.25 0.998 -3.96 0.069 85.996 0.069 85.996 0.998 -3.96
1123.208 0.997 -4.05 0.071 85.905 0.071 85.905 0.997 -4.05
1148.167 0.997 -4.14 0.072 85.813 0.072 85.813 0.997 -4.14
1173.125 0.997 -4.231 0.074 85.722 0.074 85.722 0.997 -4.231
1198.083 0.997 -4.321 0.075 85.631 0.075 85.631 0.997 -4.321
1223.042 0.997 -4.411 0.077 85.539 0.077 85.539 0.997 -4.411
1248 0.997 -4.502 0.078 85.448 0.078 85.448 0.997 -4.502
1272.958 0.997 -4.592 0.08 85.356 0.08 85.356 0.997 -4.592
1297.917 0.997 -4.683 0.082 85.265 0.082 85.265 0.997 -4.683
1322.875 0.996 -4.773 0.083 85.174 0.083 85.174 0.996 -4.773
1347.833 0.996 -4.864 0.085 85.082 0.085 85.082 0.996 -4.864
1372.792 0.996 -4.954 0.086 84.991 0.086 84.991 0.996 -4.954
1397.75 0.996 -5.045 0.088 84.899 0.088 84.899 0.996 -5.045
1422.708 0.996 -5.135 0.09 84.807 0.09 84.807 0.996 -5.135
1447.667 0.996 -5.226 0.091 84.716 0.091 84.716 0.996 -5.226
1472.625 0.996 -5.316 0.093 84.624 0.093 84.624 0.996 -5.316
1497.583 0.995 -5.407 0.094 84.533 0.094 84.533 0.995 -5.407
1522.542 0.995 -5.497 0.096 84.441 0.096 84.441 0.995 -5.497
1547.5 0.995 -5.588 0.097 84.349 0.097 84.349 0.995 -5.588
1572.458 0.995 -5.679 0.099 84.258 0.099 84.258 0.995 -5.679
1597.417 0.995 -5.77 0.101 84.166 0.101 84.166 0.995 -5.77
1622.375 0.995 -5.86 0.102 84.074 0.102 84.074 0.995 -5.86
1647.333 0.994 -5.951 0.104 83.982 0.104 83.982 0.994 -5.951
1672.292 0.994 -6.042 0.105 83.89 0.105 83.89 0.994 -6.042
1697.25 0.994 -6.133 0.107 83.799 0.107 83.799 0.994 -6.133
1722.208 0.994 -6.224 0.108 83.707 0.108 83.707 0.994 -6.224
1747.167 0.994 -6.314 0.11 83.615 0.11 83.615 0.994 -6.314
1772.125 0.994 -6.405 0.112 83.523 0.112 83.523 0.994 -6.405
1797.083 0.993 -6.496 0.113 83.431 0.113 83.431 0.993 -6.496
1822.042 0.993 -6.587 0.115 83.339 0.115 83.339 0.993 -6.587
1847 0.993 -6.678 0.116 83.247 0.116 83.247 0.993 -6.678
1871.958 0.993 -6.769 0.118 83.155 0.118 83.155 0.993 -6.769
1896.917 0.993 -6.86 0.119 83.063 0.119 83.063 0.993 -6.86
1921.875 0.992 -6.952 0.121 82.971 0.121 82.971 0.992 -6.952
1946.833 0.992 -7.043 0.123 82.878 0.123 82.878 0.992 -7.043
1971.792 0.992 -7.134 0.124 82.786 0.124 82.786 0.992 -7.134
1996.75 0.992 -7.225 0.126 82.694 0.126 82.694 0.992 -7.225
2021.708 0.992 -7.316 0.127 82.602 0.127 82.602 0.992 -7.316
2046.667 0.991 -7.408 0.129 82.509 0.129 82.509 0.991 -7.408
2071.625 0.991 -7.499 0.131 82.417 0.131 82.417 0.991 -7.499
2096.583 0.991 -7.59 0.132 82.325 0.132 82.325 0.991 -7.59
2121.542 0.991 -7.682 0.134 82.232 0.134 82.232 0.991 -7.682
2146.5 0.991 -7.773 0.135 82.14 0.135 82.14 0.991 -7.773
2171.458 0.99 -7.865 0.137 82.047 0.137 82.047 0.99 -7.865
2196.417 0.99 -7.956 0.138 81.955 0.138 81.955 0.99 -7.956
2221.375 0.99 -8.048 0.14 81.862 0.14 81.862 0.99 -8.048
2246.333 0.99 -8.139 0.142 81.769 0.142 81.769 0.99 -8.139
2271.292 0.989 -8.231 0.143 81.677 0.143 81.677 0.989 -8.231
2296.25 0.989 -8.322 0.145 81.584 0.145 81.584 0.989 -8.322
2321.208 0.989 -8.414 0.146 81.491 0.146 81.491 0.989 -8.414
2346.167 0.989 -8.506 0.148 81.399 0.148 81.399 0.989 -8.506
2371.125 0.989 -8.598 0.149 81.306 0.149 81.306 0.989 -8.598
2396.083 0.988 -8.689 0.151 81.213 0.151 81.213 0.988 -8.689
2421.042 0.988 -8.781 0.153 81.12 0.153 81.12 0.988 -8.781
2446 0.988 -8.873 0.154 81.027 0.154 81.027 0.988 -8.873
2470.958 0.988 -8.965 0.156 80.934 0.156 80.934 0.988 -8.965
2495.917 0.987 -9.057 0.157 80.841 0.157 80.841 0.987 -9.057
2520.875 0.987 -9.149 0.159 80.748 0.159 80.748 0.987 -9.149
2545.833 0.987 -9.241 0.161 80.655 0.161 80.655 0.987 -9.241
2570.792 0.986 -9.333 0.162 80.562 0.162 80.562 0.986 -9.333
2595.75 0.986 -9.425 0.164 80.469 0.164 80.469 0.986 -9.425
2620.708 0.986 -9.518 0.165 80.375 0.165 80.375 0.986 -9.518
2645.667 0.986 -9.61 0.167 80.282 0.167 80.282 0.986 -9.61
2670.625 0.985 -9.702 0.169 80.189 0.169 80.189 0.985 -9.702
2695.583 0.985 -9.794 0.17 80.095 0.17 80.095 0.985 -9.794
2720.542 0.985 -9.887 0.172 80.002 0.172 80.002 0.985 -9.887
2745.5 0.985 -9.979 0.173 79.908 0.173 79.908 0.985 -9.979
2770.458 0.984 -10.072 0.175 79.815 0.175 79.815 0.984 -10.072
2795.417 0.984 -10.164 0.176 79.721 0.176 79.721 0.984 -10.164
2820.375 0.984 -10.257 0.178 79.628 0.178 79.628 0.984 -10.257
2845.333 0.983 -10.349 0.18 79.534 0.18 79.534 0.983 -10.349
2870.292 0.983 -10.442 0.181 79.44 0.181 79.44 0.983 -10.442
2895.25 0.983 -10.535 0.183 79.346 0.183 79.346 0.983 -10.535
2920.208 0.982 -10.627 0.184 79.253 0.184 79.253 0.982 -10.627
2945.167 0.982 -10.72 0.186 79.159 0.186 79.159 0.982 -10.72
2970.125 0.982 -10.813 0.188 79.065 0.188 79.065 0.982 -10.813
2995.083 0.982 -10.906 0.189 78.971 0.189 78.971 0.982 -10.906
3020.042 0.981 -10.999 0.191 78.877 0.191 78.877 0.981 -10.999
3045 0.981 -11.092 0.192 78.783 0.192 78.783 0.981 -11.092
3069.958 0.981 -11.185 0.194 78.688 0.194 78.688 0.981 -11.185
3094.917 0.98 -11.278 0.196 78.594 0.196 78.594 0.98 -11.278
3119.875 0.98 -11.371 0.197 78.5 0.197 78.5 0.98 -11.371
3144.833 0.98 -11.465 0.199 78.406 0.199 78.406 0.98 -11.465
3169.792 0.979 -11.558 0.2 78.311 0.2 78.311 0.979 -11.558
3194.75 0.979 -11.651 0.202 78.217 0.202 78.217 0.979 -11.651
3219.708 0.979 -11.745 0.204 78.122 0.204 78.122 0.979 -11.745
3244.667 0.978 -11.838 0.205 78.028 0.205 78.028 0.978 -11.838
3269.625 0.978 -11.932 0.207 77.933 0.207 77.933 0.978 -11.932
3294.583 0.978 -12.025 0.208 77.839 0.208 77.839 0.978 -12.025
3319.542 0.977 -12.119 0.21 77.744 0.21 77.744 0.977 -12.119
3344.5 0.977 -12.212 0.212 77.649 0.212 77.649 0.977 -12.212
3369.458 0.977 -12.306 0.213 77.554 0.213 77.554 0.977 -12.306
3394.417 0.976 -12.4 0.215 77.46 0.215 77.46 0.976 -12.4
3419.375 0.976 -12.494 0.216 77.365 0.216 77.365 0.976 -12.494
3444.333 0.975 -12.588 0.218 77.27 0.218 77.27 0.975 -12.588
3469.292 0.975 -12.682 0.22 77.175 0.22 77.175 0.975 -12.682
3494.25 0.975 -12.776 0.221 77.079 0.221 77.079 0.975 -12.776
3519.208 0.974 -12.87 0.223 76.984 0.223 76.984 0.974 -12.87
3544.167 0.974 -12.964 0.224 76.889 0.224 76.889 0.974 -12.964
3569.125 0.974 -13.058 0.226 76.794 0.226 76.794 0.974 -13.058
3594.083 0.973 -13.152 0.228 76.698 0.228 76.698 0.973 -13.152
3619.042 0.973 -13.246 0.229 76.603 0.229 76.603 0.973 -13.246
3644 0.972 -13.341 0.231 76.507 0.231 76.507 0.972 -13.341
3668.958 0.972 -13.435 0.232 76.412 0.232 76.412 0.972 -13.435
3693.917 0.972 -13.53 0.234 76.316 0.234 76.316 0.972 -13.53
3718.875 0.971 -13.624 0.236 76.221 0.236 76.221 0.971 -13.624
3743.833 0.971 -13.719 0.237 76.125 0.237 76.125 0.971 -13.719
3768.792 0.97 -13.814 0.239 76.029 0.239 76.029 0.97 -13.814
3793.75 0.97 -13.908 0.24 75.933 0.24 75.933 0.97 -13.908
3818.708 0.97 -14.003 0.242 75.837 0.242 75.837 0.97 -14.003
3843.667 0.969 -14.098 0.244 75.741 0.244 75.741 0.969 -14.098
3868.625 0.969 -14.193 0.245 75.645 0.245 75.645 0.969 -14.193
3893.583 0.968 -14.288 0.247 75.549 0.247 75.549 0.968 -14.288
3918.542 0.968 -14.383 0.248 75.453 0.248 75.453 0.968 -14.383
3943.5 0.968 -14.478 0.25 75.357 0.25 75.357 0.968 -14.478
3968.458 0.967 -14.573 0.252 75.26 0.252 75.26 0.967 -14.573
3993.417 0.967 -14.669 0.253 75.164 0.253 75.164 0.967 -14.669
4018.375 0.966 -14.764 0.255 75.067 0.255 75.067 0.966 -14.764
4043.333 0.966 -14.859 0.256 74.971 0.256 74.971 0.966 -14.859
4068.292 0.965 -14.955 0.258 74.874 0.258 74.874 0.965 -14.955
4093.25 0.965 -15.05 0.26 74.778 0.26 74.778 0.965 -15.05
4118.208 0.964 -15.146 0.261 74.681 0.261 74.681 0.964 -15.146
4143.167 0.964 -15.242 0.263 74.584 0.263 74.584 0.964 -15.242
4168.125 0.964 -15.337 0.265 74.487 0.265 74.487 0.964 -15.337
4193.083 0.963 -15.433 0.266 74.39 0.266 74.39 0.963 -15.433
4218.042 0.963 -15.529 0.268 74.293 0.268 74.293 0.963 -15.529
4243 0.962 -15.625 0.269 74.196 0.269 74.196 0.962 -15.625
4267.958 0.962 -15.721 0.271 74.099 0.271 74.099 0.962 -15.721
4292.917 0.961 -15.817 0.273 74.002 0.273 74.002 0.961 -15.817
4317.875 0.961 -15.913 0.274 73.904 0.274 73.904 0.961 -15.913
4342.833 0.96 -16.01 0.276 73.807 0.276 73.807 0.96 -16.01
4367.792 0.96 -16.106 0.277 73.709 0.277 73.709 0.96 -16.106
4392.75 0.959 -16.202 0.279 73.612 0.279 73.612 0.959 -16.202
4417.708 0.959 -16.299 0.281 73.514 0.281 73.514 0.959 -16.299
4442.667 0.958 -16.395 0.282 73.416 0.282 73.416 0.958 -16.395
4467.625 0.958 -16.492 0.284 73.319 0.284 73.319 0.958 -16.492
4492.583 0.957 -16.589 0.286 73.221 0.286 73.221 0.957 -16.589
4517.542 0.957 -16.685 0.287 73.123 0.287 73.123 0.957 -16.685
4542.5 0.956 -16.782 0.289 73.025 0.289 73.025 0.956 -16.782
4567.458 0.956 -16.879 0.29 72.927 0.29 72.927 0.956 -16.879
4592.417 0.955 -16.976 0.292 72.829 0.292 72.829 0.955 -16.976
4617.375 0.955 -17.073 0.294 72.73 0.294 72.73 0.955 -17.073
4642.333 0.954 -17.17 0.295 72.632 0.295 72.632 0.954 -17.17
4667.292 0.954 -17.268 0.297 72.534 0.297 72.534 0.954 -17.268
4692.25 0.953 -17.365 0.298 72.435 0.298 72.435 0.953 -17.365
4717.208 0.953 -17.462 0.3 72.336 0.3 72.336 0.953 -17.462
4742.167 0.952 -17.56 0.302 72.238 0.302 72.238 0.952 -17.56
4767.125 0.952 -17.657 0.303 72.139 0.303 72.139 0.952 -17.657
4792.083 0.951 -17.755 0.305 72.04 0.305 72.04 0.951 -17.755
4817.042 0.951 -17.853 0.307 71.941 0.307 71.941 0.951 -17.853
4842 0.95 -17.95 0.308 71.842 0.308 71.842 0.95 -17.95
4866.958 0.95 -18.048 0.31 71.743 0.31 71.743 0.95 -18.048
4891.917 0.949 -18.146 0.311 71.644 0.311 71.644 0.949 -18.146
4916.875 0.949 -18.244 0.313 71.545 0.313 71.545 0.949 -18.244
4941.833 0.948 -18.342 0.315 71.446 0.315 71.446 0.948 -18.342
4966.792 0.947 -18.44 0.316 71.346 0.316 71.346 0.947 -18.44
4991.75 0.947 -18.539 0.318 71.247 0.318 71.247 0.947 -18.539
5016.708 0.946 -18.637 0.32 71.147 0.32 71.147 0.946 -18.637
5041.667 0.946 -18.735 0.321 71.048 0.321 71.048 0.946 -18.735
5066.625 0.945 -18.834 0.323 70.948 0.323 70.948 0.945 -18.834
5091.583 0.945 -18.932 0.324 70.848 0.324 70.848 0.945 -18.932
5116.542 0.944 -19.031 0.326 70.748 0.326 70.748 0.944 -19.031
5141.5 0.944 -19.13 0.328 70.648 0.328 70.648 0.944 -19.13
5166.458 0.943 -19.229 0.329 70.548 0.329 70.548 0.943 -19.229
5191.417 0.942 -19.328 0.331 70.448 0.331 70.448 0.942 -19.328
5216.375 0.942 -19.427 0.333 70.348 0.333 70.348 0.942 -19.427
5241.333 0.941 -19.526 0.334 70.247 0.334 70.247 0.941 -19.526
5266.292 0.941 -19.625 0.336 70.147 0.336 70.147 0.941 -19.625
5291.25 0.94 -19.724 0.337 70.046 0.337 70.046 0.94 -19.724
5316.208 0.939 -19.823 0.339 69.946 0.339 69.946 0.939 -19.823
5341.167 0.939 -19.923 0.341 69.845 0.341 69.845 0.939 -19.923
5366.125 0.938 -20.022 0.342 69.744 0.342 69.744 0.938 -20.022
5391.083 0.938 -20.122 0.344 69.643 0.344 69.643 0.938 -20.122
5416.042 0.937 -20.222 0.346 69.543 0.346 69.543 0.937 -20.222
5441 0.936 -20.322 0.347 69.441 0.347 69.441 0.936 -20.322
5465.958 0.936 -20.421 0.349 69.34 0.349 69.34 0.936 -20.421
5490.917 0.935 -20.521 0.351 69.239 0.351 69.239 0.935 -20.521
5515.875 0.934 -20.621 0.352 69.138 0.352 69.138 0.934 -20.621
5540.833 0.934 -20.722 0.354 69.036 0.354 69.036 0.934 -20.722
5565.792 0.933 -20.822 0.355 68.935 0.355 68.935 0.933 -20.822
5590.75 0.933 -20.922 0.357 68.833 0.357 68.833 0.933 -20.922
5615.708 0.932 -21.022 0.359 68.732 0.359 68.732 0.932 -21.022
5640.667 0.931 -21.123 0.36 68.63 0.36 68.63 0.931 -21.123
5665.625 0.931 -21.224 0.362 68.528 0.362 68.528 0.931 -21.224
5690.583 0.93 -21.324 0.364 68.426 0.364 68.426 0.93 -21.324
5715.542 0.929 -21.425 0.365 68.324 0.365 68.324 0.929 -21.425
5740.5 0.929 -21.526 0.367 68.222 0.367 68.222 0.929 -21.526
5765.458 0.928 -21.627 0.369 68.119 0.369 68.119 0.928 -21.627
5790.417 0.927 -21.728 0.37 68.017 0.37 68.017 0.927 -21.728
5815.375 0.927 -21.829 0.372 67.915 0.372 67.915 0.927 -21.829
5840.333 0.926 -21.93 0.373 67.812 0.373 67.812 0.926 -21.93
5865.292 0.925 -22.032 0.375 67.709 0.375 67.709 0.925 -22.032
5890.25 0.925 -22.133 0.377 67.607 0.377 67.607 0.925 -22.133
5915.208 0.924 -22.235 0.378 67.504 0.378 67.504 0.924 -22.235
5940.167 0.923 -22.336 0.38 67.401 0.38 67.401 0.923 -22.336
5965.125 0.923 -22.438 0.382 67.298 0.382 67.298 0.923 -22.438
5990.083 0.922 -22.54 0.383 67.195 0.383 67.195 0.922 -22.54
6015.042 0.921 -22.642 0.385 67.091 0.385 67.091 0.921 -22.642
6040 0.92 -22.744 0.387 66.988 0.387 66.988 0.92 -22.744
6064.958 0.92 -22.846 0.388 66.885 0.388 66.885 0.92 -22.846
6089.917 0.919 -22.948 0.39 66.781 0.39 66.781 0.919 -22.948
6114.875 0.918 -23.05 0.392 66.677 0.392 66.677 0.918 -23.05
6139.833 0.918 -23.152 0.393 66.574 0.393 66.574 0.918 -23.152
6164.792 0.917 -23.255 0.395 66.47 0.395 66.47 0.917 -23.255
6189.75 0.916 -23.358 0.396 66.366 0.396 66.366 0.916 -23.358
6214.708 0.915 -23.46 0.398 66.262 0.398 66.262 0.915 -23.46
6239.667 0.915 -23.563 0.4 66.158 0.4 66.158 0.915 -23.563
6264.625 0.914 -23.666 0.401 66.054 0.401 66.054 0.914 -23.666
6289.583 0.913 -23.769 0.403 65.949 0.403 65.949 0.913 -23.769
6314.542 0.912 -23.872 0.405 65.845 0.405 65.845 0.912 -23.872
6339.5 0.912 -23.975 0.406 65.74 0.406 65.74 0.912 -23.975
6364.458 0.911 -24.078 0.408 65.636 0.408 65.636 0.911 -24.078
6389.417 0.91 -24.182 0.41 65.531 0.41 65.531 0.91 -24.182
6414.375 0.909 -24.285 0.411 65.426 0.411 65.426 0.909 -24.285
6439.333 0.909 -24.389 0.413 65.321 0.413 65.321 0.909 -24.389
6464.292 0.908 -24.492 0.415 65.216 0.415 65.216 0.908 -24.492
6489.25 0.907 -24.596 0.416 65.111 0.416 65.111 0.907 -24.596
6514.208 0.906 -24.7 0.418 65.005 0.418 65.005 0.906 -24.7
6539.167 0.906 -24.804 0.42 64.9 0.42 64.9 0.906 -24.804
6564.125 0.905 -24.908 0.421 64.795 0.421 64.795 0.905 -24.908
6589.083 0.904 -25.012 0.423 64.689 0.423 64.689 0.904 -25.012
6614.042 0.903 -25.116 0.424 64.583 0.424 64.583 0.903 -25.116
6639 0.902 -25.221 0.426 64.478 0.426 64.478 0.902 -25.221
6663.958 0.902 -25.325 0.428 64.372 0.428 64.372 0.902 -25.325
6688.917 0.901 -25.43 0.429 64.266 0.429 64.266 0.901 -25.43
6713.875 0.9 -25.534 0.431 64.159 0.431 64.159 0.9 -25.534
6738.833 0.899 -25.639 0.433 64.053 0.433 64.053 0.899 -25.639
6763.792 0.898 -25.744 0.434 63.947 0.434 63.947 0.898 -25.744
6788.75 0.898 -25.849 0.436 63.84 0.436 63.84 0.898 -25.849
6813.708 0.897 -25.954 0.438 63.734 0.438 63.734 0.897 -25.954
6838.667 0.896 -26.059 0.439 63.627 0.439 63.627 0.896 -26.059
6863.625 0.895 -26.165 0.441 63.521 0.441 63.521 0.895 -26.165
6888.583 0.894 -26.27 0.443 63.414 0.443 63.414 0.894 -26.27
6913.542 0.893 -26.376 0.444 63.307 0.444 63.307 0.893 -26.376
6938.5 0.893 -26.481 0.446 63.2 0.446 63.2 0.893 -26.481
6963.458 0.892 -26.587 0.448 63.092 0.448 63.092 0.892 -26.587
6988.417 0.891 -26.693 0.449 62.985 0.449 62.985 0.891 -26.693
7013.375 0.89 -26.799 0.451 62.878 0.451 62.878 0.89 -26.799
7038.333 0.889 -26.905 0.453 62.77 0.453 62.77 0.889 -26.905
7063.292 0.888 -27.011 0.454 62.662 0.454 62.662 0.888 -27.011
7088.25 0.887 -27.117 0.456 62.555 0.456 62.555 0.887 -27.117
7113.208 0.887 -27.223 0.457 62.447 0.457 62.447 0.887 -27.223
7138.167 0.886 -27.33 0.459 62.339 0.459 62.339 0.886 -27.33
7163.125 0.885 -27.437 0.461 62.231 0.461 62.231 0.885 -27.437
7188.083 0.884 -27.543 0.462 62.123 0.462 62.123 0.884 -27.543
7213.042 0.883 -27.65 0.464 62.014 0.464 62.014 0.883 -27.65
7238 0.882 -27.757 0.466 61.906 0.466 61.906 0.882 -27.757
7262.958 0.881 -27.864 0.467 61.797 0.467 61.797 0.881 -27.864
7287.917 0.88 -27.971 0.469 61.689 0.469 61.689 0.88 -27.971
7312.875 0.879 -28.078 0.471 61.58 0.471 61.58 0.879 -28.078
7337.833 0.879 -28.186 0.472 61.471 0.472 61.471 0.879 -28.186
7362.792 0.878 -28.293 0.474 61.362 0.474 61.362 0.878 -28.293
7387.75 0.877 -28.401 0.476 61.253 0.476 61.253 0.877 -28.401
7412.708 0.876 -28.508 0.477 61.144 0.477 61.144 0.876 -28.508
7437.667 0.875 -28.616 0.479 61.034 0.479 61.034 0.875 -28.616
7462.625 0.874 -28.724 0.481 60.925 0.481 60.925 0.874 -28.724
7487.583 0.873 -28.832 0.482 60.815 0.482 60.815 0.873 -28.832
7512.542 0.872 -28.94 0.484 60.706 0.484 60.706 0.872 -28.94
7537.5 0.871 -29.048 0.486 60.596 0.486 60.596 0.871 -29.048
7562.458 0.87 -29.156 0.487 60.486 0.487 60.486 0.87 -29.156
7587.417 0.869 -29.265 0.489 60.376 0.489 60.376 0.869 -29.265
7612.375 0.868 -29.373 0.491 60.266 0.491 60.266 0.868 -29.373
7637.333 0.867 -29.482 0.492 60.155 0.492 60.155 0.867 -29.482
7662.292 0.866 -29.591 0.494 60.045 0.494 60.045 0.866 -29.591
7687.25 0.865 -29.7 0.495 59.935 0.495 59.935 0.865 -29.7
7712.208 0.865 -29.809 0.497 59.824 0.497 59.824 0.865 -29.809
7737.167 0.864 -29.918 0.499 59.713 0.499 59.713 0.864 -29.918
7762.125 0.863 -30.027 0.5 59.602 0.5 59.602 0.863 -30.027
7787.083 0.862 -30.136 0.502 59.492 0.502 59.492 0.862 -30.136
7812.042 0.861 -30.246 0.504 59.38 0.504 59.38 0.861 -30.246
7837 0.86 -30.355 0.505 59.269 0.505 59.269 0.86 -30.355
7861.958 0.859 -30.465 0.507 59.158 0.507 59.158 0.859 -30.465
7886.917 0.858 -30.574 0.509 59.047 0.509 59.047 0.858 -30.574
7911.875 0.857 -30.684 0.51 58.935 0.51 58.935 0.857 -30.684
7936.833 0.856 -30.794 0.512 58.823 0.512 58.823 0.856 -30.794
7961.792 0.855 -30.904 0.514 58.712 0.514 58.712 0.855 -30.904
7986.75 0.854 -31.015 0.515 58.6 0.515 58.6 0.854 -31.015
8011.708 0.853 -31.125 0.517 58.488 0.517 58.488 0.853 -31.125
8036.667 0.852 -31.235 0.519 58.376 0.519 58.376 0.852 -31.235
8061.625 0.85 -31.346 0.52 58.263 0.52 58.263 0.85 -31.346
8086.583 0.849 -31.456 0.522 58.151 0.522 58.151 0.849 -31.456
8111.542 0.848 -31.567 0.524 58.039 0.524 58.039 0.848 -31.567
8136.5 0.847 -31.678 0.525 57.926 0.525 57.926 0.847 -31.678
8161.458 0.846 -31.789 0.527 57.813 0.527 57.813 0.846 -31.789
8186.417 0.845 -31.9 0.528 57.7 0.528 57.7 0.845 -31.9
8211.375 0.844 -32.011 0.53 57.587 0.53 57.587 0.844 -32.011
8236.333 0.843 -32.123 0.532 57.474 0.532 57.474 0.843 -32.123
8261.292 0.842 -32.234 0.533 57.361 0.533 57.361 0.842 -32.234
8286.25 0.841 -32.346 0.535 57.248 0.535 57.248 0.841 -32.346
8311.208 0.84 -32.457 0.537 57.134 0.537 57.134 0.84 -32.457
8336.167 0.839 -32.569 0.538 57.021 0.538 57.021 0.839 -32.569
8361.125 0.838 -32.681 0.54 56.907 0.54 56.907 0.838 -32.681
8386.083 0.837 -32.793 0.542 56.793 0.542 56.793 0.837 -32.793
8411.042 0.836 -32.905 0.543 56.679 0.543 56.679 0.836 -32.905
8436 0.835 -33.017 0.545 56.565 0.545 56.565 0.835 -33.017
8460.958 0.833 -33.13 0.547 56.451 0.547 56.451 0.833 -33.13
8485.917 0.832 -33.242 0.548 56.337 0.548 56.337 0.832 -33.242
8510.875 0.831 -33.355 0.55 56.223 0.55 56.223 0.831 -33.355
8535.833 0.83 -33.467 0.551 56.108 0.551 56.108 0.83 -33.467
8560.792 0.829 -33.58 0.553 55.994 0.553 55.994 0.829 -33.58
8585.75 0.828 -33.693 0.555 55.879 0.555 55.879 0.828 -33.693
8610.708 0.827 -33.806 0.556 55.764 0.556 55.764 0.827 -33.806
8635.667 0.826 -33.919 0.558 55.649 0.558 55.649 0.826 -33.919
8660.625 0.824 -34.032 0.56 55.534 0.56 55.534 0.824 -34.032
8685.583 0.823 -34.146 0.561 55.419 0.561 55.419 0.823 -34.146
8710.542 0.822 -34.259 0.563 55.303 0.563 55.303 0.822 -34.259
8735.5 0.821 -34.373 0.565 55.188 0.565 55.188 0.821 -34.373
8760.458 0.82 -34.487 0.566 55.072 0.566 55.072 0.82 -34.487
8785.417 0.819 -34.6 0.568 54.956 0.568 54.956 0.819 -34.6
8810.375 0.818 -34.714 0.57 54.841 0.57 54.841 0.818 -34.714
8835.333 0.816 -34.828 0.571 54.725 0.571 54.725 0.816 -34.828
8860.292 0.815 -34.943 0.573 54.609 0.573 54.609 0.815 -34.943
8885.25 0.814 -35.057 0.574 54.492 0.574 54.492 0.814 -35.057
8910.208 0.813 -35.171 0.576 54.376 0.576 54.376 0.813 -35.171
8935.167 0.812 -35.286 0.578 54.26 0.578 54.26 0.812 -35.286
8960.125 0.811 -35.4 0.579 54.143 0.579 54.143 0.811 -35.4
8985.083 0.809 -35.515 0.581 54.026 0.581 54.026 0.809 -35.515
9010.042 0.808 -35.63 0.583 53.909 0.583 53.909 0.808 -35.63
9035 0.807 -35.745 0.584 53.793 0.584 53.793 0.807 -35.745
9059.958 0.806 -35.86 0.586 53.676 0.586 53.676 0.806 -35.86
9084.917 0.804 -35.975 0.587 53.558 0.587 53.558 0.804 -35.975
9109.875 0.803 -36.09 0.589 53.441 0.589 53.441 0.803 -36.09
9134.833 0.802 -36.206 0.591 53.324 0.591 53.324 0.802 -36.206
9159.792 0.801 -36.321 0.592 53.206 0.592 53.206 0.801 -36.321
9184.75 0.8 -36.437 0.594 53.088 0.594 53.088 0.8 -36.437
9209.708 0.798 -36.553 0.596 52.971 0.596 52.971 0.798 -36.553
9234.667 0.797 -36.668 0.597 52.853 0.597 52.853 0.797 -36.668
9259.625 0.796 -36.784 0.599 52.735 0.599 52.735 0.796 -36.784
9284.583 0.795 -36.901 0.6 52.617 0.6 52.617 0.795 -36.901
9309.542 0.793 -37.017 0.602 52.498 0.602 52.498 0.793 -37.017
9334.5 0.792 -37.133 0.604 52.38 0.604 52.38 0.792 -37.133
9359.458 0.791 -37.249 0.605 52.262 0.605 52.262 0.791 -37.249
9384.417 0.79 -37.366 0.607 52.143 0.607 52.143 0.79 -37.366
9409.375 0.788 -37.483 0.609 52.024 0.609 52.024 0.788 -37.483
9434.333 0.787 -37.599 0.61 51.905 0.61 51.905 0.787 -37.599
9459.292 0.786 -37.716 0.612 51.786 0.612 51.786 0.786 -37.716
9484.25 0.784 -37.833 0.613 51.667 0.613 51.667 0.784 -37.833
9509.208 0.783 -37.95 0.615 51.548 0.615 51.548 0.783 -37.95
9534.167 0.782 -38.067 0.617 51.429 0.617 51.429 0.782 -38.067
9559.125 0.781 -38.185 0.618 51.309 0.618 51.309 0.781 -38.185
9584.083 0.779 -38.302 0.62 51.19 0.62 51.19 0.779 -38.302
9609.042 0.778 -38.42 0.621 51.07 0.621 51.07 0.778 -38.42
9634 0.777 -38.537 0.623 50.95 0.623 50.95 0.777 -38.537
9658.958 0.775 -38.655 0.625 50.83 0.625 50.83 0.775 -38.655
9683.917 0.774 -38.773 0.626 50.71 0.626 50.71 0.774 -38.773
9708.875 0.773 -38.891 0.628 50.59 0.628 50.59 0.773 -38.891
9733.833 0.771 -39.009 0.629 50.47 0.629 50.47 0.771 -39.009
9758.792 0.77 -39.127 0.631 50.349 0.631 50.349 0.77 -39.127
9783.75 0.769 -39.245 0.633 50.229 0.633 50.229 0.769 -39.245
9808.708 0.767 -39.364 0.634 50.108 0.634 50.108 0.767 -39.364
9833.667 0.766 -39.482 0.636 49.987 0.636 49.987 0.766 -39.482
9858.625 0.765 -39.601 0.637 49.866 0.637 49.866 0.765 -39.601
9883.583 0.763 -39.72 0.639 49.745 0.639 49.745 0.763 -39.72
9908.542 0.762 -39.838 0.641 49.624 0.641 49.624 0.762 -39.838
9933.5 0.76 -39.957 0.642 49.503 0.642 49.503 0.76 -39.957
9958.458 0.759 -40.076 0.644 49.382 0.644 49.382 0.759 -40.076
9983.417 0.758 -40.196 0.645 49.26 0.645 49.26 0.758 -40.196
10008.375 0.756 -40.315 0.647 49.138 0.647 49.138 0.756 -40.315
10033.333 0.755 -40.434 0.649 49.017 0.649 49.017 0.755 -40.434
10058.292 0.754 -40.554 0.65 48.895 0.65 48.895 0.754 -40.554
10083.25 0.752 -40.673 0.652 48.773 0.652 48.773 0.752 -40.673
10108.208 0.751 -40.793 0.653 48.651 0.653 48.651 0.751 -40.793
10133.167 0.749 -40.913 0.655 48.529 0.655 48.529 0.749 -40.913
10158.125 0.748 -41.033 0.657 48.406 0.657 48.406 0.748 -41.033
10183.083 0.746 -41.153 0.658 48.284 0.658 48.284 0.746 -41.153
10208.042 0.745 -41.273 0.66 48.161 0.66 48.161 0.745 -41.273
10233 0.744 -41.393 0.661 48.039 0.661 48.039 0.744 -41.393
10257.958 0.742 -41.513 0.663 47.916 0.663 47.916 0.742 -41.513
10282.917 0.741 -41.634 0.664 47.793 0.664 47.793 0.741 -41.634
10307.875 0.739 -41.754 0.666 47.67 0.666 47.67 0.739 -41.754
10332.833 0.738 -41.875 0.668 47.547 0.668 47.547 0.738 -41.875
10357.792 0.736 -41.996 0.669 47.424 0.669 47.424 0.736 -41.996
10382.75 0.735 -42.116 0.671 47.3 0.671 47.3 0.735 -42.116
10407.708 0.733 -42.237 0.672 47.177 0.672 47.177 0.733 -42.237
10432.667 0.732 -42.358 0.674 47.053 0.674 47.053 0.732 -42.358
10457.625 0.731 -42.48 0.675 46.93 0.675 46.93 0.731 -42.48
10482.583 0.729 -42.601 0.677 46.806 0.677 46.806 0.729 -42.601
10507.542 0.728 -42.722 0.678 46.682 0.678 46.682 0.728 -42.722
10532.5 0.726 -42.844 0.68 46.558 0.68 46.558 0.726 -42.844
10557.458 0.725 -42.965 0.682 46.434 0.682 46.434 0.725 -42.965
10582.417 0.723 -43.087 0.683 46.31 0.683 46.31 0.723 -43.087
10607.375 0.722 -43.208 0.685 46.185 0.685 46.185 0.722 -43.208
10632.333 0.72 -43.33 0.686 46.061 0.686 46.061 0.72 -43.33
10657.292 0.719 -43.452 0.688 45.936 0.688 45.936 0.719 -43.452
10682.25 0.717 -43.574 0.689 45.811 0.689 45.811 0.717 -43.574
10707.208 0.716 -43.696 0.691 45.687 0.691 45.687 0.716 -43.696
10732.167 0.714 -43.819 0.692 45.562 0.692 45.562 0.714 -43.819
10757.125 0.713 -43.941 0.694 45.437 0.694 45.437 0.713 -43.941
10782.083 0.711 -44.063 0.695 45.312 0.695 45.312 0.711 -44.063
10807.042 0.709 -44.186 0.697 45.186 0.697 45.186 0.709 -44.186
10832 0.708 -44.309 0.699 45.061 0.699 45.061 0.708 -44.309
10856.958 0.706 -44.431 0.7 44.935 0.7 44.935 0.706 -44.431
10881.917 0.705 -44.554 0.702 44.81 0.702 44.81 0.705 -44.554
10906.875 0.703 -44.677 0.703 44.684 0.703 44.684 0.703 -44.677
10931.833 0.702 -44.8 0.705 44.558 0.705 44.558 0.702 -44.8
10956.792 0.7 -44.923 0.706 44.432 0.706 44.432 0.7 -44.923
10981.75 0.699 -45.046 0.708 44.306 0.708 44.306 0.699 -45.046
11006.708 0.697 -45.169 0.709 44.18 0.709 44.18 0.697 -45.169
11031.667 0.695 -45.293 0.711 44.054 0.711 44.054 0.695 -45.293
11056.625 0.694 -45.416 0.712 43.928 0.712 43.928 0.694 -45.416
11081.583 0.692 -45.54 0.714 43.801 0.714 43.801 0.692 -45.54
11106.542 0.691 -45.663 0.715 43.675 0.715 43.675 0.691 -45.663
11131.5 0.689 -45.787 0.717 43.548 0.717 43.548 0.689 -45.787
11156.458 0.687 -45.911 0.718 43.421 0.718 43.421 0.687 -45.911
11181.417 0.686 -46.035 0.72 43.295 0.72 43.295 0.686 -46.035
11206.375 0.684 -46.159 0.721 43.168 0.721 43.168 0.684 -46.159
11231.333 0.683 -46.283 0.723 43.041 0.723 43.041 0.683 -46.283
11256.292 0.681 -46.407 0.724 42.913 0.724 42.913 0.681 -46.407
11281.25 0.679 -46.531 0.726 42.786 0.726 42.786 0.679 -46.531
11306.208 0.678 -46.656 0.727 42.659 0.727 42.659 0.678 -46.656
11331.167 0.676 -46.78 0.729 42.531 0.729 42.531 0.676 -46.78
11356.125 0.674 -46.904 0.73 42.404 0.73 42.404 0.674 -46.904
11381.083 0.673 -47.029 0.732 42.276 0.732 42.276 0.673 -47.029
11406.042 0.671 -47.154 0.733 42.148 0.733 42.148 0.671 -47.154
11431 0.669 -47.278 0.735 42.02 0.735 42.02 0.669 -47.278
11455.958 0.668 -47.403 0.736 41.892 0.736 41.892 0.668 -47.403
11480.917 0.666 -47.528 0.738 41.764 0.738 41.764 0.666 -47.528
11505.875 0.664 -47.653 0.739 41.636 0.739 41.636 0.664 -47.653
11530.833 0.663 -47.778 0.741 41.508 0.741 41.508 0.663 -47.778
11555.792 0.661 -47.903 0.742 41.379 0.742 41.379 0.661 -47.903
11580.75 0.659 -48.029 0.744 41.251 0.744 41.251 0.659 -48.029
11605.708 0.658 -48.154 0.745 41.122 0.745 41.122 0.658 -48.154
11630.667 0.656 -48.279 0.746 40.994 0.746 40.994 0.656 -48.279
11655.625 0.654 -48.405 0.748 40.865 0.748 40.865 0.654 -48.405
11680.583 0.653 -48.53 0.749 40.736 0.749 40.736 0.653 -48.53
11705.542 0.651 -48.656 0.751 40.607 0.751 40.607 0.651 -48.656
11730.5 0.649 -48.781 0.752 40.478 0.752 40.478 0.649 -48.781
11755.458 0.647 -48.907 0.754 40.349 0.754 40.349 0.647 -48.907
11780.417 0.646 -49.033 0.755 40.22 0.755 40.22 0.646 -49.033
11805.375 0.644 -49.159 0.757 40.09 0.757 40.09 0.644 -49.159
11830.333 0.642 -49.285 0.758 39.961 0.758 39.961 0.642 -49.285
11855.292 0.641 -49.411 0.759 39.832 0.759 39.832 0.641 -49.411
11880.25 0.639 -49.537 0.761 39.702 0.761 39.702 0.639 -49.537
11905.208 0.637 -49.663 0.762 39.572 0.762 39.572 0.637 -49.663
11930.167 0.635 -49.789 0.764 39.443 0.764 39.443 0.635 -49.789
11955.125 0.634 -49.916 0.765 39.313 0.765 39.313 0.634 -49.916
11980.083 0.632 -50.042 0.767 39.183 0.767 39.183 0.632 -50.042
12005.042 0.63 -50.169 0.768 39.053 0.768 39.053 0.63 -50.169
12030 0.628 -50.295 0.769 38.923 0.769 38.923 0.628 -50.295
12054.958 0.627 -50.422 0.771 38.792 0.771 38.792 0.627 -50.422
12079.917 0.625 -50.548 0.772 38.662 0.772 38.662 0.625 -50.548
12104.875 0.623 -50.675 0.774 38.532 0.774 38.532 0.623 -50.675
12129.833 0.621 -50.802 0.775 38.401 0.775 38.401 0.621 -50.802
12154.792 0.619 -50.929 0.776 38.271 0.776 38.271 0.619 -50.929
12179.75 0.618 -51.055 0.778 38.14 0.778 38.14 0.618 -51.055
12204.708 0.616 -51.182 0.779 38.009 0.779 38.009 0.616 -51.182
12229.667 0.614 -51.309 0.781 37.878 0.781 37.878 0.614 -51.309
12254.625 0.612 -51.436 0.782 37.747 0.782 37.747 0.612 -51.436
12279.583 0.61 -51.563 0.783 37.617 0.783 37.617 0.61 -51.563
12304.542 0.609 -51.691 0.785 37.485 0.785 37.485 0.609 -51.691
12329.5 0.607 -51.818 0.786 37.354 0.786 37.354 0.607 -51.818
12354.458 0.605 -51.945 0.788 37.223 0.788 37.223 0.605 -51.945
12379.417 0.603 -52.072 0.789 37.092 0.789 37.092 0.603 -52.072
12404.375 0.601 -52.2 0.79 36.96 0.79 36.96 0.601 -52.2
12429.333 0.599 -52.327 0.792 36.829 0.792 36.829 0.599 -52.327
12454.292 0.598 -52.455 0.793 36.697 0.793 36.697 0.598 -52.455
12479.25 0.596 -52.582 0.794 36.566 0.794 36.566 0.596 -52.582
12504.208 0.594 -52.71 0.796 36.434 0.796 36.434 0.594 -52.71
12529.167 0.592 -52.837 0.797 36.302 0.797 36.302 0.592 -52.837
12554.125 0.59 -52.965 0.798 36.171 0.798 36.171 0.59 -52.965
12579.083 0.588 -53.093 0.8 36.039 0.8 36.039 0.588 -53.093
12604.042 0.587 -53.221 0.801 35.907 0.801 35.907 0.587 -53.221
12629 0.585 -53.348 0.802 35.775 0.802 35.775 0.585 -53.348
12653.958 0.583 -53.476 0.804 35.643 0.804 35.643 0.583 -53.476
12678.917 0.581 -53.604 0.805 35.51 0.805 35.51 0.581 -53.604
12703.875 0.579 -53.732 0.806 35.378 0.806 35.378 0.579 -53.732
12728.833 0.577 -53.86 0.808 35.246 0.808 35.246 0.577 -53.86
12753.792 0.575 -53.988 0.809 35.113 0.809 35.113 0.575 -53.988
12778.75 0.573 -54.116 0.81 34.981 0.81 34.981 0.573 -54.116
12803.708 0.571 -54.244 0.812 34.848 0.812 34.848 0.571 -54.244
12828.667 0.57 -54.372 0.813 34.716 0.813 34.716 0.57 -54.372
12853.625 0.568 -54.5 0.814 34.583 0.814 34.583 0.568 -54.5
12878.583 0.566 -54.629 0.816 34.45 0.816 34.45 0.566 -54.629
12903.542 0.564 -54.757 0.817 34.318 0.817 34.318 0.564 -54.757
12928.5 0.562 -54.885 0.818 34.185 0.818 34.185 0.562 -54.885
12953.458 0.56 -55.013 0.819 34.052 0.819 34.052 0.56 -55.013
12978.417 0.558 -55.142 0.821 33.919 0.821 33.919 0.558 -55.142
13003.375 0.556 -55.27 0.822 33.786 0.822 33.786 0.556 -55.27
13028.333 0.554 -55.398 0.823 33.653 0.823 33.653 0.554 -55.398
13053.292 0.552 -55.527 0.825 33.519 0.825 33.519 0.552 -55.527
13078.25 0.55 -55.655 0.826 33.386 0.826 33.386 0.55 -55.655
13103.208 0.548 -55.783 0.827 33.253 0.827 33.253 0.548 -55.783
13128.167 0.546 -55.912 0.828 33.12 0.828 33.12 0.546 -55.912
13153.125 0.545 -56.04 0.83 32.986 0.83 32.986 0.545 -56.04
13178.083 0.543 -56.169 0.831 32.853 0.831 32.853 0.543 -56.169
13203.042 0.541 -56.297 0.832 32.719 0.832 32.719 0.541 -56.297
13228 0.539 -56.426 0.833 32.586 0.833 32.586 0.539 -56.426
13252.958 0.537 -56.554 0.835 32.452 0.835 32.452 0.537 -56.554
13277.917 0.535 -56.683 0.836 32.318 0.836 32.318 0.535 -56.683
13302.875 0.533 -56.811 0.837 32.185 0.837 32.185 0.533 -56.811
13327.833 0.531 -56.94 0.838 32.051 0.838 32.051 0.531 -56.94
13352.792 0.529 -57.068 0.839 31.917 0.839 31.917 0.529 -57.068
13377.75 0.527 -57.197 0.841 31.783 0.841 31.783 0.527 -57.197
13402.708 0.525 -57.326 0.842 31.649 0.842 31.649 0.525 -57.326
13427.667 0.523 -57.454 0.843 31.515 0.843 31.515 0.523 -57.454
13452.625 0.521 -57.583 0.844 31.381 0.844 31.381 0.521 -57.583
13477.583 0.519 -57.711 0.846 31.247 0.846 31.247 0.519 -57.711
13502.542 0.517 -57.84 0.847 31.113 0.847 31.113 0.517 -57.84
13527.5 0.515 -57.969 0.848 30.979 0.848 30.979 0.515 -57.969
13552.458 0.513 -58.097 0.849 30.845 0.849 30.845 0.513 -58.097
13577.417 0.511 -58.226 0.85 30.711 0.85 30.711 0.511 -58.226
13602.375 0.509 -58.354 0.851 30.576 0.851 30.576 0.509 -58.354
13627.333 0.507 -58.483 0.853 30.442 0.853 30.442 0.507 -58.483
13652.292 0.505 -58.611 0.854 30.308 0.854 30.308 0.505 -58.611
13677.25 0.503 -58.74 0.855 30.173 0.855 30.173 0.503 -58.74
13702.208 0.501 -58.869 0.856 30.039 0.856 30.039 0.501 -58.869
13727.167 0.499 -58.997 0.857 29.904 0.857 29.904 0.499 -58.997
13752.125 0.497 -59.126 0.858 29.77 0.858 29.77 0.497 -59.126
13777.083 0.495 -59.254 0.86 29.635 0.86 29.635 0.495 -59.254
13802.042 0.493 -59.383 0.861 29.501 0.861 29.501 0.493 -59.383
13827 0.49 -59.511 0.862 29.366 0.862 29.366 0.49 -59.511
13851.958 0.488 -59.64 0.863 29.231 0.863 29.231 0.488 -59.64
13876.917 0.486 -59.768 0.864 29.097 0.864 29.097 0.486 -59.768
13901.875 0.484 -59.896 0.865 28.962 0.865 28.962 0.484 -59.896
13926.833 0.482 -60.025 0.866 28.827 0.866 28.827 0.482 -60.025
13951.792 0.48 -60.153 0.868 28.692 0.868 28.692 0.48 -60.153
13976.75 0.478 -60.282 0.869 28.558 0.869 28.558 0.478 -60.282
14001.708 0.476 -60.41 0.87 28.423 0.87 28.423 0.476 -60.41
14026.667 0.474 -60.538 0.871 28.288 0.871 28.288 0.474 -60.538
14051.625 0.472 -60.666 0.872 28.153 0.872 28.153 0.472 -60.666
14076.583 0.47 -60.795 0.873 28.018 0.873 28.018 0.47 -60.795
14101.542 0.468 -60.923 0.874 27.883 0.874 27.883 0.468 -60.923
14126.5 0.466 -61.051 0.875 27.748 0.875 27.748 0.466 -61.051
14151.458 0.464 -61.179 0.876 27.613 0.876 27.613 0.464 -61.179
14176.417 0.462 -61.307 0.877 27.478 0.877 27.478 0.462 -61.307
14201.375 0.459 -61.435 0.878 27.343 0.878 27.343 0.459 -61.435
14226.333 0.457 -61.563 0.88 27.208 0.88 27.208 0.457 -61.563
14251.292 0.455 -61.691 0.881 27.073 0.881 27.073 0.455 -61.691
14276.25 0.453 -61.819 0.882 26.938 0.882 26.938 0.453 -61.819
14301.208 0.451 -61.946 0.883 26.803 0.883 26.803 0.451 -61.946
14326.167 0.449 -62.074 0.884 26.668 0.884 26.668 0.449 -62.074
14351.125 0.447 -62.202 0.885 26.533 0.885 26.533 0.447 -62.202
14376.083 0.445 -62.33 0.886 26.398 0.886 26.398 0.445 -62.33
14401.042 0.443 -62.457 0.887 26.262 0.887 26.262 0.443 -62.457
14426 0.44 -62.585 0.888 26.127 0.888 26.127 0.44 -62.585
14450.958 0.438 -62.712 0.889 25.992 0.889 25.992 0.438 -62.712
14475.917 0.436 -62.84 0.89 25.857 0.89 25.857 0.436 -62.84
14500.875 0.434 -62.967 0.891 25.722 0.891 25.722 0.434 -62.967
14525.833 0.432 -63.094 0.892 25.586 0.892 25.586 0.432 -63.094
14550.792 0.43 -63.221 0.893 25.451 0.893 25.451 0.43 -63.221
14575.75 0.428 -63.348 0.894 25.316 0.894 25.316 0.428 -63.348
14600.708 0.426 -63.475 0.895 25.181 0.895 25.181 0.426 -63.475
14625.667 0.423 -63.602 0.896 25.046 0.896 25.046 0.423 -63.602
14650.625 0.421 -63.729 0.897 24.91 0.897 24.91 0.421 -63.729
14675.583 0.419 -63.856 0.898 24.775 0.898 24.775 0.419 -63.856
14700.542 0.417 -63.983 0.899 24.64 0.899 24.64 0.417 -63.983
14725.5 0.415 -64.109 0.9 24.505 0.9 24.505 0.415 -64.109
14750.458 0.413 -64.236 0.901 24.369 0.901 24.369 0.413 -64.236
14775.417 0.411 -64.362 0.902 24.234 0.902 24.234 0.411 -64.362
14800.375 0.408 -64.489 0.903 24.099 0.903 24.099 0.408 -64.489
14825.333 0.406 -64.615 0.904 23.964 0.904 23.964 0.406 -64.615
14850.292 0.404 -64.741 0.905 23.828 0.905 23.828 0.404 -64.741
14875.25 0.402 -64.867 0.906 23.693 0.906 23.693 0.402 -64.867
14900.208 0.4 -64.993 0.907 23.558 0.907 23.558 0.4 -64.993
14925.167 0.398 -65.119 0.907 23.423 0.907 23.423 0.398 -65.119
14950.125 0.395 -65.245 0.908 23.288 0.908 23.288 0.395 -65.245
14975.083 0.393 -65.37 0.909 23.152 0.909 23.152 0.393 -65.37
15000.042 0.391 -65.496 0.91 23.017 0.91 23.017 0.391 -65.496
15025 0.389 -65.621 0.911 22.882 0.911 22.882 0.389 -65.621
15049.958 0.387 -65.746 0.912 22.747 0.912 22.747 0.387 -65.746
15074.917 0.385 -65.871 0.913 22.612 0.913 22.612 0.385 -65.871
15099.875 0.382 -65.996 0.914 22.477 0.914 22.477 0.382 -65.996
15124.833 0.38 -66.121 0.915 22.342 0.915 22.342 0.38 -66.121
15149.792 0.378 -66.246 0.916 22.206 0.916 22.206 0.378 -66.246
15174.75 0.376 -66.371 0.916 22.071 0.916 22.071 0.376 -66.371
15199.708 0.374 -66.495 0.917 21.936 0.917 21.936 0.374 -66.495
15224.667 0.372 -66.619 0.918 21.801 0.918 21.801 0.372 -66.619
15249.625 0.369 -66.744 0.919 21.666 0.919 21.666 0.369 -66.744
15274.583 0.367 -66.868 0.92 21.531 0.92 21.531 0.367 -66.868
15299.542 0.365 -66.991 0.921 21.396 0.921 21.396 0.365 -66.991
15324.5 0.363 -67.115 0.922 21.261 0.922 21.261 0.363 -67.115
15349.458 0.361 -67.239 0.923 21.126 0.923 21.126 0.361 -67.239
15374.417 0.358 -67.362 0.923 20.991 0.923 20.991 0.358 -67.362
15399.375 0.356 -67.485 0.924 20.857 0.924 20.857 0.356 -67.485
15424.333 0.354 -67.608 0.925 20.722 0.925 20.722 0.354 -67.608
15449.292 0.352 -67.731 0.926 20.587 0.926 20.587 0.352 -67.731
15474.25 0.35 -67.854 0.927 20.452 0.927 20.452 0.35 -67.854
15499.208 0.347 -67.977 0.927 20.317 0.927 20.317 0.347 -67.977
15524.167 0.345 -68.099 0.928 20.183 0.928 20.183 0.345 -68.099
15549.125 0.343 -68.221 0.929 20.048 0.929 20.048 0.343 -68.221
15574.083 0.341 -68.343 0.93 19.913 0.93 19.913 0.341 -68.343
15599.042 0.339 -68.465 0.931 19.779 0.931 19.779 0.339 -68.465
15624 0.336 -68.586 0.931 19.644 0.931 19.644 0.336 -68.586
15648.958 0.334 -68.708 0.932 19.509 0.932 19.509 0.334 -68.708
15673.917 0.332 -68.829 0.933 19.375 0.933 19.375 0.332 -68.829
15698.875 0.33 -68.95 0.934 19.24 0.934 19.24 0.33 -68.95
15723.833 0.327 -69.071 0.934 19.106 0.934 19.106 0.327 -69.071
15748.792 0.325 -69.191 0.935 18.971 0.935 18.971 0.325 -69.191
15773.75 0.323 -69.311 0.936 18.837 0.936 18.837 0.323 -69.311
15798.708 0.321 -69.431 0.937 18.703 0.937 18.703 0.321 -69.431
15823.667 0.319 -69.551 0.937 18.568 0.937 18.568 0.319 -69.551
15848.625 0.316 -69.671 0.938 18.434 0.938 18.434 0.316 -69.671
15873.583 0.314 -69.79 0.939 18.3 0.939 18.3 0.314 -69.79
15898.542 0.312 -69.909 0.94 18.166 0.94 18.166 0.312 -69.909
15923.5 0.31 -70.028 0.94 18.032 0.94 18.032 0.31 -70.028
15948.458 0.307 -70.147 0.941 17.898 0.941 17.898 0.307 -70.147
15973.417 0.305 -70.265 0.942 17.764 0.942 17.764 0.305 -70.265
15998.375 0.303 -70.383 0.943 17.63 0.943 17.63 0.303 -70.383
16023.333 0.301 -70.501 0.943 17.496 0.943 17.496 0.301 -70.501
16048.292 0.299 -70.618 0.944 17.362 0.944 17.362 0.299 -70.618
16073.25 0.296 -70.735 0.945 17.228 0.945 17.228 0.296 -70.735
16098.208 0.294 -70.852 0.945 17.094 0.945 17.094 0.294 -70.852
16123.167 0.292 -70.968 0.946 16.96 0.946 16.96 0.292 -70.968
16148.125 0.29 -71.085 0.947 16.827 0.947 16.827 0.29 -71.085
16173.083 0.287 -71.201 0.947 16.693 0.947 16.693 0.287 -71.201
16198.042 0.285 -71.316 0.948 16.56 0.948 16.56 0.285 -71.316
16223 0.283 -71.431 0.949 16.426 0.949 16.426 0.283 -71.431
16247.958 0.281 -71.546 0.949 16.293 0.949 16.293 0.281 -71.546
16272.917 0.279 -71.661 0.95 16.159 0.95 16.159 0.279 -71.661
16297.875 0.276 -71.775 0.951 16.026 0.951 16.026 0.276 -71.775
16322.833 0.274 -71.889 0.951 15.893 0.951 15.893 0.274 -71.889
16347.792 0.272 -72.002 0.952 15.76 0.952 15.76 0.272 -72.002
16372.75 0.27 -72.116 0.952 15.627 0.952 15.627 0.27 -72.116
16397.708 0.267 -72.228 0.953 15.493 0.953 15.493 0.267 -72.228
16422.667 0.265 -72.34 0.954 15.36 0.954 15.36 0.265 -72.34
16447.625 0.263 -72.452 0.954 15.228 0.954 15.228 0.263 -72.452
16472.583 0.261 -72.564 0.955 15.095 0.955 15.095 0.261 -72.564
16497.542 0.258 -72.675 0.955 14.962 0.955 14.962 0.258 -72.675
16522.5 0.256 -72.786 0.956 14.829 0.956 14.829 0.256 -72.786
16547.458 0.254 -72.896 0.957 14.697 0.957 14.697 0.254 -72.896
16572.417 0.252 -73.005 0.957 14.564 0.957 14.564 0.252 -73.005
16597.375 0.249 -73.115 0.958 14.431 0.958 14.431 0.249 -73.115
16622.333 0.247 -73.223 0.958 14.299 0.958 14.299 0.247 -73.223
16647.292 0.245 -73.332 0.959 14.167 0.959 14.167 0.245 -73.332
16672.25 0.243 -73.439 0.959 14.034 0.959 14.034 0.243 -73.439
16697.208 0.241 -73.547 0.96 13.902 0.96 13.902 0.241 -73.547
16722.167 0.238 -73.653 0.961 13.77 0.961 13.77 0.238 -73.653
16747.125 0.236 -73.759 0.961 13.638 0.961 13.638 0.236 -73.759
16772.083 0.234 -73.865 0.962 13.506 0.962 13.506 0.234 -73.865
16797.042 0.232 -73.97 0.962 13.374 0.962 13.374 0.232 -73.97
16822 0.229 -74.075 0.963 13.242 0.963 13.242 0.229 -74.075
16846.958 0.227 -74.178 0.963 13.111 0.963 13.111 0.227 -74.178
16871.917 0.225 -74.282 0.964 12.979 0.964 12.979 0.225 -74.282
16896.875 0.223 -74.384 0.964 12.847 0.964 12.847 0.223 -74.384
16921.833 0.22 -74.486 0.965 12.716 0.965 12.716 0.22 -74.486
16946.792 0.218 -74.587 0.965 12.584 0.965 12.584 0.218 -74.587
16971.75 0.216 -74.688 0.966 12.453 0.966 12.453 0.216 -74.688
16996.708 0.214 -74.788 0.966 12.322 0.966 12.322 0.214 -74.788
17021.667 0.211 -74.887 0.967 12.191 0.967 12.191 0.211 -74.887
17046.625 0.209 -74.985 0.967 12.06 0.967 12.06 0.209 -74.985
17071.583 0.207 -75.083 0.968 11.929 0.968 11.929 0.207 -75.083
17096.542 0.205 -75.18 0.968 11.798 0.968 11.798 0.205 -75.18
17121.5 0.203 -75.276 0.969 11.667 0.969 11.667 0.203 -75.276
17146.458 0.2 -75.371 0.969 11.536 0.969 11.536 0.2 -75.371
17171.417 0.198 -75.465 0.969 11.406 0.969 11.406 0.198 -75.465
17196.375 0.196 -75.559 0.97 11.275 0.97 11.275 0.196 -75.559
17221.333 0.194 -75.651 0.97 11.145 0.97 11.145 0.194 -75.651
17246.292 0.191 -75.743 0.971 11.014 0.971 11.014 0.191 -75.743
17271.25 0.189 -75.833 0.971 10.884 0.971 10.884 0.189 -75.833
17296.208 0.187 -75.923 0.972 10.754 0.972 10.754 0.187 -75.923
17321.167 0.185 -76.011 0.972 10.624 0.972 10.624 0.185 -76.011
17346.125 0.182 -76.099 0.972 10.494 0.972 10.494 0.182 -76.099
17371.083 0.18 -76.185 0.973 10.364 0.973 10.364 0.18 -76.185
17396.042 0.178 -76.27 0.973 10.235 0.973 10.235 0.178 -76.27
17421 0.176 -76.354 0.974 10.105 0.974 10.105 0.176 -76.354
17445.958 0.174 -76.437 0.974 9.975 0.974 9.975 0.174 -76.437
17470.917 0.171 -76.518 0.974 9.846 0.974 9.846 0.171 -76.518
17495.875 0.169 -76.598 0.975 9.717 0.975 9.717 0.169 -76.598
17520.833 0.167 -76.677 0.975 9.587 0.975 9.587 0.167 -76.677
17545.792 0.165 -76.754 0.976 9.458 0.976 9.458 0.165 -76.754
17570.75 0.162 -76.83 0.976 9.329 0.976 9.329 0.162 -76.83
17595.708 0.16 -76.904 0.976 9.2 0.976 9.2 0.16 -76.904
17620.667 0.158 -76.977 0.977 9.072 0.977 9.072 0.158 -76.977
17645.625 0.156 -77.048 0.977 8.943 0.977 8.943 0.156 -77.048
17670.583 0.154 -77.117 0.977 8.814 0.977 8.814 0.154 -77.117
17695.542 0.151 -77.185 0.978 8.686 0.978 8.686 0.151 -77.185
17720.5 0.149 -77.251 0.978 8.557 0.978 8.557 0.149 -77.251
17745.458 0.147 -77.314 0.978 8.429 0.978 8.429 0.147 -77.314
17770.417 0.145 -77.376 0.979 8.301 0.979 8.301 0.145 -77.376
17795.375 0.143 -77.436 0.979 8.173 0.979 8.173 0.143 -77.436
17820.333 0.14 -77.493 0.979 8.045 0.979 8.045 0.14 -77.493
17845.292 0.138 -77.548 0.98 7.917 0.98 7.917 0.138 -77.548
17870.25 0.136 -77.601 0.98 7.79 0.98 7.79 0.136 -77.601
17895.208 0.134 -77.651 0.98 7.662 0.98 7.662 0.134 -77.651
17920.167 0.132 -77.699 0.98 7.535 0.98 7.535 0.132 -77.699
17945.125 0.129 -77.744 0.981 7.407 0.981 7.407 0.129 -77.744
17970.083 0.127 -77.786 0.981 7.28 0.981 7.28 0.127 -77.786
17995.042 0.125 -77.825 0.981 7.153 0.981 7.153 0.125 -77.825
18020 0.123 -77.86 0.982 7.026 0.982 7.026 0.123 -77.86
18044.958 0.121 -77.893 0.982 6.899 0.982 6.899 0.121 -77.893
18069.917 0.118 -77.922 0.982 6.772 0.982 6.772 0.118 -77.922
18094.875 0.116 -77.947 0.982 6.646 0.982 6.646 0.116 -77.947
18119.833 0.114 -77.968 0.983 6.519 0.983 6.519 0.114 -77.968
18144.792 0.112 -77.985 0.983 6.393 0.983 6.393 0.112 -77.985
18169.75 0.11 -77.998 0.983 6.267 0.983 6.267 0.11 -77.998
18194.708 0.108 -78.006 0.983 6.14 0.983 6.14 0.108 -78.006
18219.667 0.105 -78.01 0.984 6.014 0.984 6.014 0.105 -78.01
18244.625 0.103 -78.008 0.984 5.889 0.984 5.889 0.103 -78.008
18269.583 0.101 -78.001 0.984 5.763 0.984 5.763 0.101 -78.001
18294.542 0.099 -77.987 0.984 5.637 0.984 5.637 0.099 -77.987
18319.5 0.097 -77.968 0.984 5.512 0.984 5.512 0.097 -77.968
18344.458 0.095 -77.942 0.985 5.386 0.985 5.386 0.095 -77.942
18369.417 0.092 -77.909 0.985 5.261 0.985 5.261 0.092 -77.909
18394.375 0.09 -77.869 0.985 5.136 0.985 5.136 0.09 -77.869
18419.333 0.088 -77.82 0.985 5.011 0.985 5.011 0.088 -77.82
18444.292 0.086 -77.763 0.985 4.886 0.985 4.886 0.086 -77.763
18469.25 0.084 -77.696 0.986 4.761 0.986 4.761 0.084 -77.696
18494.208 0.082 -77.62 0.986 4.637 0.986 4.637 0.082 -77.62
18519.167 0.079 -77.532 0.986 4.512 0.986 4.512 0.079 -77.532
18544.125 0.077 -77.433 0.986 4.388 0.986 4.388 0.077 -77.433
18569.083 0.075 -77.322 0.986 4.264 0.986 4.264 0.075 -77.322
18594.042 0.073 -77.196 0.986 4.14 0.986 4.14 0.073 -77.196
18619 0.071 -77.056 0.987 4.016 0.987 4.016 0.071 -77.056
18643.958 0.069 -76.9 0.987 3.892 0.987 3.892 0.069 -76.9
18668.917 0.067 -76.726 0.987 3.768 0.987 3.768 0.067 -76.726
18693.875 0.065 -76.533 0.987 3.645 0.987 3.645 0.065 -76.533
18718.833 0.062 -76.318 0.987 3.522 0.987 3.522 0.062 -76.318
18743.792 0.06 -76.08 0.987 3.398 0.987 3.398 0.06 -76.08
18768.75 0.058 -75.816 0.987 3.275 0.987 3.275 0.058 -75.816
18793.708 0.056 -75.524 0.987 3.152 0.987 3.152 0.056 -75.524
18818.667 0.054 -75.199 0.988 3.029 0.988 3.029 0.054 -75.199
18843.625 0.052 -74.839 0.988 2.907 0.988 2.907 0.052 -74.839
18868.583 0.05 -74.439 0.988 2.784 0.988 2.784 0.05 -74.439
18893.542 0.048 -73.993 0.988 2.662 0.988 2.662 0.048 -73.993
18918.5 0.046 -73.497 0.988 2.54 0.988 2.54 0.046 -73.497
18943.458 0.044 -72.942 0.988 2.417 0.988 2.417 0.044 -72.942
18968.417 0.042 -72.321 0.988 2.295 0.988 2.295 0.042 -72.321
18993.375 0.039 -71.624 0.988 2.174 0.988 2.174 0.039 -71.624
19018.333 0.037 -70.839 0.988 2.052 0.988 2.052 0.037 -70.839
19043.292 0.035 -69.951 0.988 1.93 0.988 1.93 0.035 -69.951
19068.25 0.033 -68.943 0.988 1.809 0.988 1.809 0.033 -68.943
19093.208 0.031 -67.792 0.989 1.688 0.989 1.688 0.031 -67.792
19118.167 0.029 -66.473 0.989 1.567 0.989 1.567 0.029 -66.473
19143.125 0.028 -64.95 0.989 1.446 0.989 1.446 0.028 -64.95
19168.083 0.026 -63.182 0.989 1.325 0.989 1.325 0.026 -63.182
19193.042 0.024 -61.113 0.989 1.204 0.989 1.204 0.024 -61.113
19218 0.022 -58.675 0.989 1.084 0.989 1.084 0.022 -58.675
19242.958 0.02 -55.779 0.989 0.963 0.989 0.963 0.02 -55.779
19267.917 0.018 -52.311 0.989 0.843 0.989 0.843 0.018 -52.311
19292.875 0.017 -48.131 0.989 0.723 0.989 0.723 0.017 -48.131
19317.833 0.015 -43.069 0.989 0.603 0.989 0.603 0.015 -43.069
19342.792 0.014 -36.938 0.989 0.483 0.989 0.483 0.014 -36.938
19367.75 0.013 -29.571 0.989 0.364 0.989 0.364 0.013 -29.571
19392.708 0.012 -20.901 0.989 0.244 0.989 0.244 0.012 -20.901
19417.667 0.011 -11.073 0.989 0.125 0.989 0.125 0.011 -11.073
19442.625 0.011 -0.533 0.989 5.944e-3 0.989 5.944e-3 0.011 -0.533
19467.583 0.011 10.031 0.989 -0.113 0.989 -0.113 0.011 10.031
19492.542 0.012 19.921 0.989 -0.232 0.989 -0.232 0.012 19.921
19517.5 0.013 28.673 0.989 -0.351 0.989 -0.351 0.013 28.673
19542.458 0.014 36.123 0.989 -0.469 0.989 -0.469 0.014 36.123
19567.417 0.015 42.33 0.989 -0.588 0.989 -0.588 0.015 42.33
19592.375 0.017 47.456 0.989 -0.706 0.989 -0.706 0.017 47.456
19617.333 0.018 51.689 0.989 -0.824 0.989 -0.824 0.018 51.689
19642.292 0.02 55.2 0.989 -0.942 0.989 -0.942 0.02 55.2
19667.25 0.022 58.132 0.989 -1.06 0.989 -1.06 0.022 58.132
19692.208 0.023 60.599 0.989 -1.177 0.989 -1.177 0.023 60.599
19717.167 0.025 62.692 0.989 -1.295 0.989 -1.295 0.025 62.692
19742.125 0.027 64.481 0.989 -1.412 0.989 -1.412 0.027 64.481
19767.083 0.029 66.022 0.989 -1.529 0.989 -1.529 0.029 66.022
19792.042 0.031 67.357 0.989 -1.646 0.989 -1.646 0.031 67.357
19817 0.033 68.522 0.989 -1.763 0.989 -1.763 0.033 68.522
19841.958 0.035 69.544 0.988 -1.879 0.988 -1.879 0.035 69.544
19866.917 0.037 70.444 0.988 -1.996 0.988 -1.996 0.037 70.444
19891.875 0.038 71.24 0.988 -2.112 0.988 -2.112 0.038 71.24
19916.833 0.04 71.948 0.988 -2.228 0.988 -2.228 0.04 71.948
19941.792 0.042 72.58 0.988 -2.345 0.988 -2.345 0.042 72.58
19966.75 0.044 73.144 0.988 -2.46 0.988 -2.46 0.044 73.144
19991.708 0.046 73.651 0.988 -2.576 0.988 -2.576 0.046 73.651
20016.667 0.048 74.106 0.988 -2.692 0.988 -2.692 0.048 74.106
20041.625 0.05 74.516 0.988 -2.807 0.988 -2.807 0.05 74.516
20066.583 0.052 74.886 0.988 -2.922 0.988 -2.922 0.052 74.886
20091.542 0.054 75.221 0.988 -3.037 0.988 -3.037 0.054 75.221
20116.5 0.056 75.523 0.987 -3.152 0.987 -3.152 0.056 75.523
20141.458 0.058 75.797 0.987 -3.267 0.987 -3.267 0.058 75.797
20166.417 0.06 76.046 0.987 -3.381 0.987 -3.381 0.06 76.046
20191.375 0.062 76.271 0.987 -3.496 0.987 -3.496 0.062 76.271
20216.333 0.064 76.475 0.987 -3.61 0.987 -3.61 0.064 76.475
20241.292 0.066 76.659 0.987 -3.724 0.987 -3.724 0.066 76.659
20266.25 0.068 76.826 0.987 -3.838 0.987 -3.838 0.068 76.826
20291.208 0.07 76.978 0.987 -3.952 0.987 -3.952 0.07 76.978
20316.167 0.072 77.114 0.986 -4.065 0.986 -4.065 0.072 77.114
20341.125 0.074 77.237 0.986 -4.179 0.986 -4.179 0.074 77.237
20366.083 0.076 77.348 0.986 -4.292 0.986 -4.292 0.076 77.348
20391.042 0.078 77.448 0.986 -4.405 0.986 -4.405 0.078 77.448
20416 0.08 77.536 0.986 -4.518 0.986 -4.518 0.08 77.536
20440.958 0.081 77.616 0.986 -4.631 0.986 -4.631 0.081 77.616
20465.917 0.083 77.686 0.986 -4.743 0.986 -4.743 0.083 77.686
20490.875 0.085 77.747 0.985 -4.856 0.985 -4.856 0.085 77.747
20515.833 0.087 77.801 0.985 -4.968 0.985 -4.968 0.087 77.801
20540.792 0.089 77.848 0.985 -5.08 0.985 -5.08 0.089 77.848
20565.75 0.091 77.888 0.985 -5.192 0.985 -5.192 0.091 77.888
20590.708 0.093 77.921 0.985 -5.304 0.985 -5.304 0.093 77.921
20615.667 0.095 77.949 0.985 -5.415 0.985 -5.415 0.095 77.949
20640.625 0.097 77.971 0.984 -5.527 0.984 -5.527 0.097 77.971
20665.583 0.099 77.988 0.984 -5.638 0.984 -5.638 0.099 77.988
20690.542 0.101 77.999 0.984 -5.749 0.984 -5.749 0.101 77.999
20715.5 0.103 78.007 0.984 -5.86 0.984 -5.86 0.103 78.007
20740.458 0.105 78.01 0.984 -5.971 0.984 -5.971 0.105 78.01
20765.417 0.107 78.009 0.983 -6.081 0.983 -6.081 0.107 78.009
20790.375 0.108 78.004 0.983 -6.192 0.983 -6.192 0.108 78.004
20815.333 0.11 77.995 0.983 -6.302 0.983 -6.302 0.11 77.995
20840.292 0.112 77.983 0.983 -6.412 0.983 -6.412 0.112 77.983
20865.25 0.114 77.968 0.983 -6.522 0.983 -6.522 0.114 77.968
20890.208 0.116 77.95 0.982 -6.632 0.982 -6.632 0.116 77.95
20915.167 0.118 77.928 0.982 -6.741 0.982 -6.741 0.118 77.928
20940.125 0.12 77.904 0.982 -6.85 0.982 -6.85 0.12 77.904
20965.083 0.122 77.878 0.982 -6.96 0.982 -6.96 0.122 77.878
20990.042 0.124 77.849 0.981 -7.069 0.981 -7.069 0.124 77.849
21015 0.125 77.817 0.981 -7.178 0.981 -7.178 0.125 77.817
21039.958 0.127 77.784 0.981 -7.286 0.981 -7.286 0.127 77.784
21064.917 0.129 77.748 0.981 -7.395 0.981 -7.395 0.129 77.748
21089.875 0.131 77.71 0.981 -7.503 0.981 -7.503 0.131 77.71
21114.833 0.133 77.671 0.98 -7.611 0.98 -7.611 0.133 77.671
21139.792 0.135 77.629 0.98 -7.719 0.98 -7.719 0.135 77.629
21164.75 0.137 77.586 0.98 -7.827 0.98 -7.827 0.137 77.586
21189.708 0.138 77.541 0.98 -7.935 0.98 -7.935 0.138 77.541
21214.667 0.14 77.495 0.979 -8.042 0.979 -8.042 0.14 77.495
21239.625 0.142 77.447 0.979 -8.15 0.979 -8.15 0.142 77.447
21264.583 0.144 77.397 0.979 -8.257 0.979 -8.257 0.144 77.397
21289.542 0.146 77.346 0.978 -8.364 0.978 -8.364 0.146 77.346
21314.5 0.148 77.294 0.978 -8.471 0.978 -8.471 0.148 77.294
21339.458 0.15 77.241 0.978 -8.577 0.978 -8.577 0.15 77.241
21364.417 0.151 77.186 0.978 -8.684 0.978 -8.684 0.151 77.186
21389.375 0.153 77.13 0.977 -8.79 0.977 -8.79 0.153 77.13
21414.333 0.155 77.074 0.977 -8.896 0.977 -8.896 0.155 77.074
21439.292 0.157 77.016 0.977 -9.002 0.977 -9.002 0.157 77.016
21464.25 0.159 76.957 0.977 -9.108 0.977 -9.108 0.159 76.957
21489.208 0.16 76.897 0.976 -9.213 0.976 -9.213 0.16 76.897
21514.167 0.162 76.836 0.976 -9.319 0.976 -9.319 0.162 76.836
21539.125 0.164 76.775 0.976 -9.424 0.976 -9.424 0.164 76.775
21564.083 0.166 76.712 0.975 -9.529 0.975 -9.529 0.166 76.712
21589.042 0.168 76.649 0.975 -9.634 0.975 -9.634 0.168 76.649
21614 0.17 76.585 0.975 -9.739 0.975 -9.739 0.17 76.585
21638.958 0.171 76.52 0.974 -9.843 0.974 -9.843 0.171 76.52
21663.917 0.173 76.454 0.974 -9.948 0.974 -9.948 0.173 76.454
21688.875 0.175 76.388 0.974 -10.052 0.974 -10.052 0.175 76.388
21713.833 0.177 76.321 0.973 -10.156 0.973 -10.156 0.177 76.321
21738.792 0.178 76.254 0.973 -10.26 0.973 -10.26 0.178 76.254
21763.75 0.18 76.185 0.973 -10.363 0.973 -10.363 0.18 76.185
21788.708 0.182 76.117 0.973 -10.467 0.973 -10.467 0.182 76.117
21813.667 0.184 76.048 0.972 -10.57 0.972 -10.57 0.184 76.048
21838.625 0.186 75.978 0.972 -10.673 0.972 -10.673 0.186 75.978
21863.583 0.187 75.907 0.972 -10.776 0.972 -10.776 0.187 75.907
21888.542 0.189 75.837 0.971 -10.879 0.971 -10.879 0.189 75.837
21913.5 0.191 75.765 0.971 -10.982 0.971 -10.982 0.191 75.765
21938.458 0.193 75.694 0.971 -11.084 0.971 -11.084 0.193 75.694
21963.417 0.194 75.622 0.97 -11.186 0.97 -11.186 0.194 75.622
21988.375 0.196 75.549 0.97 -11.289 0.97 -11.289 0.196 75.549
22013.333 0.198 75.476 0.969 -11.39 0.969 -11.39 0.198 75.476
22038.292 0.2 75.403 0.969 -11.492 0.969 -11.492 0.2 75.403
22063.25 0.201 75.329 0.969 -11.594 0.969 -11.594 0.201 75.329
22088.208 0.203 75.255 0.968 -11.695 0.968 -11.695 0.203 75.255
22113.167 0.205 75.181 0.968 -11.797 0.968 -11.797 0.205 75.181
22138.125 0.206 75.106 0.968 -11.898 0.968 -11.898 0.206 75.106
22163.083 0.208 75.031 0.967 -11.998 0.967 -11.998 0.208 75.031
22188.042 0.21 74.956 0.967 -12.099 0.967 -12.099 0.21 74.956
22213 0.212 74.88 0.967 -12.2 0.967 -12.2 0.212 74.88
22237.958 0.213 74.804 0.966 -12.3 0.966 -12.3 0.213 74.804
22262.917 0.215 74.728 0.966 -12.4 0.966 -12.4 0.215 74.728
22287.875 0.217 74.652 0.966 -12.5 0.966 -12.5 0.217 74.652
22312.833 0.218 74.575 0.965 -12.6 0.965 -12.6 0.218 74.575
22337.792 0.22 74.498 0.965 -12.7 0.965 -12.7 0.22 74.498
22362.75 0.222 74.421 0.964 -12.799 0.964 -12.799 0.222 74.421
22387.708 0.223 74.344 0.964 -12.899 0.964 -12.899 0.223 74.344
22412.667 0.225 74.267 0.964 -12.998 0.964 -12.998 0.225 74.267
22437.625 0.227 74.189 0.963 -13.097 0.963 -13.097 0.227 74.189
22462.583 0.229 74.111 0.963 -13.196 0.963 -13.196 0.229 74.111
22487.542 0.23 74.033 0.962 -13.294 0.962 -13.294 0.23 74.033
22512.5 0.232 73.955 0.962 -13.393 0.962 -13.393 0.232 73.955
22537.458 0.234 73.877 0.962 -13.491 0.962 -13.491 0.234 73.877
22562.417 0.235 73.799 0.961 -13.589 0.961 -13.589 0.235 73.799
22587.375 0.237 73.72 0.961 -13.687 0.961 -13.687 0.237 73.72
22612.333 0.239 73.641 0.96 -13.785 0.96 -13.785 0.239 73.641
22637.292 0.24 73.563 0.96 -13.882 0.96 -13.882 0.24 73.563
22662.25 0.242 73.484 0.96 -13.98 0.96 -13.98 0.242 73.484
22687.208 0.243 73.405 0.959 -14.077 0.959 -14.077 0.243 73.405
22712.167 0.245 73.326 0.959 -14.174 0.959 -14.174 0.245 73.326
22737.125 0.247 73.246 0.958 -14.271 0.958 -14.271 0.247 73.246
22762.083 0.248 73.167 0.958 -14.368 0.958 -14.368 0.248 73.167
22787.042 0.25 73.088 0.958 -14.464 0.958 -14.464 0.25 73.088
22812 0.252 73.008 0.957 -14.561 0.957 -14.561 0.252 73.008
22836.958 0.253 72.929 0.957 -14.657 0.957 -14.657 0.253 72.929
22861.917 0.255 72.849 0.956 -14.753 0.956 -14.753 0.255 72.849
22886.875 0.256 72.769 0.956 -14.849 0.956 -14.849 0.256 72.769
22911.833 0.258 72.689 0.956 -14.944 0.956 -14.944 0.258 72.689
22936.792 0.26 72.61 0.955 -15.04 0.955 -15.04 0.26 72.61
22961.75 0.261 72.53 0.955 -15.135 0.955 -15.135 0.261 72.53
22986.708 0.263 72.45 0.954 -15.23 0.954 -15.23 0.263 72.45
23011.667 0.265 72.37 0.954 -15.325 0.954 -15.325 0.265 72.37
23036.625 0.266 72.29 0.953 -15.42 0.953 -15.42 0.266 72.29
23061.583 0.268 72.21 0.953 -15.515 0.953 -15.515 0.268 72.21
23086.542 0.269 72.13 0.952 -15.609 0.952 -15.609 0.269 72.13
23111.5 0.271 72.05 0.952 -15.704 0.952 -15.704 0.271 72.05
23136.458 0.272 71.97 0.952 -15.798 0.952 -15.798 0.272 71.97
23161.417 0.274 71.89 0.951 -15.892 0.951 -15.892 0.274 71.89
23186.375 0.276 71.81 0.951 -15.986 0.951 -15.986 0.276 71.81
23211.333 0.277 71.73 0.95 -16.079 0.95 -16.079 0.277 71.73
23236.292 0.279 71.649 0.95 -16.173 0.95 -16.173 0.279 71.649
23261.25 0.28 71.569 0.949 -16.266 0.949 -16.266 0.28 71.569
23286.208 0.282 71.489 0.949 -16.359 0.949 -16.359 0.282 71.489
23311.167 0.283 71.409 0.948 -16.452 0.948 -16.452 0.283 71.409
23336.125 0.285 71.329 0.948 -16.545 0.948 -16.545 0.285 71.329
23361.083 0.287 71.249 0.948 -16.637 0.948 -16.637 0.287 71.249
23386.042 0.288 71.169 0.947 -16.73 0.947 -16.73 0.288 71.169
23411 0.29 71.089 0.947 -16.822 0.947 -16.822 0.29 71.089
23435.958 0.291 71.009 0.946 -16.914 0.946 -16.914 0.291 71.009
23460.917 0.293 70.929 0.946 -17.006 0.946 -17.006 0.293 70.929
23485.875 0.294 70.849 0.945 -17.098 0.945 -17.098 0.294 70.849
23510.833 0.296 70.769 0.945 -17.189 0.945 -17.189 0.296 70.769
23535.792 0.297 70.689 0.944 -17.281 0.944 -17.281 0.297 70.689
23560.75 0.299 70.609 0.944 -17.372 0.944 -17.372 0.299 70.609
23585.708 0.3 70.529 0.943 -17.463 0.943 -17.463 0.3 70.529
23610.667 0.302 70.449 0.943 -17.554 0.943 -17.554 0.302 70.449
23635.625 0.303 70.369 0.942 -17.645 0.942 -17.645 0.303 70.369
23660.583 0.305 70.29 0.942 -17.735 0.942 -17.735 0.305 70.29
23685.542 0.306 70.21 0.941 -17.826 0.941 -17.826 0.306 70.21
23710.5 0.308 70.13 0.941 -17.916 0.941 -17.916 0.308 70.13
23735.458 0.309 70.051 0.941 -18.006 0.941 -18.006 0.309 70.051
23760.417 0.311 69.971 0.94 -18.096 0.94 -18.096 0.311 69.971
23785.375 0.312 69.891 0.94 -18.186 0.94 -18.186 0.312 69.891
23810.333 0.314 69.812 0.939 -18.275 0.939 -18.275 0.314 69.812
23835.292 0.315 69.733 0.939 -18.365 0.939 -18.365 0.315 69.733
23860.25 0.317 69.653 0.938 -18.454 0.938 -18.454 0.317 69.653
23885.208 0.318 69.574 0.938 -18.543 0.938 -18.543 0.318 69.574
23910.167 0.32 69.495 0.937 -18.632 0.937 -18.632 0.32 69.495
23935.125 0.321 69.415 0.937 -18.721 0.937 -18.721 0.321 69.415
23960.083 0.323 69.336 0.936 -18.809 0.936 -18.809 0.323 69.336
23985.042 0.324 69.257 0.936 -18.898 0.936 -18.898 0.324 69.257
24010 0.326 69.178 0.935 -18.986 0.935 -18.986 0.326 69.178
24034.958 0.327 69.099 0.935 -19.074 0.935 -19.074 0.327 69.099
24059.917 0.328 69.02 0.934 -19.162 0.934 -19.162 0.328 69.02
24084.875 0.33 68.942 0.934 -19.25 0.934 -19.25 0.33 68.942
24109.833 0.331 68.863 0.933 -19.337 0.933 -19.337 0.331 68.863
24134.792 0.333 68.784 0.933 -19.424 0.933 -19.424 0.333 68.784
24159.75 0.334 68.706 0.932 -19.512 0.932 -19.512 0.334 68.706
24184.708 0.336 68.627 0.932 -19.599 0.932 -19.599 0.336 68.627
24209.667 0.337 68.549 0.931 -19.686 0.931 -19.686 0.337 68.549
24234.625 0.338 68.47 0.931 -19.772 0.931 -19.772 0.338 68.47
24259.583 0.34 68.392 0.93 -19.859 0.93 -19.859 0.34 68.392
24284.542 0.341 68.314 0.93 -19.945 0.93 -19.945 0.341 68.314
24309.5 0.343 68.236 0.929 -20.032 0.929 -20.032 0.343 68.236
24334.458 0.344 68.158 0.929 -20.118 0.929 -20.118 0.344 68.158
24359.417 0.346 68.08 0.928 -20.204 0.928 -20.204 0.346 68.08
24384.375 0.347 68.002 0.928 -20.289 0.928 -20.289 0.347 68.002
24409.333 0.348 67.924 0.927 -20.375 0.927 -20.375 0.348 67.924
24434.292 0.35 67.846 0.927 -20.46 0.927 -20.46 0.35 67.846
24459.25 0.351 67.769 0.926 -20.546 0.926 -20.546 0.351 67.769
24484.208 0.352 67.691 0.926 -20.631 0.926 -20.631 0.352 67.691
24509.167 0.354 67.614 0.925 -20.716 0.925 -20.716 0.354 67.614
24534.125 0.355 67.536 0.925 -20.801 0.925 -20.801 0.355 67.536
24559.083 0.357 67.459 0.924 -20.885 0.924 -20.885 0.357 67.459
24584.042 0.358 67.382 0.923 -20.97 0.923 -20.97 0.358 67.382
24609 0.359 67.305 0.923 -21.054 0.923 -21.054 0.359 67.305
24633.958 0.361 67.228 0.922 -21.138 0.922 -21.138 0.361 67.228
24658.917 0.362 67.151 0.922 -21.222 0.922 -21.222 0.362 67.151
24683.875 0.363 67.074 0.921 -21.306 0.921 -21.306 0.363 67.074
24708.833 0.365 66.998 0.921 -21.39 0.921 -21.39 0.365 66.998
24733.792 0.366 66.921 0.92 -21.473 0.92 -21.473 0.366 66.921
24758.75 0.368 66.844 0.92 -21.556 0.92 -21.556 0.368 66.844
24783.708 0.369 66.768 0.919 -21.64 0.919 -21.64 0.369 66.768
24808.667 0.37 66.692 0.919 -21.723 0.919 -21.723 0.37 66.692
24833.625 0.372 66.615 0.918 -21.806 0.918 -21.806 0.372 66.615
24858.583 0.373 66.539 0.918 -21.888 0.918 -21.888 0.373 66.539
24883.542 0.374 66.463 0.917 -21.971 0.917 -21.971 0.374 66.463
24908.5 0.376 66.387 0.917 -22.053 0.917 -22.053 0.376 66.387
24933.458 0.377 66.312 0.916 -22.135 0.916 -22.135 0.377 66.312
24958.417 0.378 66.236 0.916 -22.217 0.916 -22.217 0.378 66.236
24983.375 0.38 66.16 0.915 -22.299 0.915 -22.299 0.38 66.16
25008.333 0.381 66.085 0.914 -22.381 0.914 -22.381 0.381 66.085
25033.292 0.382 66.009 0.914 -22.463 0.914 -22.463 0.382 66.009
25058.25 0.384 65.934 0.913 -22.544 0.913 -22.544 0.384 65.934
25083.208 0.385 65.859 0.913 -22.625 0.913 -22.625 0.385 65.859
25108.167 0.386 65.784 0.912 -22.707 0.912 -22.707 0.386 65.784
25133.125 0.387 65.709 0.912 -22.788 0.912 -22.788 0.387 65.709
25158.083 0.389 65.634 0.911 -22.868 0.911 -22.868 0.389 65.634
25183.042 0.39 65.559 0.911 -22.949 0.911 -22.949 0.39 65.559
25208 0.391 65.484 0.91 -23.03 0.91 -23.03 0.391 65.484
25232.958 0.393 65.41 0.91 -23.11 0.91 -23.11 0.393 65.41
25257.917 0.394 65.335 0.909 -23.19 0.909 -23.19 0.394 65.335
25282.875 0.395 65.261 0.909 -23.27 0.909 -23.27 0.395 65.261
25307.833 0.396 65.187 0.908 -23.35 0.908 -23.35 0.396 65.187
25332.792 0.398 65.112 0.907 -23.43 0.907 -23.43 0.398 65.112
25357.75 0.399 65.038 0.907 -23.509 0.907 -23.509 0.399 65.038
25382.708 0.4 64.964 0.906 -23.589 0.906 -23.589 0.4 64.964
25407.667 0.402 64.891 0.906 -23.668 0.906 -23.668 0.402 64.891
25432.625 0.403 64.817 0.905 -23.747 0.905 -23.747 0.403 64.817
25457.583 0.404 64.743 0.905 -23.826 0.905 -23.826 0.404 64.743
25482.542 0.405 64.67 0.904 -23.905 0.904 -23.905 0.405 64.67
25507.5 0.407 64.596 0.904 -23.983 0.904 -23.983 0.407 64.596
25532.458 0.408 64.523 0.903 -24.062 0.903 -24.062 0.408 64.523
25557.417 0.409 64.45 0.902 -24.14 0.902 -24.14 0.409 64.45
25582.375 0.41 64.377 0.902 -24.219 0.902 -24.219 0.41 64.377
25607.333 0.412 64.304 0.901 -24.297 0.901 -24.297 0.412 64.304
25632.292 0.413 64.231 0.901 -24.374 0.901 -24.374 0.413 64.231
25657.25 0.414 64.158 0.9 -24.452 0.9 -24.452 0.414 64.158
25682.208 0.415 64.086 0.9 -24.53 0.9 -24.53 0.415 64.086
25707.167 0.417 64.013 0.899 -24.607 0.899 -24.607 0.417 64.013
25732.125 0.418 63.941 0.899 -24.685 0.899 -24.685 0.418 63.941
25757.083 0.419 63.869 0.898 -24.762 0.898 -24.762 0.419 63.869
25782.042 0.42 63.796 0.897 -24.839 0.897 -24.839 0.42 63.796
25807 0.421 63.724 0.897 -24.916 0.897 -24.916 0.421 63.724
25831.958 0.423 63.652 0.896 -24.992 0.896 -24.992 0.423 63.652
25856.917 0.424 63.581 0.896 -25.069 0.896 -25.069 0.424 63.581
25881.875 0.425 63.509 0.895 -25.145 0.895 -25.145 0.425 63.509
25906.833 0.426 63.437 0.895 -25.221 0.895 -25.221 0.426 63.437
25931.792 0.427 63.366 0.894 -25.297 0.894 -25.297 0.427 63.366
25956.75 0.429 63.294 0.894 -25.373 0.894 -25.373 0.429 63.294
25981.708 0.43 63.223 0.893 -25.449 0.893 -25.449 0.43 63.223
26006.667 0.431 63.152 0.892 -25.525 0.892 -25.525 0.431 63.152
26031.625 0.432 63.081 0.892 -25.6 0.892 -25.6 0.432 63.081
26056.583 0.433 63.01 0.891 -25.676 0.891 -25.676 0.433 63.01
26081.542 0.435 62.939 0.891 -25.751 0.891 -25.751 0.435 62.939
26106.5 0.436 62.869 0.89 -25.826 0.89 -25.826 0.436 62.869
26131.458 0.437 62.798 0.89 -25.901 0.89 -25.901 0.437 62.798
26156.417 0.438 62.728 0.889 -25.976 0.889 -25.976 0.438 62.728
26181.375 0.439 62.657 0.889 -26.05 0.889 -26.05 0.439 62.657
26206.333 0.44 62.587 0.888 -26.125 0.888 -26.125 0.44 62.587
26231.292 0.442 62.517 0.887 -26.199 0.887 -26.199 0.442 62.517
26256.25 0.443 62.447 0.887 -26.273 0.887 -26.273 0.443 62.447
26281.208 0.444 62.377 0.886 -26.347 0.886 -26.347 0.444 62.377
26306.167 0.445 62.307 0.886 -26.421 0.886 -26.421 0.445 62.307
26331.125 0.446 62.237 0.885 -26.495 0.885 -26.495 0.446 62.237
26356.083 0.447 62.168 0.885 -26.569 0.885 -26.569 0.447 62.168
26381.042 0.449 62.098 0.884 -26.642 0.884 -26.642 0.449 62.098
26406 0.45 62.029 0.883 -26.716 0.883 -26.716 0.45 62.029
26430.958 0.451 61.96 0.883 -26.789 0.883 -26.789 0.451 61.96
26455.917 0.452 61.891 0.882 -26.862 0.882 -26.862 0.452 61.891
26480.875 0.453 61.822 0.882 -26.935 0.882 -26.935 0.453 61.822
26505.833 0.454 61.753 0.881 -27.007 0.881 -27.007 0.454 61.753
26530.792 0.455 61.684 0.881 -27.08 0.881 -27.08 0.455 61.684
26555.75 0.456 61.616 0.88 -27.153 0.88 -27.153 0.456 61.616
26580.708 0.458 61.547 0.879 -27.225 0.879 -27.225 0.458 61.547
26605.667 0.459 61.479 0.879 -27.297 0.879 -27.297 0.459 61.479
26630.625 0.46 61.41 0.878 -27.369 0.878 -27.369 0.46 61.41
26655.583 0.461 61.342 0.878 -27.441 0.878 -27.441 0.461 61.342
26680.542 0.462 61.274 0.877 -27.513 0.877 -27.513 0.462 61.274
26705.5 0.463 61.206 0.877 -27.584 0.877 -27.584 0.463 61.206
26730.458 0.464 61.138 0.876 -27.656 0.876 -27.656 0.464 61.138
26755.417 0.465 61.071 0.875 -27.727 0.875 -27.727 0.465 61.071
26780.375 0.466 61.003 0.875 -27.798 0.875 -27.798 0.466 61.003
26805.333 0.468 60.936 0.874 -27.87 0.874 -27.87 0.468 60.936
26830.292 0.469 60.868 0.874 -27.94 0.874 -27.94 0.469 60.868
26855.25 0.47 60.801 0.873 -28.011 0.873 -28.011 0.47 60.801
26880.208 0.471 60.734 0.873 -28.082 0.873 -28.082 0.471 60.734
26905.167 0.472 60.667 0.872 -28.152 0.872 -28.152 0.472 60.667
26930.125 0.473 60.6 0.871 -28.223 0.871 -28.223 0.473 60.6
26955.083 0.474 60.533 0.871 -28.293 0.871 -28.293 0.474 60.533
26980.042 0.475 60.466 0.87 -28.363 0.87 -28.363 0.475 60.466
27005 0.476 60.4 0.87 -28.433 0.87 -28.433 0.476 60.4
27029.958 0.477 60.333 0.869 -28.503 0.869 -28.503 0.477 60.333
27054.917 0.478 60.267 0.869 -28.573 0.869 -28.573 0.478 60.267
27079.875 0.479 60.201 0.868 -28.642 0.868 -28.642 0.479 60.201
27104.833 0.481 60.135 0.867 -28.712 0.867 -28.712 0.481 60.135
27129.792 0.482 60.069 0.867 -28.781 0.867 -28.781 0.482 60.069
27154.75 0.483 60.003 0.866 -28.85 0.866 -28.85 0.483 60.003
27179.708 0.484 59.937 0.866 -28.919 0.866 -28.919 0.484 59.937
27204.667 0.485 59.872 0.865 -28.988 0.865 -28.988 0.485 59.872
27229.625 0.486 59.806 0.864 -29.057 0.864 -29.057 0.486 59.806
27254.583 0.487 59.741 0.864 -29.125 0.864 -29.125 0.487 59.741
27279.542 0.488 59.675 0.863 -29.194 0.863 -29.194 0.488 59.675
27304.5 0.489 59.61 0.863 -29.262 0.863 -29.262 0.489 59.61
27329.458 0.49 59.545 0.862 -29.331 0.862 -29.331 0.49 59.545
27354.417 0.491 59.48 0.862 -29.399 0.862 -29.399 0.491 59.48
27379.375 0.492 59.415 0.861 -29.467 0.861 -29.467 0.492 59.415
27404.333 0.493 59.35 0.86 -29.534 0.86 -29.534 0.493 59.35
27429.292 0.494 59.286 0.86 -29.602 0.86 -29.602 0.494 59.286
27454.25 0.495 59.221 0.859 -29.67 0.859 -29.67 0.495 59.221
27479.208 0.496 59.157 0.859 -29.737 0.859 -29.737 0.496 59.157
27504.167 0.497 59.093 0.858 -29.804 0.858 -29.804 0.497 59.093
27529.125 0.498 59.028 0.858 -29.872 0.858 -29.872 0.498 59.028
27554.083 0.499 58.964 0.857 -29.939 0.857 -29.939 0.499 58.964
27579.042 0.5 58.9 0.856 -30.005 0.856 -30.005 0.5 58.9
27604 0.501 58.837 0.856 -30.072 0.856 -30.072 0.501 58.837
27628.958 0.502 58.773 0.855 -30.139 0.855 -30.139 0.502 58.773
27653.917 0.503 58.709 0.855 -30.205 0.855 -30.205 0.503 58.709
27678.875 0.504 58.646 0.854 -30.272 0.854 -30.272 0.504 58.646
27703.833 0.505 58.582 0.854 -30.338 0.854 -30.338 0.505 58.582
27728.792 0.506 58.519 0.853 -30.404 0.853 -30.404 0.506 58.519
27753.75 0.507 58.456 0.852 -30.47 0.852 -30.47 0.507 58.456
27778.708 0.508 58.393 0.852 -30.536 0.852 -30.536 0.508 58.393
27803.667 0.509 58.33 0.851 -30.602 0.851 -30.602 0.509 58.33
27828.625 0.51 58.267 0.851 -30.667 0.851 -30.667 0.51 58.267
27853.583 0.511 58.204 0.85 -30.733 0.85 -30.733 0.511 58.204
27878.542 0.512 58.142 0.85 -30.798 0.85 -30.798 0.512 58.142
27903.5 0.513 58.079 0.849 -30.863 0.849 -30.863 0.513 58.079
27928.458 0.514 58.017 0.848 -30.929 0.848 -30.929 0.514 58.017
27953.417 0.515 57.955 0.848 -30.994 0.848 -30.994 0.515 57.955
27978.375 0.516 57.892 0.847 -31.058 0.847 -31.058 0.516 57.892
28003.333 0.517 57.83 0.847 -31.123 0.847 -31.123 0.517 57.83
28028.292 0.518 57.768 0.846 -31.188 0.846 -31.188 0.518 57.768
28053.25 0.519 57.707 0.845 -31.252 0.845 -31.252 0.519 57.707
28078.208 0.52 57.645 0.845 -31.317 0.845 -31.317 0.52 57.645
28103.167 0.521 57.583 0.844 -31.381 0.844 -31.381 0.521 57.583
28128.125 0.522 57.522 0.844 -31.445 0.844 -31.445 0.522 57.522
28153.083 0.523 57.46 0.843 -31.509 0.843 -31.509 0.523 57.46
28178.042 0.524 57.399 0.843 -31.573 0.843 -31.573 0.524 57.399
28203 0.525 57.338 0.842 -31.636 0.842 -31.636 0.525 57.338
28227.958 0.526 57.277 0.841 -31.7 0.841 -31.7 0.526 57.277
28252.917 0.526 57.216 0.841 -31.764 0.841 -31.764 0.526 57.216
28277.875 0.527 57.155 0.84 -31.827 0.84 -31.827 0.527 57.155
28302.833 0.528 57.094 0.84 -31.89 0.84 -31.89 0.528 57.094
28327.792 0.529 57.034 0.839 -31.953 0.839 -31.953 0.529 57.034
28352.75 0.53 56.973 0.839 -32.016 0.839 -32.016 0.53 56.973
28377.708 0.531 56.913 0.838 -32.079 0.838 -32.079 0.531 56.913
28402.667 0.532 56.853 0.837 -32.142 0.837 -32.142 0.532 56.853
28427.625 0.533 56.792 0.837 -32.205 0.837 -32.205 0.533 56.792
28452.583 0.534 56.732 0.836 -32.267 0.836 -32.267 0.534 56.732
28477.542 0.535 56.672 0.836 -32.329 0.836 -32.329 0.535 56.672
28502.5 0.536 56.612 0.835 -32.392 0.835 -32.392 0.536 56.612
28527.458 0.537 56.553 0.835 -32.454 0.835 -32.454 0.537 56.553
28552.417 0.538 56.493 0.834 -32.516 0.834 -32.516 0.538 56.493
28577.375 0.539 56.433 0.833 -32.578 0.833 -32.578 0.539 56.433
28602.333 0.539 56.374 0.833 -32.64 0.833 -32.64 0.539 56.374
28627.292 0.54 56.315 0.832 -32.701 0.832 -32.701 0.54 56.315
28652.25 0.541 56.255 0.832 -32.763 0.832 -32.763 0.541 56.255
28677.208 0.542 56.196 0.831 -32.824 0.831 -32.824 0.542 56.196
28702.167 0.543 56.137 0.83 -32.885 0.83 -32.885 0.543 56.137
28727.125 0.544 56.078 0.83 -32.947 0.83 -32.947 0.544 56.078
28752.083 0.545 56.02 0.829 -33.008 0.829 -33.008 0.545 56.02
28777.042 0.546 55.961 0.829 -33.069 0.829 -33.069 0.546 55.961
28802 0.547 55.902 0.828 -33.13 0.828 -33.13 0.547 55.902
28826.958 0.547 55.844 0.828 -33.19 0.828 -33.19 0.547 55.844
28851.917 0.548 55.785 0.827 -33.251 0.827 -33.251 0.548 55.785
28876.875 0.549 55.727 0.826 -33.311 0.826 -33.311 0.549 55.727
28901.833 0.55 55.669 0.826 -33.372 0.826 -33.372 0.55 55.669
28926.792 0.551 55.611 0.825 -33.432 0.825 -33.432 0.551 55.611
28951.75 0.552 55.553 0.825 -33.492 0.825 -33.492 0.552 55.553
28976.708 0.553 55.495 0.824 -33.552 0.824 -33.552 0.553 55.495
29001.667 0.554 55.437 0.824 -33.612 0.824 -33.612 0.554 55.437
29026.625 0.555 55.38 0.823 -33.672 0.823 -33.672 0.555 55.38
29051.583 0.555 55.322 0.822 -33.732 0.822 -33.732 0.555 55.322
29076.542 0.556 55.265 0.822 -33.791 0.822 -33.791 0.556 55.265
29101.5 0.557 55.207 0.821 -33.851 0.821 -33.851 0.557 55.207
29126.458 0.558 55.15 0.821 -33.91 0.821 -33.91 0.558 55.15
29151.417 0.559 55.093 0.82 -33.969 0.82 -33.969 0.559 55.093
29176.375 0.56 55.036 0.82 -34.028 0.82 -34.028 0.56 55.036
29201.333 0.561 54.979 0.819 -34.087 0.819 -34.087 0.561 54.979
29226.292 0.561 54.922 0.818 -34.146 0.818 -34.146 0.561 54.922
29251.25 0.562 54.866 0.818 -34.205 0.818 -34.205 0.562 54.866
29276.208 0.563 54.809 0.817 -34.264 0.817 -34.264 0.563 54.809
29301.167 0.564 54.752 0.817 -34.322 0.817 -34.322 0.564 54.752
29326.125 0.565 54.696 0.816 -34.381 0.816 -34.381 0.565 54.696
29351.083 0.566 54.64 0.816 -34.439 0.816 -34.439 0.566 54.64
29376.042 0.566 54.584 0.815 -34.497 0.815 -34.497 0.566 54.584
29401 0.567 54.527 0.814 -34.555 0.814 -34.555 0.567 54.527
29425.958 0.568 54.471 0.814 -34.613 0.814 -34.613 0.568 54.471
29450.917 0.569 54.416 0.813 -34.671 0.813 -34.671 0.569 54.416
29475.875 0.57 54.36 0.813 -34.729 0.813 -34.729 0.57 54.36
29500.833 0.571 54.304 0.812 -34.786 0.812 -34.786 0.571 54.304
29525.792 0.571 54.248 0.812 -34.844 0.812 -34.844 0.571 54.248
29550.75 0.572 54.193 0.811 -34.901 0.811 -34.901 0.572 54.193
29575.708 0.573 54.138 0.811 -34.959 0.811 -34.959 0.573 54.138
29600.667 0.574 54.082 0.81 -35.016 0.81 -35.016 0.574 54.082
29625.625 0.575 54.027 0.809 -35.073 0.809 -35.073 0.575 54.027
29650.583 0.576 53.972 0.809 -35.13 0.809 -35.13 0.576 53.972
29675.542 0.576 53.917 0.808 -35.187 0.808 -35.187 0.576 53.917
29700.5 0.577 53.862 0.808 -35.244 0.808 -35.244 0.577 53.862
29725.458 0.578 53.807 0.807 -35.3 0.807 -35.3 0.578 53.807
29750.417 0.579 53.752 0.807 -35.357 0.807 -35.357 0.579 53.752
29775.375 0.58 53.698 0.806 -35.413 0.806 -35.413 0.58 53.698
29800.333 0.58 53.643 0.805 -35.47 0.805 -35.47 0.58 53.643
29825.292 0.581 53.589 0.805 -35.526 0.805 -35.526 0.581 53.589
29850.25 0.582 53.535 0.804 -35.582 0.804 -35.582 0.582 53.535
29875.208 0.583 53.48 0.804 -35.638 0.804 -35.638 0.583 53.48
29900.167 0.584 53.426 0.803 -35.694 0.803 -35.694 0.584 53.426
29925.125 0.584 53.372 0.803 -35.75 0.803 -35.75 0.584 53.372
29950.083 0.585 53.318 0.802 -35.806 0.802 -35.806 0.585 53.318
29975.042 0.586 53.265 0.801 -35.861 0.801 -35.861 0.586 53.265
30000 0.587 53.211 0.801 -35.917 0.801 -35.917 0.587 53.211
