!	AVX Thin Film Operation 	Date: April 2014		
!	Description: Accu-P® Series, Thin Film  SMD RF Capacitor
!	Part Number: 04021J0R2ZBSTR					
!
# MHZ S MA R 50

50 1 -0.36 6.283e-3 89.637 6.283e-3 89.637 1 -0.36
74.958 1 -0.54 9.419e-3 89.455 9.419e-3 89.455 1 -0.54
99.917 1 -0.719 0.013 89.274 0.013 89.274 1 -0.719
124.875 1 -0.899 0.016 89.093 0.016 89.093 1 -0.899
149.833 1 -1.079 0.019 88.911 0.019 88.911 1 -1.079
174.792 1 -1.258 0.022 88.73 0.022 88.73 1 -1.258
199.75 1 -1.438 0.025 88.549 0.025 88.549 1 -1.438
224.708 1 -1.618 0.028 88.367 0.028 88.367 1 -1.618
249.667 0.999 -1.797 0.031 88.186 0.031 88.186 0.999 -1.797
274.625 0.999 -1.977 0.034 88.005 0.034 88.005 0.999 -1.977
299.583 0.999 -2.157 0.038 87.824 0.038 87.824 0.999 -2.157
324.542 0.999 -2.336 0.041 87.642 0.041 87.642 0.999 -2.336
349.5 0.999 -2.516 0.044 87.461 0.044 87.461 0.999 -2.516
374.458 0.999 -2.695 0.047 87.28 0.047 87.28 0.999 -2.695
399.417 0.999 -2.875 0.05 87.099 0.05 87.099 0.999 -2.875
424.375 0.999 -3.055 0.053 86.917 0.053 86.917 0.999 -3.055
449.333 0.998 -3.234 0.056 86.736 0.056 86.736 0.998 -3.234
474.292 0.998 -3.414 0.06 86.555 0.06 86.555 0.998 -3.414
499.25 0.998 -3.593 0.063 86.374 0.063 86.374 0.998 -3.593
524.208 0.998 -3.773 0.066 86.193 0.066 86.193 0.998 -3.773
549.167 0.998 -3.952 0.069 86.012 0.069 86.012 0.998 -3.952
574.125 0.997 -4.131 0.072 85.831 0.072 85.831 0.997 -4.131
599.083 0.997 -4.311 0.075 85.65 0.075 85.65 0.997 -4.311
624.042 0.997 -4.49 0.078 85.469 0.078 85.469 0.997 -4.49
649 0.997 -4.669 0.081 85.288 0.081 85.288 0.997 -4.669
673.958 0.996 -4.849 0.085 85.107 0.085 85.107 0.996 -4.849
698.917 0.996 -5.028 0.088 84.926 0.088 84.926 0.996 -5.028
723.875 0.996 -5.207 0.091 84.745 0.091 84.745 0.996 -5.207
748.833 0.996 -5.386 0.094 84.564 0.094 84.564 0.996 -5.386
773.792 0.995 -5.566 0.097 84.383 0.097 84.383 0.995 -5.566
798.75 0.995 -5.745 0.1 84.203 0.1 84.203 0.995 -5.745
823.708 0.995 -5.924 0.103 84.022 0.103 84.022 0.995 -5.924
848.667 0.994 -6.103 0.106 83.841 0.106 83.841 0.994 -6.103
873.625 0.994 -6.282 0.109 83.66 0.109 83.66 0.994 -6.282
898.583 0.994 -6.461 0.113 83.48 0.113 83.48 0.994 -6.461
923.542 0.993 -6.64 0.116 83.299 0.116 83.299 0.993 -6.64
948.5 0.993 -6.819 0.119 83.119 0.119 83.119 0.993 -6.819
973.458 0.992 -6.998 0.122 82.938 0.122 82.938 0.992 -6.998
998.417 0.992 -7.176 0.125 82.758 0.125 82.758 0.992 -7.176
1023.375 0.992 -7.355 0.128 82.577 0.128 82.577 0.992 -7.355
1048.333 0.991 -7.534 0.131 82.397 0.131 82.397 0.991 -7.534
1073.292 0.991 -7.713 0.134 82.217 0.134 82.217 0.991 -7.713
1098.25 0.99 -7.891 0.137 82.036 0.137 82.036 0.99 -7.891
1123.208 0.99 -8.07 0.14 81.856 0.14 81.856 0.99 -8.07
1148.167 0.989 -8.248 0.143 81.676 0.143 81.676 0.989 -8.248
1173.125 0.989 -8.427 0.147 81.496 0.147 81.496 0.989 -8.427
1198.083 0.989 -8.605 0.15 81.316 0.15 81.316 0.989 -8.605
1223.042 0.988 -8.784 0.153 81.136 0.153 81.136 0.988 -8.784
1248 0.988 -8.962 0.156 80.956 0.156 80.956 0.988 -8.962
1272.958 0.987 -9.14 0.159 80.776 0.159 80.776 0.987 -9.14
1297.917 0.987 -9.318 0.162 80.596 0.162 80.596 0.987 -9.318
1322.875 0.986 -9.497 0.165 80.416 0.165 80.416 0.986 -9.497
1347.833 0.986 -9.675 0.168 80.236 0.168 80.236 0.986 -9.675
1372.792 0.985 -9.853 0.171 80.056 0.171 80.056 0.985 -9.853
1397.75 0.984 -10.031 0.174 79.877 0.174 79.877 0.984 -10.031
1422.708 0.984 -10.209 0.177 79.697 0.177 79.697 0.984 -10.209
1447.667 0.983 -10.386 0.18 79.518 0.18 79.518 0.983 -10.386
1472.625 0.983 -10.564 0.183 79.338 0.183 79.338 0.983 -10.564
1497.583 0.982 -10.742 0.186 79.159 0.186 79.159 0.982 -10.742
1522.542 0.982 -10.919 0.189 78.98 0.189 78.98 0.982 -10.919
1547.5 0.981 -11.097 0.192 78.8 0.192 78.8 0.981 -11.097
1572.458 0.98 -11.275 0.196 78.621 0.196 78.621 0.98 -11.275
1597.417 0.98 -11.452 0.199 78.442 0.199 78.442 0.98 -11.452
1622.375 0.979 -11.629 0.202 78.263 0.202 78.263 0.979 -11.629
1647.333 0.978 -11.807 0.205 78.084 0.205 78.084 0.978 -11.807
1672.292 0.978 -11.984 0.208 77.905 0.208 77.905 0.978 -11.984
1697.25 0.977 -12.161 0.211 77.726 0.211 77.726 0.977 -12.161
1722.208 0.976 -12.338 0.214 77.548 0.214 77.548 0.976 -12.338
1747.167 0.976 -12.515 0.217 77.369 0.217 77.369 0.976 -12.515
1772.125 0.975 -12.692 0.22 77.19 0.22 77.19 0.975 -12.692
1797.083 0.974 -12.869 0.223 77.012 0.223 77.012 0.974 -12.869
1822.042 0.974 -13.046 0.226 76.833 0.226 76.833 0.974 -13.046
1847 0.973 -13.222 0.229 76.655 0.229 76.655 0.973 -13.222
1871.958 0.972 -13.399 0.232 76.477 0.232 76.477 0.972 -13.399
1896.917 0.972 -13.575 0.235 76.298 0.235 76.298 0.972 -13.575
1921.875 0.971 -13.752 0.238 76.12 0.238 76.12 0.971 -13.752
1946.833 0.97 -13.928 0.241 75.942 0.241 75.942 0.97 -13.928
1971.792 0.969 -14.104 0.244 75.764 0.244 75.764 0.969 -14.104
1996.75 0.969 -14.281 0.247 75.586 0.247 75.586 0.969 -14.281
2021.708 0.968 -14.457 0.25 75.409 0.25 75.409 0.968 -14.457
2046.667 0.967 -14.633 0.253 75.231 0.253 75.231 0.967 -14.633
2071.625 0.966 -14.809 0.256 75.053 0.256 75.053 0.966 -14.809
2096.583 0.965 -14.984 0.259 74.876 0.259 74.876 0.965 -14.984
2121.542 0.965 -15.16 0.262 74.698 0.262 74.698 0.965 -15.16
2146.5 0.964 -15.336 0.264 74.521 0.264 74.521 0.964 -15.336
2171.458 0.963 -15.511 0.267 74.344 0.267 74.344 0.963 -15.511
2196.417 0.962 -15.687 0.27 74.166 0.27 74.166 0.962 -15.687
2221.375 0.961 -15.862 0.273 73.989 0.273 73.989 0.961 -15.862
2246.333 0.96 -16.037 0.276 73.812 0.276 73.812 0.96 -16.037
2271.292 0.959 -16.212 0.279 73.635 0.279 73.635 0.959 -16.212
2296.25 0.959 -16.388 0.282 73.459 0.282 73.459 0.959 -16.388
2321.208 0.958 -16.562 0.285 73.282 0.285 73.282 0.958 -16.562
2346.167 0.957 -16.737 0.288 73.105 0.288 73.105 0.957 -16.737
2371.125 0.956 -16.912 0.291 72.929 0.291 72.929 0.956 -16.912
2396.083 0.955 -17.087 0.294 72.752 0.294 72.752 0.955 -17.087
2421.042 0.954 -17.261 0.297 72.576 0.297 72.576 0.954 -17.261
2446 0.953 -17.436 0.3 72.4 0.3 72.4 0.953 -17.436
2470.958 0.952 -17.61 0.303 72.224 0.303 72.224 0.952 -17.61
2495.917 0.951 -17.784 0.305 72.048 0.305 72.048 0.951 -17.784
2520.875 0.95 -17.959 0.308 71.872 0.308 71.872 0.95 -17.959
2545.833 0.949 -18.133 0.311 71.696 0.311 71.696 0.949 -18.133
2570.792 0.948 -18.306 0.314 71.52 0.314 71.52 0.948 -18.306
2595.75 0.947 -18.48 0.317 71.345 0.317 71.345 0.947 -18.48
2620.708 0.946 -18.654 0.32 71.169 0.32 71.169 0.946 -18.654
2645.667 0.945 -18.828 0.323 70.994 0.323 70.994 0.945 -18.828
2670.625 0.944 -19.001 0.326 70.819 0.326 70.819 0.944 -19.001
2695.583 0.943 -19.174 0.328 70.644 0.328 70.644 0.943 -19.174
2720.542 0.942 -19.348 0.331 70.469 0.331 70.469 0.942 -19.348
2745.5 0.941 -19.521 0.334 70.294 0.334 70.294 0.941 -19.521
2770.458 0.94 -19.694 0.337 70.119 0.337 70.119 0.94 -19.694
2795.417 0.939 -19.867 0.34 69.944 0.34 69.944 0.939 -19.867
2820.375 0.938 -20.04 0.343 69.77 0.343 69.77 0.938 -20.04
2845.333 0.937 -20.212 0.345 69.595 0.345 69.595 0.937 -20.212
2870.292 0.936 -20.385 0.348 69.421 0.348 69.421 0.936 -20.385
2895.25 0.935 -20.557 0.351 69.247 0.351 69.247 0.935 -20.557
2920.208 0.934 -20.729 0.354 69.072 0.354 69.072 0.934 -20.729
2945.167 0.933 -20.902 0.357 68.898 0.357 68.898 0.933 -20.902
2970.125 0.932 -21.074 0.36 68.725 0.36 68.725 0.932 -21.074
2995.083 0.931 -21.246 0.362 68.551 0.362 68.551 0.931 -21.246
3020.042 0.93 -21.417 0.365 68.377 0.365 68.377 0.93 -21.417
3045 0.929 -21.589 0.368 68.204 0.368 68.204 0.929 -21.589
3069.958 0.927 -21.761 0.371 68.03 0.371 68.03 0.927 -21.761
3094.917 0.926 -21.932 0.374 67.857 0.374 67.857 0.926 -21.932
3119.875 0.925 -22.103 0.376 67.684 0.376 67.684 0.925 -22.103
3144.833 0.924 -22.275 0.379 67.511 0.379 67.511 0.924 -22.275
3169.792 0.923 -22.446 0.382 67.338 0.382 67.338 0.923 -22.446
3194.75 0.922 -22.617 0.385 67.165 0.385 67.165 0.922 -22.617
3219.708 0.92 -22.787 0.387 66.993 0.387 66.993 0.92 -22.787
3244.667 0.919 -22.958 0.39 66.82 0.39 66.82 0.919 -22.958
3269.625 0.918 -23.129 0.393 66.648 0.393 66.648 0.918 -23.129
3294.583 0.917 -23.299 0.396 66.475 0.396 66.475 0.917 -23.299
3319.542 0.916 -23.469 0.398 66.303 0.398 66.303 0.916 -23.469
3344.5 0.914 -23.639 0.401 66.131 0.401 66.131 0.914 -23.639
3369.458 0.913 -23.809 0.404 65.96 0.404 65.96 0.913 -23.809
3394.417 0.912 -23.979 0.406 65.788 0.406 65.788 0.912 -23.979
3419.375 0.911 -24.149 0.409 65.616 0.409 65.616 0.911 -24.149
3444.333 0.91 -24.319 0.412 65.445 0.412 65.445 0.91 -24.319
3469.292 0.908 -24.488 0.415 65.273 0.415 65.273 0.908 -24.488
3494.25 0.907 -24.657 0.417 65.102 0.417 65.102 0.907 -24.657
3519.208 0.906 -24.826 0.42 64.931 0.42 64.931 0.906 -24.826
3544.167 0.905 -24.996 0.423 64.76 0.423 64.76 0.905 -24.996
3569.125 0.903 -25.164 0.425 64.59 0.425 64.59 0.903 -25.164
3594.083 0.902 -25.333 0.428 64.419 0.428 64.419 0.902 -25.333
3619.042 0.901 -25.502 0.431 64.248 0.431 64.248 0.901 -25.502
3644 0.899 -25.67 0.433 64.078 0.433 64.078 0.899 -25.67
3668.958 0.898 -25.838 0.436 63.908 0.436 63.908 0.898 -25.838
3693.917 0.897 -26.007 0.438 63.738 0.438 63.738 0.897 -26.007
3718.875 0.895 -26.175 0.441 63.568 0.441 63.568 0.895 -26.175
3743.833 0.894 -26.343 0.444 63.398 0.444 63.398 0.894 -26.343
3768.792 0.893 -26.51 0.446 63.228 0.446 63.228 0.893 -26.51
3793.75 0.891 -26.678 0.449 63.059 0.449 63.059 0.891 -26.678
3818.708 0.89 -26.845 0.452 62.89 0.452 62.89 0.89 -26.845
3843.667 0.889 -27.013 0.454 62.72 0.454 62.72 0.889 -27.013
3868.625 0.887 -27.18 0.457 62.551 0.457 62.551 0.887 -27.18
3893.583 0.886 -27.347 0.459 62.382 0.459 62.382 0.886 -27.347
3918.542 0.885 -27.513 0.462 62.214 0.462 62.214 0.885 -27.513
3943.5 0.883 -27.68 0.465 62.045 0.465 62.045 0.883 -27.68
3968.458 0.882 -27.847 0.467 61.877 0.467 61.877 0.882 -27.847
3993.417 0.881 -28.013 0.47 61.708 0.47 61.708 0.881 -28.013
4018.375 0.879 -28.179 0.472 61.54 0.472 61.54 0.879 -28.179
4043.333 0.878 -28.345 0.475 61.372 0.475 61.372 0.878 -28.345
4068.292 0.876 -28.511 0.477 61.204 0.477 61.204 0.876 -28.511
4093.25 0.875 -28.677 0.48 61.036 0.48 61.036 0.875 -28.677
4118.208 0.874 -28.843 0.482 60.869 0.482 60.869 0.874 -28.843
4143.167 0.872 -29.008 0.485 60.701 0.485 60.701 0.872 -29.008
4168.125 0.871 -29.173 0.487 60.534 0.487 60.534 0.871 -29.173
4193.083 0.869 -29.338 0.49 60.367 0.49 60.367 0.869 -29.338
4218.042 0.868 -29.503 0.492 60.2 0.492 60.2 0.868 -29.503
4243 0.866 -29.668 0.495 60.033 0.495 60.033 0.866 -29.668
4267.958 0.865 -29.833 0.497 59.867 0.497 59.867 0.865 -29.833
4292.917 0.863 -29.997 0.5 59.7 0.5 59.7 0.863 -29.997
4317.875 0.862 -30.161 0.502 59.534 0.502 59.534 0.862 -30.161
4342.833 0.86 -30.326 0.505 59.368 0.505 59.368 0.86 -30.326
4367.792 0.859 -30.49 0.507 59.202 0.507 59.202 0.859 -30.49
4392.75 0.858 -30.653 0.51 59.036 0.51 59.036 0.858 -30.653
4417.708 0.856 -30.817 0.512 58.87 0.512 58.87 0.856 -30.817
4442.667 0.855 -30.981 0.515 58.705 0.515 58.705 0.855 -30.981
4467.625 0.853 -31.144 0.517 58.539 0.517 58.539 0.853 -31.144
4492.583 0.852 -31.307 0.52 58.374 0.52 58.374 0.852 -31.307
4517.542 0.85 -31.47 0.522 58.209 0.522 58.209 0.85 -31.47
4542.5 0.848 -31.633 0.524 58.044 0.524 58.044 0.848 -31.633
4567.458 0.847 -31.796 0.527 57.879 0.527 57.879 0.847 -31.796
4592.417 0.845 -31.958 0.529 57.715 0.529 57.715 0.845 -31.958
4617.375 0.844 -32.12 0.532 57.55 0.532 57.55 0.844 -32.12
4642.333 0.842 -32.282 0.534 57.386 0.534 57.386 0.842 -32.282
4667.292 0.841 -32.444 0.536 57.222 0.536 57.222 0.841 -32.444
4692.25 0.839 -32.606 0.539 57.058 0.539 57.058 0.839 -32.606
4717.208 0.838 -32.768 0.541 56.894 0.541 56.894 0.838 -32.768
4742.167 0.836 -32.929 0.544 56.731 0.544 56.731 0.836 -32.929
4767.125 0.835 -33.091 0.546 56.567 0.546 56.567 0.835 -33.091
4792.083 0.833 -33.252 0.548 56.404 0.548 56.404 0.833 -33.252
4817.042 0.831 -33.413 0.551 56.241 0.551 56.241 0.831 -33.413
4842 0.83 -33.574 0.553 56.078 0.553 56.078 0.83 -33.574
4866.958 0.828 -33.734 0.555 55.915 0.555 55.915 0.828 -33.734
4891.917 0.827 -33.895 0.558 55.753 0.558 55.753 0.827 -33.895
4916.875 0.825 -34.055 0.56 55.59 0.56 55.59 0.825 -34.055
4941.833 0.823 -34.215 0.562 55.428 0.562 55.428 0.823 -34.215
4966.792 0.822 -34.375 0.565 55.266 0.565 55.266 0.822 -34.375
4991.75 0.82 -34.535 0.567 55.104 0.567 55.104 0.82 -34.535
5016.708 0.819 -34.694 0.569 54.942 0.569 54.942 0.819 -34.694
5041.667 0.817 -34.853 0.571 54.781 0.571 54.781 0.817 -34.853
5066.625 0.815 -35.013 0.574 54.62 0.574 54.62 0.815 -35.013
5091.583 0.814 -35.172 0.576 54.458 0.576 54.458 0.814 -35.172
5116.542 0.812 -35.331 0.578 54.297 0.578 54.297 0.812 -35.331
5141.5 0.81 -35.489 0.581 54.136 0.581 54.136 0.81 -35.489
5166.458 0.809 -35.648 0.583 53.976 0.583 53.976 0.809 -35.648
5191.417 0.807 -35.806 0.585 53.815 0.585 53.815 0.807 -35.806
5216.375 0.805 -35.964 0.587 53.655 0.587 53.655 0.805 -35.964
5241.333 0.804 -36.122 0.59 53.495 0.59 53.495 0.804 -36.122
5266.292 0.802 -36.28 0.592 53.335 0.592 53.335 0.802 -36.28
5291.25 0.8 -36.437 0.594 53.175 0.594 53.175 0.8 -36.437
5316.208 0.799 -36.595 0.596 53.015 0.596 53.015 0.799 -36.595
5341.167 0.797 -36.752 0.598 52.856 0.598 52.856 0.797 -36.752
5366.125 0.795 -36.909 0.601 52.696 0.601 52.696 0.795 -36.909
5391.083 0.794 -37.066 0.603 52.537 0.603 52.537 0.794 -37.066
5416.042 0.792 -37.222 0.605 52.378 0.605 52.378 0.792 -37.222
5441 0.79 -37.379 0.607 52.22 0.607 52.22 0.79 -37.379
5465.958 0.789 -37.535 0.609 52.061 0.609 52.061 0.789 -37.535
5490.917 0.787 -37.691 0.611 51.903 0.611 51.903 0.787 -37.691
5515.875 0.785 -37.847 0.614 51.744 0.614 51.744 0.785 -37.847
5540.833 0.784 -38.003 0.616 51.586 0.616 51.586 0.784 -38.003
5565.792 0.782 -38.158 0.618 51.429 0.618 51.429 0.782 -38.158
5590.75 0.78 -38.314 0.62 51.271 0.62 51.271 0.78 -38.314
5615.708 0.778 -38.469 0.622 51.113 0.622 51.113 0.778 -38.469
5640.667 0.777 -38.624 0.624 50.956 0.624 50.956 0.777 -38.624
5665.625 0.775 -38.779 0.626 50.799 0.626 50.799 0.775 -38.779
5690.583 0.773 -38.933 0.628 50.642 0.628 50.642 0.773 -38.933
5715.542 0.771 -39.088 0.631 50.485 0.631 50.485 0.771 -39.088
5740.5 0.77 -39.242 0.633 50.329 0.633 50.329 0.77 -39.242
5765.458 0.768 -39.396 0.635 50.172 0.635 50.172 0.768 -39.396
5790.417 0.766 -39.55 0.637 50.016 0.637 50.016 0.766 -39.55
5815.375 0.764 -39.703 0.639 49.86 0.639 49.86 0.764 -39.703
5840.333 0.763 -39.857 0.641 49.704 0.641 49.704 0.763 -39.857
5865.292 0.761 -40.01 0.643 49.548 0.643 49.548 0.761 -40.01
5890.25 0.759 -40.163 0.645 49.393 0.645 49.393 0.759 -40.163
5915.208 0.757 -40.316 0.647 49.237 0.647 49.237 0.757 -40.316
5940.167 0.756 -40.469 0.649 49.082 0.649 49.082 0.756 -40.469
5965.125 0.754 -40.621 0.651 48.927 0.651 48.927 0.754 -40.621
5990.083 0.752 -40.774 0.653 48.772 0.653 48.772 0.752 -40.774
6015.042 0.75 -40.926 0.655 48.618 0.655 48.618 0.75 -40.926
6040 0.749 -41.078 0.657 48.463 0.657 48.463 0.749 -41.078
6064.958 0.747 -41.229 0.659 48.309 0.659 48.309 0.747 -41.229
6089.917 0.745 -41.381 0.661 48.155 0.661 48.155 0.745 -41.381
6114.875 0.743 -41.532 0.663 48.001 0.663 48.001 0.743 -41.532
6139.833 0.741 -41.683 0.665 47.848 0.665 47.848 0.741 -41.683
6164.792 0.74 -41.834 0.667 47.694 0.667 47.694 0.74 -41.834
6189.75 0.738 -41.985 0.669 47.541 0.669 47.541 0.738 -41.985
6214.708 0.736 -42.136 0.671 47.388 0.671 47.388 0.736 -42.136
6239.667 0.734 -42.286 0.673 47.235 0.673 47.235 0.734 -42.286
6264.625 0.732 -42.436 0.675 47.082 0.675 47.082 0.732 -42.436
6289.583 0.731 -42.586 0.677 46.93 0.677 46.93 0.731 -42.586
6314.542 0.729 -42.736 0.679 46.777 0.679 46.777 0.729 -42.736
6339.5 0.727 -42.886 0.681 46.625 0.681 46.625 0.727 -42.886
6364.458 0.725 -43.035 0.682 46.473 0.682 46.473 0.725 -43.035
6389.417 0.723 -43.184 0.684 46.321 0.684 46.321 0.723 -43.184
6414.375 0.721 -43.333 0.686 46.17 0.686 46.17 0.721 -43.333
6439.333 0.72 -43.482 0.688 46.018 0.688 46.018 0.72 -43.482
6464.292 0.718 -43.631 0.69 45.867 0.69 45.867 0.718 -43.631
6489.25 0.716 -43.779 0.692 45.716 0.692 45.716 0.716 -43.779
6514.208 0.714 -43.927 0.694 45.565 0.694 45.565 0.714 -43.927
6539.167 0.712 -44.075 0.696 45.414 0.696 45.414 0.712 -44.075
6564.125 0.71 -44.223 0.697 45.264 0.697 45.264 0.71 -44.223
6589.083 0.709 -44.37 0.699 45.114 0.699 45.114 0.709 -44.37
6614.042 0.707 -44.518 0.701 44.964 0.701 44.964 0.707 -44.518
6639 0.705 -44.665 0.703 44.814 0.703 44.814 0.705 -44.665
6663.958 0.703 -44.812 0.705 44.664 0.705 44.664 0.703 -44.812
6688.917 0.701 -44.959 0.707 44.514 0.707 44.514 0.701 -44.959
6713.875 0.699 -45.105 0.708 44.365 0.708 44.365 0.699 -45.105
6738.833 0.697 -45.252 0.71 44.216 0.71 44.216 0.697 -45.252
6763.792 0.696 -45.398 0.712 44.067 0.712 44.067 0.696 -45.398
6788.75 0.694 -45.544 0.714 43.918 0.714 43.918 0.694 -45.544
6813.708 0.692 -45.69 0.716 43.77 0.716 43.77 0.692 -45.69
6838.667 0.69 -45.835 0.717 43.621 0.717 43.621 0.69 -45.835
6863.625 0.688 -45.981 0.719 43.473 0.719 43.473 0.688 -45.981
6888.583 0.686 -46.126 0.721 43.325 0.721 43.325 0.686 -46.126
6913.542 0.684 -46.271 0.723 43.177 0.723 43.177 0.684 -46.271
6938.5 0.682 -46.416 0.724 43.03 0.724 43.03 0.682 -46.416
6963.458 0.681 -46.56 0.726 42.882 0.726 42.882 0.681 -46.56
6988.417 0.679 -46.705 0.728 42.735 0.728 42.735 0.679 -46.705
7013.375 0.677 -46.849 0.73 42.588 0.73 42.588 0.677 -46.849
7038.333 0.675 -46.993 0.731 42.441 0.731 42.441 0.675 -46.993
7063.292 0.673 -47.136 0.733 42.294 0.733 42.294 0.673 -47.136
7088.25 0.671 -47.28 0.735 42.148 0.735 42.148 0.671 -47.28
7113.208 0.669 -47.423 0.736 42.002 0.736 42.002 0.669 -47.423
7138.167 0.667 -47.566 0.738 41.856 0.738 41.856 0.667 -47.566
7163.125 0.665 -47.709 0.74 41.71 0.74 41.71 0.665 -47.709
7188.083 0.663 -47.852 0.741 41.564 0.741 41.564 0.663 -47.852
7213.042 0.662 -47.995 0.743 41.418 0.743 41.418 0.662 -47.995
7238 0.66 -48.137 0.745 41.273 0.745 41.273 0.66 -48.137
7262.958 0.658 -48.279 0.746 41.128 0.746 41.128 0.658 -48.279
7287.917 0.656 -48.421 0.748 40.983 0.748 40.983 0.656 -48.421
7312.875 0.654 -48.563 0.75 40.838 0.75 40.838 0.654 -48.563
7337.833 0.652 -48.704 0.751 40.694 0.751 40.694 0.652 -48.704
7362.792 0.65 -48.845 0.753 40.549 0.753 40.549 0.65 -48.845
7387.75 0.648 -48.986 0.755 40.405 0.755 40.405 0.648 -48.986
7412.708 0.646 -49.127 0.756 40.261 0.756 40.261 0.646 -49.127
7437.667 0.644 -49.268 0.758 40.117 0.758 40.117 0.644 -49.268
7462.625 0.642 -49.408 0.759 39.974 0.759 39.974 0.642 -49.408
7487.583 0.641 -49.549 0.761 39.83 0.761 39.83 0.641 -49.549
7512.542 0.639 -49.689 0.763 39.687 0.763 39.687 0.639 -49.689
7537.5 0.637 -49.829 0.764 39.544 0.764 39.544 0.637 -49.829
7562.458 0.635 -49.968 0.766 39.401 0.766 39.401 0.635 -49.968
7587.417 0.633 -50.108 0.767 39.259 0.767 39.259 0.633 -50.108
7612.375 0.631 -50.247 0.769 39.116 0.769 39.116 0.631 -50.247
7637.333 0.629 -50.386 0.77 38.974 0.77 38.974 0.629 -50.386
7662.292 0.627 -50.525 0.772 38.832 0.772 38.832 0.627 -50.525
7687.25 0.625 -50.663 0.773 38.69 0.773 38.69 0.625 -50.663
7712.208 0.623 -50.802 0.775 38.549 0.775 38.549 0.623 -50.802
7737.167 0.621 -50.94 0.777 38.407 0.777 38.407 0.621 -50.94
7762.125 0.619 -51.078 0.778 38.266 0.778 38.266 0.619 -51.078
7787.083 0.617 -51.215 0.78 38.125 0.78 38.125 0.617 -51.215
7812.042 0.615 -51.353 0.781 37.984 0.781 37.984 0.615 -51.353
7837 0.614 -51.49 0.783 37.843 0.783 37.843 0.614 -51.49
7861.958 0.612 -51.627 0.784 37.703 0.784 37.703 0.612 -51.627
7886.917 0.61 -51.764 0.786 37.562 0.786 37.562 0.61 -51.764
7911.875 0.608 -51.901 0.787 37.422 0.787 37.422 0.608 -51.901
7936.833 0.606 -52.037 0.788 37.282 0.788 37.282 0.606 -52.037
7961.792 0.604 -52.174 0.79 37.143 0.79 37.143 0.604 -52.174
7986.75 0.602 -52.31 0.791 37.003 0.791 37.003 0.602 -52.31
8011.708 0.6 -52.446 0.793 36.864 0.793 36.864 0.6 -52.446
8036.667 0.598 -52.581 0.794 36.725 0.794 36.725 0.598 -52.581
8061.625 0.596 -52.717 0.796 36.586 0.796 36.586 0.596 -52.717
8086.583 0.594 -52.852 0.797 36.447 0.797 36.447 0.594 -52.852
8111.542 0.592 -52.987 0.799 36.308 0.799 36.308 0.592 -52.987
8136.5 0.59 -53.122 0.8 36.17 0.8 36.17 0.59 -53.122
8161.458 0.588 -53.256 0.801 36.032 0.801 36.032 0.588 -53.256
8186.417 0.586 -53.391 0.803 35.894 0.803 35.894 0.586 -53.391
8211.375 0.584 -53.525 0.804 35.756 0.804 35.756 0.584 -53.525
8236.333 0.582 -53.659 0.806 35.618 0.806 35.618 0.582 -53.659
8261.292 0.58 -53.793 0.807 35.481 0.807 35.481 0.58 -53.793
8286.25 0.579 -53.926 0.808 35.344 0.808 35.344 0.579 -53.926
8311.208 0.577 -54.059 0.81 35.207 0.81 35.207 0.577 -54.059
8336.167 0.575 -54.192 0.811 35.07 0.811 35.07 0.575 -54.192
8361.125 0.573 -54.325 0.812 34.933 0.812 34.933 0.573 -54.325
8386.083 0.571 -54.458 0.814 34.797 0.814 34.797 0.571 -54.458
8411.042 0.569 -54.59 0.815 34.661 0.815 34.661 0.569 -54.59
8436 0.567 -54.723 0.816 34.524 0.816 34.524 0.567 -54.723
8460.958 0.565 -54.855 0.818 34.389 0.818 34.389 0.565 -54.855
8485.917 0.563 -54.987 0.819 34.253 0.819 34.253 0.563 -54.987
8510.875 0.561 -55.118 0.82 34.117 0.82 34.117 0.561 -55.118
8535.833 0.559 -55.25 0.822 33.982 0.822 33.982 0.559 -55.25
8560.792 0.557 -55.381 0.823 33.847 0.823 33.847 0.557 -55.381
8585.75 0.555 -55.512 0.824 33.712 0.824 33.712 0.555 -55.512
8610.708 0.553 -55.642 0.826 33.577 0.826 33.577 0.553 -55.642
8635.667 0.551 -55.773 0.827 33.443 0.827 33.443 0.551 -55.773
8660.625 0.549 -55.903 0.828 33.309 0.828 33.309 0.549 -55.903
8685.583 0.547 -56.033 0.829 33.174 0.829 33.174 0.547 -56.033
8710.542 0.545 -56.163 0.831 33.041 0.831 33.041 0.545 -56.163
8735.5 0.543 -56.293 0.832 32.907 0.832 32.907 0.543 -56.293
8760.458 0.541 -56.422 0.833 32.773 0.833 32.773 0.541 -56.422
8785.417 0.539 -56.552 0.834 32.64 0.834 32.64 0.539 -56.552
8810.375 0.537 -56.681 0.836 32.507 0.836 32.507 0.537 -56.681
8835.333 0.535 -56.81 0.837 32.374 0.837 32.374 0.535 -56.81
8860.292 0.534 -56.938 0.838 32.241 0.838 32.241 0.534 -56.938
8885.25 0.532 -57.066 0.839 32.108 0.839 32.108 0.532 -57.066
8910.208 0.53 -57.195 0.841 31.976 0.841 31.976 0.53 -57.195
8935.167 0.528 -57.323 0.842 31.844 0.842 31.844 0.528 -57.323
8960.125 0.526 -57.45 0.843 31.712 0.843 31.712 0.526 -57.45
8985.083 0.524 -57.578 0.844 31.58 0.844 31.58 0.524 -57.578
9010.042 0.522 -57.705 0.845 31.448 0.845 31.448 0.522 -57.705
9035 0.52 -57.832 0.847 31.317 0.847 31.317 0.52 -57.832
9059.958 0.518 -57.959 0.848 31.185 0.848 31.185 0.518 -57.959
9084.917 0.516 -58.086 0.849 31.054 0.849 31.054 0.516 -58.086
9109.875 0.514 -58.212 0.85 30.923 0.85 30.923 0.514 -58.212
9134.833 0.512 -58.338 0.851 30.793 0.851 30.793 0.512 -58.338
9159.792 0.51 -58.464 0.852 30.662 0.852 30.662 0.51 -58.464
9184.75 0.508 -58.59 0.854 30.532 0.854 30.532 0.508 -58.59
9209.708 0.506 -58.716 0.855 30.402 0.855 30.402 0.506 -58.716
9234.667 0.504 -58.841 0.856 30.272 0.856 30.272 0.504 -58.841
9259.625 0.502 -58.966 0.857 30.142 0.857 30.142 0.502 -58.966
9284.583 0.5 -59.091 0.858 30.012 0.858 30.012 0.5 -59.091
9309.542 0.498 -59.216 0.859 29.883 0.859 29.883 0.498 -59.216
9334.5 0.496 -59.34 0.86 29.754 0.86 29.754 0.496 -59.34
9359.458 0.494 -59.464 0.861 29.625 0.861 29.625 0.494 -59.464
9384.417 0.492 -59.588 0.863 29.496 0.863 29.496 0.492 -59.588
9409.375 0.49 -59.712 0.864 29.368 0.864 29.368 0.49 -59.712
9434.333 0.489 -59.836 0.865 29.239 0.865 29.239 0.489 -59.836
9459.292 0.487 -59.959 0.866 29.111 0.866 29.111 0.487 -59.959
9484.25 0.485 -60.082 0.867 28.983 0.867 28.983 0.485 -60.082
9509.208 0.483 -60.205 0.868 28.855 0.868 28.855 0.483 -60.205
9534.167 0.481 -60.328 0.869 28.727 0.869 28.727 0.481 -60.328
9559.125 0.479 -60.45 0.87 28.6 0.87 28.6 0.479 -60.45
9584.083 0.477 -60.573 0.871 28.473 0.871 28.473 0.477 -60.573
9609.042 0.475 -60.695 0.872 28.345 0.872 28.345 0.475 -60.695
9634 0.473 -60.817 0.873 28.218 0.873 28.218 0.473 -60.817
9658.958 0.471 -60.938 0.874 28.092 0.874 28.092 0.471 -60.938
9683.917 0.469 -61.059 0.875 27.965 0.875 27.965 0.469 -61.059
9708.875 0.467 -61.181 0.876 27.839 0.876 27.839 0.467 -61.181
9733.833 0.465 -61.302 0.877 27.713 0.877 27.713 0.465 -61.302
9758.792 0.463 -61.422 0.878 27.587 0.878 27.587 0.463 -61.422
9783.75 0.461 -61.543 0.879 27.461 0.879 27.461 0.461 -61.543
9808.708 0.459 -61.663 0.88 27.335 0.88 27.335 0.459 -61.663
9833.667 0.457 -61.783 0.881 27.21 0.881 27.21 0.457 -61.783
9858.625 0.455 -61.903 0.882 27.085 0.882 27.085 0.455 -61.903
9883.583 0.453 -62.022 0.883 26.96 0.883 26.96 0.453 -62.022
9908.542 0.451 -62.142 0.884 26.835 0.884 26.835 0.451 -62.142
9933.5 0.45 -62.261 0.885 26.71 0.885 26.71 0.45 -62.261
9958.458 0.448 -62.38 0.886 26.586 0.886 26.586 0.448 -62.38
9983.417 0.446 -62.498 0.887 26.461 0.887 26.461 0.446 -62.498
10008.375 0.444 -62.617 0.888 26.337 0.888 26.337 0.444 -62.617
10033.333 0.442 -62.735 0.889 26.213 0.889 26.213 0.442 -62.735
10058.292 0.44 -62.853 0.89 26.089 0.89 26.089 0.44 -62.853
10083.25 0.438 -62.971 0.891 25.966 0.891 25.966 0.438 -62.971
10108.208 0.436 -63.088 0.892 25.842 0.892 25.842 0.436 -63.088
10133.167 0.434 -63.206 0.893 25.719 0.893 25.719 0.434 -63.206
10158.125 0.432 -63.323 0.894 25.596 0.894 25.596 0.432 -63.323
10183.083 0.43 -63.44 0.895 25.473 0.895 25.473 0.43 -63.44
10208.042 0.428 -63.556 0.896 25.351 0.896 25.351 0.428 -63.556
10233 0.426 -63.673 0.896 25.228 0.896 25.228 0.426 -63.673
10257.958 0.424 -63.789 0.897 25.106 0.897 25.106 0.424 -63.789
10282.917 0.422 -63.905 0.898 24.984 0.898 24.984 0.422 -63.905
10307.875 0.421 -64.021 0.899 24.862 0.899 24.862 0.421 -64.021
10332.833 0.419 -64.136 0.9 24.74 0.9 24.74 0.419 -64.136
10357.792 0.417 -64.251 0.901 24.619 0.901 24.619 0.417 -64.251
10382.75 0.415 -64.366 0.902 24.497 0.902 24.497 0.415 -64.366
10407.708 0.413 -64.481 0.903 24.376 0.903 24.376 0.413 -64.481
10432.667 0.411 -64.596 0.903 24.255 0.903 24.255 0.411 -64.596
10457.625 0.409 -64.71 0.904 24.134 0.904 24.134 0.409 -64.71
10482.583 0.407 -64.824 0.905 24.014 0.905 24.014 0.407 -64.824
10507.542 0.405 -64.938 0.906 23.893 0.906 23.893 0.405 -64.938
10532.5 0.403 -65.052 0.907 23.773 0.907 23.773 0.403 -65.052
10557.458 0.401 -65.165 0.908 23.653 0.908 23.653 0.401 -65.165
10582.417 0.399 -65.278 0.909 23.533 0.909 23.533 0.399 -65.278
10607.375 0.397 -65.391 0.909 23.413 0.909 23.413 0.397 -65.391
10632.333 0.396 -65.504 0.91 23.294 0.91 23.294 0.396 -65.504
10657.292 0.394 -65.616 0.911 23.174 0.911 23.174 0.394 -65.616
10682.25 0.392 -65.728 0.912 23.055 0.912 23.055 0.392 -65.728
10707.208 0.39 -65.84 0.913 22.936 0.913 22.936 0.39 -65.84
10732.167 0.388 -65.952 0.913 22.817 0.913 22.817 0.388 -65.952
10757.125 0.386 -66.063 0.914 22.699 0.914 22.699 0.386 -66.063
10782.083 0.384 -66.175 0.915 22.58 0.915 22.58 0.384 -66.175
10807.042 0.382 -66.286 0.916 22.462 0.916 22.462 0.382 -66.286
10832 0.38 -66.396 0.917 22.344 0.917 22.344 0.38 -66.396
10856.958 0.378 -66.507 0.917 22.226 0.917 22.226 0.378 -66.507
10881.917 0.376 -66.617 0.918 22.108 0.918 22.108 0.376 -66.617
10906.875 0.375 -66.727 0.919 21.991 0.919 21.991 0.375 -66.727
10931.833 0.373 -66.837 0.92 21.873 0.92 21.873 0.373 -66.837
10956.792 0.371 -66.947 0.92 21.756 0.92 21.756 0.371 -66.947
10981.75 0.369 -67.056 0.921 21.639 0.921 21.639 0.369 -67.056
11006.708 0.367 -67.165 0.922 21.522 0.922 21.522 0.367 -67.165
11031.667 0.365 -67.274 0.923 21.405 0.923 21.405 0.365 -67.274
11056.625 0.363 -67.382 0.923 21.289 0.923 21.289 0.363 -67.382
11081.583 0.361 -67.491 0.924 21.173 0.924 21.173 0.361 -67.491
11106.542 0.359 -67.599 0.925 21.056 0.925 21.056 0.359 -67.599
11131.5 0.357 -67.707 0.926 20.94 0.926 20.94 0.357 -67.707
11156.458 0.356 -67.814 0.926 20.825 0.926 20.825 0.356 -67.814
11181.417 0.354 -67.921 0.927 20.709 0.927 20.709 0.354 -67.921
11206.375 0.352 -68.028 0.928 20.594 0.928 20.594 0.352 -68.028
11231.333 0.35 -68.135 0.928 20.478 0.928 20.478 0.35 -68.135
11256.292 0.348 -68.242 0.929 20.363 0.929 20.363 0.348 -68.242
11281.25 0.346 -68.348 0.93 20.248 0.93 20.248 0.346 -68.348
11306.208 0.344 -68.454 0.93 20.134 0.93 20.134 0.344 -68.454
11331.167 0.342 -68.56 0.931 20.019 0.931 20.019 0.342 -68.56
11356.125 0.341 -68.665 0.932 19.905 0.932 19.905 0.341 -68.665
11381.083 0.339 -68.771 0.932 19.79 0.932 19.79 0.339 -68.771
11406.042 0.337 -68.876 0.933 19.676 0.933 19.676 0.337 -68.876
11431 0.335 -68.981 0.934 19.562 0.934 19.562 0.335 -68.981
11455.958 0.333 -69.085 0.934 19.449 0.934 19.449 0.333 -69.085
11480.917 0.331 -69.189 0.935 19.335 0.935 19.335 0.331 -69.189
11505.875 0.329 -69.293 0.936 19.222 0.936 19.222 0.329 -69.293
11530.833 0.327 -69.397 0.936 19.109 0.936 19.109 0.327 -69.397
11555.792 0.326 -69.5 0.937 18.996 0.937 18.996 0.326 -69.5
11580.75 0.324 -69.603 0.938 18.883 0.938 18.883 0.324 -69.603
11605.708 0.322 -69.706 0.938 18.77 0.938 18.77 0.322 -69.706
11630.667 0.32 -69.809 0.939 18.658 0.939 18.658 0.32 -69.809
11655.625 0.318 -69.911 0.94 18.545 0.94 18.545 0.318 -69.911
11680.583 0.316 -70.013 0.94 18.433 0.94 18.433 0.316 -70.013
11705.542 0.314 -70.115 0.941 18.321 0.941 18.321 0.314 -70.115
11730.5 0.313 -70.217 0.941 18.21 0.941 18.21 0.313 -70.217
11755.458 0.311 -70.318 0.942 18.098 0.942 18.098 0.311 -70.318
11780.417 0.309 -70.419 0.943 17.986 0.943 17.986 0.309 -70.419
11805.375 0.307 -70.52 0.943 17.875 0.943 17.875 0.307 -70.52
11830.333 0.305 -70.62 0.944 17.764 0.944 17.764 0.305 -70.62
11855.292 0.303 -70.72 0.944 17.653 0.944 17.653 0.303 -70.72
11880.25 0.302 -70.82 0.945 17.542 0.945 17.542 0.302 -70.82
11905.208 0.3 -70.919 0.945 17.432 0.945 17.432 0.3 -70.919
11930.167 0.298 -71.019 0.946 17.321 0.946 17.321 0.298 -71.019
11955.125 0.296 -71.118 0.947 17.211 0.947 17.211 0.296 -71.118
11980.083 0.294 -71.216 0.947 17.101 0.947 17.101 0.294 -71.216
12005.042 0.292 -71.315 0.948 16.991 0.948 16.991 0.292 -71.315
12030 0.291 -71.413 0.948 16.881 0.948 16.881 0.291 -71.413
12054.958 0.289 -71.51 0.949 16.772 0.949 16.772 0.289 -71.51
12079.917 0.287 -71.608 0.949 16.662 0.949 16.662 0.287 -71.608
12104.875 0.285 -71.705 0.95 16.553 0.95 16.553 0.285 -71.705
12129.833 0.283 -71.802 0.95 16.444 0.95 16.444 0.283 -71.802
12154.792 0.281 -71.899 0.951 16.335 0.951 16.335 0.281 -71.899
12179.75 0.28 -71.995 0.951 16.226 0.951 16.226 0.28 -71.995
12204.708 0.278 -72.091 0.952 16.118 0.952 16.118 0.278 -72.091
12229.667 0.276 -72.186 0.953 16.009 0.953 16.009 0.276 -72.186
12254.625 0.274 -72.282 0.953 15.901 0.953 15.901 0.274 -72.282
12279.583 0.272 -72.377 0.954 15.793 0.954 15.793 0.272 -72.377
12304.542 0.27 -72.471 0.954 15.685 0.954 15.685 0.27 -72.471
12329.5 0.269 -72.566 0.955 15.577 0.955 15.577 0.269 -72.566
12354.458 0.267 -72.66 0.955 15.47 0.955 15.47 0.267 -72.66
12379.417 0.265 -72.753 0.956 15.362 0.956 15.362 0.265 -72.753
12404.375 0.263 -72.847 0.956 15.255 0.956 15.255 0.263 -72.847
12429.333 0.261 -72.94 0.957 15.148 0.957 15.148 0.261 -72.94
12454.292 0.26 -73.032 0.957 15.041 0.957 15.041 0.26 -73.032
12479.25 0.258 -73.125 0.957 14.934 0.957 14.934 0.258 -73.125
12504.208 0.256 -73.217 0.958 14.828 0.958 14.828 0.256 -73.217
12529.167 0.254 -73.308 0.958 14.721 0.958 14.721 0.254 -73.308
12554.125 0.252 -73.4 0.959 14.615 0.959 14.615 0.252 -73.4
12579.083 0.251 -73.491 0.959 14.509 0.959 14.509 0.251 -73.491
12604.042 0.249 -73.581 0.96 14.403 0.96 14.403 0.249 -73.581
12629 0.247 -73.671 0.96 14.297 0.96 14.297 0.247 -73.671
12653.958 0.245 -73.761 0.961 14.192 0.961 14.192 0.245 -73.761
12678.917 0.244 -73.851 0.961 14.086 0.961 14.086 0.244 -73.851
12703.875 0.242 -73.94 0.962 13.981 0.962 13.981 0.242 -73.94
12728.833 0.24 -74.029 0.962 13.876 0.962 13.876 0.24 -74.029
12753.792 0.238 -74.117 0.962 13.771 0.962 13.771 0.238 -74.117
12778.75 0.236 -74.205 0.963 13.666 0.963 13.666 0.236 -74.205
12803.708 0.235 -74.293 0.963 13.561 0.963 13.561 0.235 -74.293
12828.667 0.233 -74.38 0.964 13.457 0.964 13.457 0.233 -74.38
12853.625 0.231 -74.467 0.964 13.353 0.964 13.353 0.231 -74.467
12878.583 0.229 -74.553 0.965 13.248 0.965 13.248 0.229 -74.553
12903.542 0.228 -74.639 0.965 13.145 0.965 13.145 0.228 -74.639
12928.5 0.226 -74.725 0.965 13.041 0.965 13.041 0.226 -74.725
12953.458 0.224 -74.81 0.966 12.937 0.966 12.937 0.224 -74.81
12978.417 0.222 -74.894 0.966 12.833 0.966 12.833 0.222 -74.894
13003.375 0.221 -74.979 0.967 12.73 0.967 12.73 0.221 -74.979
13028.333 0.219 -75.063 0.967 12.627 0.967 12.627 0.219 -75.063
13053.292 0.217 -75.146 0.967 12.524 0.967 12.524 0.217 -75.146
13078.25 0.215 -75.229 0.968 12.421 0.968 12.421 0.215 -75.229
13103.208 0.214 -75.311 0.968 12.318 0.968 12.318 0.214 -75.311
13128.167 0.212 -75.394 0.969 12.216 0.969 12.216 0.212 -75.394
13153.125 0.21 -75.475 0.969 12.113 0.969 12.113 0.21 -75.475
13178.083 0.208 -75.556 0.969 12.011 0.969 12.011 0.208 -75.556
13203.042 0.207 -75.637 0.97 11.909 0.97 11.909 0.207 -75.637
13228 0.205 -75.717 0.97 11.807 0.97 11.807 0.205 -75.717
13252.958 0.203 -75.797 0.97 11.705 0.97 11.705 0.203 -75.797
13277.917 0.201 -75.876 0.971 11.604 0.971 11.604 0.201 -75.876
13302.875 0.2 -75.954 0.971 11.502 0.971 11.502 0.2 -75.954
13327.833 0.198 -76.033 0.971 11.401 0.971 11.401 0.198 -76.033
13352.792 0.196 -76.11 0.972 11.3 0.972 11.3 0.196 -76.11
13377.75 0.194 -76.187 0.972 11.199 0.972 11.199 0.194 -76.187
13402.708 0.193 -76.264 0.972 11.098 0.972 11.098 0.193 -76.264
13427.667 0.191 -76.34 0.973 10.997 0.973 10.997 0.191 -76.34
13452.625 0.189 -76.415 0.973 10.897 0.973 10.897 0.189 -76.415
13477.583 0.188 -76.49 0.973 10.797 0.973 10.797 0.188 -76.49
13502.542 0.186 -76.564 0.974 10.696 0.974 10.696 0.186 -76.564
13527.5 0.184 -76.638 0.974 10.596 0.974 10.596 0.184 -76.638
13552.458 0.182 -76.711 0.974 10.496 0.974 10.496 0.182 -76.711
13577.417 0.181 -76.783 0.975 10.397 0.975 10.397 0.181 -76.783
13602.375 0.179 -76.855 0.975 10.297 0.975 10.297 0.179 -76.855
13627.333 0.177 -76.926 0.975 10.198 0.975 10.198 0.177 -76.926
13652.292 0.176 -76.996 0.976 10.098 0.976 10.098 0.176 -76.996
13677.25 0.174 -77.066 0.976 9.999 0.976 9.999 0.174 -77.066
13702.208 0.172 -77.135 0.976 9.9 0.976 9.9 0.172 -77.135
13727.167 0.17 -77.204 0.976 9.801 0.976 9.801 0.17 -77.204
13752.125 0.169 -77.271 0.977 9.703 0.977 9.703 0.169 -77.271
13777.083 0.167 -77.338 0.977 9.604 0.977 9.604 0.167 -77.338
13802.042 0.165 -77.404 0.977 9.506 0.977 9.506 0.165 -77.404
13827 0.164 -77.47 0.978 9.408 0.978 9.408 0.164 -77.47
13851.958 0.162 -77.534 0.978 9.31 0.978 9.31 0.162 -77.534
13876.917 0.16 -77.598 0.978 9.212 0.978 9.212 0.16 -77.598
13901.875 0.159 -77.661 0.978 9.114 0.978 9.114 0.159 -77.661
13926.833 0.157 -77.724 0.979 9.016 0.979 9.016 0.157 -77.724
13951.792 0.155 -77.785 0.979 8.919 0.979 8.919 0.155 -77.785
13976.75 0.154 -77.845 0.979 8.822 0.979 8.822 0.154 -77.845
14001.708 0.152 -77.905 0.979 8.724 0.979 8.724 0.152 -77.905
14026.667 0.15 -77.963 0.98 8.627 0.98 8.627 0.15 -77.963
14051.625 0.149 -78.021 0.98 8.531 0.98 8.531 0.149 -78.021
14076.583 0.147 -78.078 0.98 8.434 0.98 8.434 0.147 -78.078
14101.542 0.145 -78.133 0.98 8.337 0.98 8.337 0.145 -78.133
14126.5 0.144 -78.188 0.981 8.241 0.981 8.241 0.144 -78.188
14151.458 0.142 -78.242 0.981 8.145 0.981 8.145 0.142 -78.242
14176.417 0.14 -78.294 0.981 8.048 0.981 8.048 0.14 -78.294
14201.375 0.139 -78.346 0.981 7.953 0.981 7.953 0.139 -78.346
14226.333 0.137 -78.396 0.982 7.857 0.982 7.857 0.137 -78.396
14251.292 0.135 -78.445 0.982 7.761 0.982 7.761 0.135 -78.445
14276.25 0.134 -78.493 0.982 7.666 0.982 7.666 0.134 -78.493
14301.208 0.132 -78.539 0.982 7.57 0.982 7.57 0.132 -78.539
14326.167 0.13 -78.584 0.983 7.475 0.983 7.475 0.13 -78.584
14351.125 0.129 -78.628 0.983 7.38 0.983 7.38 0.129 -78.628
14376.083 0.127 -78.671 0.983 7.285 0.983 7.285 0.127 -78.671
14401.042 0.125 -78.712 0.983 7.19 0.983 7.19 0.125 -78.712
14426 0.124 -78.751 0.983 7.095 0.983 7.095 0.124 -78.751
14450.958 0.122 -78.789 0.984 7.001 0.984 7.001 0.122 -78.789
14475.917 0.121 -78.826 0.984 6.907 0.984 6.907 0.121 -78.826
14500.875 0.119 -78.861 0.984 6.812 0.984 6.812 0.119 -78.861
14525.833 0.117 -78.894 0.984 6.718 0.984 6.718 0.117 -78.894
14550.792 0.116 -78.925 0.984 6.624 0.984 6.624 0.116 -78.925
14575.75 0.114 -78.955 0.985 6.531 0.985 6.531 0.114 -78.955
14600.708 0.112 -78.983 0.985 6.437 0.985 6.437 0.112 -78.983
14625.667 0.111 -79.008 0.985 6.344 0.985 6.344 0.111 -79.008
14650.625 0.109 -79.032 0.985 6.25 0.985 6.25 0.109 -79.032
14675.583 0.108 -79.054 0.985 6.157 0.985 6.157 0.108 -79.054
14700.542 0.106 -79.073 0.985 6.064 0.985 6.064 0.106 -79.073
14725.5 0.104 -79.09 0.986 5.971 0.986 5.971 0.104 -79.09
14750.458 0.103 -79.105 0.986 5.878 0.986 5.878 0.103 -79.105
14775.417 0.101 -79.117 0.986 5.786 0.986 5.786 0.101 -79.117
14800.375 0.1 -79.126 0.986 5.693 0.986 5.693 0.1 -79.126
14825.333 0.098 -79.133 0.986 5.601 0.986 5.601 0.098 -79.133
14850.292 0.096 -79.137 0.986 5.509 0.986 5.509 0.096 -79.137
14875.25 0.095 -79.138 0.987 5.417 0.987 5.417 0.095 -79.138
14900.208 0.093 -79.136 0.987 5.325 0.987 5.325 0.093 -79.136
14925.167 0.092 -79.131 0.987 5.233 0.987 5.233 0.092 -79.131
14950.125 0.09 -79.122 0.987 5.141 0.987 5.141 0.09 -79.122
14975.083 0.088 -79.11 0.987 5.05 0.987 5.05 0.088 -79.11
15000.042 0.087 -79.094 0.987 4.958 0.987 4.958 0.087 -79.094
15025 0.085 -79.074 0.987 4.867 0.987 4.867 0.085 -79.074
15049.958 0.084 -79.05 0.988 4.776 0.988 4.776 0.084 -79.05
15074.917 0.082 -79.021 0.988 4.685 0.988 4.685 0.082 -79.021
15099.875 0.081 -78.988 0.988 4.594 0.988 4.594 0.081 -78.988
15124.833 0.079 -78.95 0.988 4.504 0.988 4.504 0.079 -78.95
15149.792 0.077 -78.907 0.988 4.413 0.988 4.413 0.077 -78.907
15174.75 0.076 -78.859 0.988 4.323 0.988 4.323 0.076 -78.859
15199.708 0.074 -78.804 0.988 4.233 0.988 4.233 0.074 -78.804
15224.667 0.073 -78.744 0.988 4.143 0.988 4.143 0.073 -78.744
15249.625 0.071 -78.677 0.988 4.053 0.988 4.053 0.071 -78.677
15274.583 0.07 -78.604 0.989 3.963 0.989 3.963 0.07 -78.604
15299.542 0.068 -78.523 0.989 3.873 0.989 3.873 0.068 -78.523
15324.5 0.067 -78.434 0.989 3.784 0.989 3.784 0.067 -78.434
15349.458 0.065 -78.337 0.989 3.694 0.989 3.694 0.065 -78.337
15374.417 0.064 -78.231 0.989 3.605 0.989 3.605 0.064 -78.231
15399.375 0.062 -78.115 0.989 3.516 0.989 3.516 0.062 -78.115
15424.333 0.06 -77.99 0.989 3.427 0.989 3.427 0.06 -77.99
15449.292 0.059 -77.853 0.989 3.338 0.989 3.338 0.059 -77.853
15474.25 0.057 -77.704 0.989 3.249 0.989 3.249 0.057 -77.704
15499.208 0.056 -77.543 0.989 3.161 0.989 3.161 0.056 -77.543
15524.167 0.054 -77.369 0.99 3.072 0.99 3.072 0.054 -77.369
15549.125 0.053 -77.179 0.99 2.984 0.99 2.984 0.053 -77.179
15574.083 0.051 -76.973 0.99 2.896 0.99 2.896 0.051 -76.973
15599.042 0.05 -76.75 0.99 2.808 0.99 2.808 0.05 -76.75
15624 0.048 -76.507 0.99 2.72 0.99 2.72 0.048 -76.507
15648.958 0.047 -76.244 0.99 2.632 0.99 2.632 0.047 -76.244
15673.917 0.045 -75.958 0.99 2.544 0.99 2.544 0.045 -75.958
15698.875 0.044 -75.647 0.99 2.457 0.99 2.457 0.044 -75.647
15723.833 0.042 -75.308 0.99 2.369 0.99 2.369 0.042 -75.308
15748.792 0.041 -74.939 0.99 2.282 0.99 2.282 0.041 -74.939
15773.75 0.039 -74.536 0.99 2.195 0.99 2.195 0.039 -74.536
15798.708 0.038 -74.096 0.99 2.108 0.99 2.108 0.038 -74.096
15823.667 0.036 -73.613 0.99 2.021 0.99 2.021 0.036 -73.613
15848.625 0.035 -73.084 0.99 1.935 0.99 1.935 0.035 -73.084
15873.583 0.033 -72.502 0.99 1.848 0.99 1.848 0.033 -72.502
15898.542 0.032 -71.86 0.99 1.761 0.99 1.761 0.032 -71.86
15923.5 0.031 -71.151 0.991 1.675 0.991 1.675 0.031 -71.151
15948.458 0.029 -70.364 0.991 1.589 0.991 1.589 0.029 -70.364
15973.417 0.028 -69.489 0.991 1.503 0.991 1.503 0.028 -69.489
15998.375 0.026 -68.511 0.991 1.417 0.991 1.417 0.026 -68.511
16023.333 0.025 -67.415 0.991 1.331 0.991 1.331 0.025 -67.415
16048.292 0.024 -66.182 0.991 1.246 0.991 1.246 0.024 -66.182
16073.25 0.022 -64.786 0.991 1.16 0.991 1.16 0.022 -64.786
16098.208 0.021 -63.199 0.991 1.075 0.991 1.075 0.021 -63.199
16123.167 0.019 -61.384 0.991 0.989 0.991 0.989 0.019 -61.384
16148.125 0.018 -59.297 0.991 0.904 0.991 0.904 0.018 -59.297
16173.083 0.017 -56.884 0.991 0.819 0.991 0.819 0.017 -56.884
16198.042 0.016 -54.075 0.991 0.734 0.991 0.734 0.016 -54.075
16223 0.014 -50.789 0.991 0.65 0.991 0.65 0.014 -50.789
16247.958 0.013 -46.927 0.991 0.565 0.991 0.565 0.013 -46.927
16272.917 0.012 -42.376 0.991 0.48 0.991 0.48 0.012 -42.376
16297.875 0.011 -37.017 0.991 0.396 0.991 0.396 0.011 -37.017
16322.833 0.011 -30.747 0.991 0.312 0.991 0.312 0.011 -30.747
16347.792 9.874e-3 -23.515 0.991 0.228 0.991 0.228 9.874e-3 -23.515
16372.75 9.381e-3 -15.376 0.991 0.144 0.991 0.144 9.381e-3 -15.376
16397.708 9.099e-3 -6.544 0.991 0.06 0.991 0.06 9.099e-3 -6.544
16422.667 9.048e-3 2.603 0.991 -0.024 0.991 -0.024 9.048e-3 2.603
16447.625 9.231e-3 11.605 0.991 -0.107 0.991 -0.107 9.231e-3 11.605
16472.583 9.633e-3 20.037 0.991 -0.191 0.991 -0.191 9.633e-3 20.037
16497.542 0.01 27.624 0.991 -0.274 0.991 -0.274 0.01 27.624
16522.5 0.011 34.253 0.991 -0.357 0.991 -0.357 0.011 34.253
16547.458 0.012 39.943 0.991 -0.44 0.991 -0.44 0.012 39.943
16572.417 0.013 44.784 0.991 -0.523 0.991 -0.523 0.013 44.784
16597.375 0.014 48.891 0.991 -0.606 0.991 -0.606 0.014 48.891
16622.333 0.015 52.382 0.991 -0.689 0.991 -0.689 0.015 52.382
16647.292 0.016 55.361 0.991 -0.772 0.991 -0.772 0.016 55.361
16672.25 0.017 57.916 0.991 -0.854 0.991 -0.854 0.017 57.916
16697.208 0.019 60.121 0.991 -0.936 0.991 -0.936 0.019 60.121
16722.167 0.02 62.034 0.991 -1.019 0.991 -1.019 0.02 62.034
16747.125 0.021 63.705 0.991 -1.101 0.991 -1.101 0.021 63.705
16772.083 0.023 65.172 0.991 -1.183 0.991 -1.183 0.023 65.172
16797.042 0.024 66.467 0.991 -1.264 0.991 -1.264 0.024 66.467
16822 0.025 67.616 0.991 -1.346 0.991 -1.346 0.025 67.616
16846.958 0.027 68.64 0.991 -1.428 0.991 -1.428 0.027 68.64
16871.917 0.028 69.556 0.991 -1.509 0.991 -1.509 0.028 69.556
16896.875 0.029 70.379 0.991 -1.591 0.991 -1.591 0.029 70.379
16921.833 0.031 71.122 0.991 -1.672 0.991 -1.672 0.031 71.122
16946.792 0.032 71.793 0.99 -1.753 0.99 -1.753 0.032 71.793
16971.75 0.033 72.402 0.99 -1.834 0.99 -1.834 0.033 72.402
16996.708 0.035 72.956 0.99 -1.915 0.99 -1.915 0.035 72.956
17021.667 0.036 73.462 0.99 -1.995 0.99 -1.995 0.036 73.462
17046.625 0.037 73.923 0.99 -2.076 0.99 -2.076 0.037 73.923
17071.583 0.039 74.346 0.99 -2.157 0.99 -2.157 0.039 74.346
17096.542 0.04 74.735 0.99 -2.237 0.99 -2.237 0.04 74.735
17121.5 0.041 75.091 0.99 -2.317 0.99 -2.317 0.041 75.091
17146.458 0.043 75.42 0.99 -2.397 0.99 -2.397 0.043 75.42
17171.417 0.044 75.722 0.99 -2.477 0.99 -2.477 0.044 75.722
17196.375 0.046 76.002 0.99 -2.557 0.99 -2.557 0.046 76.002
17221.333 0.047 76.26 0.99 -2.637 0.99 -2.637 0.047 76.26
17246.292 0.048 76.498 0.99 -2.717 0.99 -2.717 0.048 76.498
17271.25 0.05 76.719 0.99 -2.796 0.99 -2.796 0.05 76.719
17296.208 0.051 76.924 0.99 -2.876 0.99 -2.876 0.051 76.924
17321.167 0.052 77.113 0.99 -2.955 0.99 -2.955 0.052 77.113
17346.125 0.054 77.288 0.99 -3.034 0.99 -3.034 0.054 77.288
17371.083 0.055 77.451 0.989 -3.113 0.989 -3.113 0.055 77.451
17396.042 0.056 77.602 0.989 -3.192 0.989 -3.192 0.056 77.602
17421 0.058 77.742 0.989 -3.271 0.989 -3.271 0.058 77.742
17445.958 0.059 77.871 0.989 -3.349 0.989 -3.349 0.059 77.871
17470.917 0.06 77.991 0.989 -3.428 0.989 -3.428 0.06 77.991
17495.875 0.062 78.103 0.989 -3.506 0.989 -3.506 0.062 78.103
17520.833 0.063 78.206 0.989 -3.585 0.989 -3.585 0.063 78.206
17545.792 0.065 78.301 0.989 -3.663 0.989 -3.663 0.065 78.301
17570.75 0.066 78.389 0.989 -3.741 0.989 -3.741 0.066 78.389
17595.708 0.067 78.47 0.989 -3.819 0.989 -3.819 0.067 78.47
17620.667 0.069 78.545 0.989 -3.897 0.989 -3.897 0.069 78.545
17645.625 0.07 78.614 0.989 -3.975 0.989 -3.975 0.07 78.614
17670.583 0.071 78.677 0.988 -4.052 0.988 -4.052 0.071 78.677
17695.542 0.073 78.735 0.988 -4.13 0.988 -4.13 0.073 78.735
17720.5 0.074 78.788 0.988 -4.207 0.988 -4.207 0.074 78.788
17745.458 0.075 78.836 0.988 -4.285 0.988 -4.285 0.075 78.836
17770.417 0.077 78.88 0.988 -4.362 0.988 -4.362 0.077 78.88
17795.375 0.078 78.92 0.988 -4.439 0.988 -4.439 0.078 78.92
17820.333 0.079 78.956 0.988 -4.516 0.988 -4.516 0.079 78.956
17845.292 0.081 78.987 0.988 -4.593 0.988 -4.593 0.081 78.987
17870.25 0.082 79.016 0.988 -4.669 0.988 -4.669 0.082 79.016
17895.208 0.083 79.041 0.988 -4.746 0.988 -4.746 0.083 79.041
17920.167 0.085 79.063 0.987 -4.822 0.987 -4.822 0.085 79.063
17945.125 0.086 79.081 0.987 -4.899 0.987 -4.899 0.086 79.081
17970.083 0.087 79.097 0.987 -4.975 0.987 -4.975 0.087 79.097
17995.042 0.089 79.11 0.987 -5.051 0.987 -5.051 0.089 79.11
18020 0.09 79.121 0.987 -5.127 0.987 -5.127 0.09 79.121
18044.958 0.091 79.128 0.987 -5.203 0.987 -5.203 0.091 79.128
18069.917 0.092 79.134 0.987 -5.279 0.987 -5.279 0.092 79.134
18094.875 0.094 79.137 0.987 -5.354 0.987 -5.354 0.094 79.137
18119.833 0.095 79.138 0.987 -5.43 0.987 -5.43 0.095 79.138
18144.792 0.096 79.137 0.986 -5.505 0.986 -5.505 0.096 79.137
18169.75 0.098 79.134 0.986 -5.581 0.986 -5.581 0.098 79.134
18194.708 0.099 79.129 0.986 -5.656 0.986 -5.656 0.099 79.129
18219.667 0.1 79.123 0.986 -5.731 0.986 -5.731 0.1 79.123
18244.625 0.102 79.114 0.986 -5.806 0.986 -5.806 0.102 79.114
18269.583 0.103 79.104 0.986 -5.881 0.986 -5.881 0.103 79.104
18294.542 0.104 79.093 0.986 -5.956 0.986 -5.956 0.104 79.093
18319.5 0.105 79.079 0.985 -6.03 0.985 -6.03 0.105 79.079
18344.458 0.107 79.065 0.985 -6.105 0.985 -6.105 0.107 79.065
18369.417 0.108 79.049 0.985 -6.18 0.985 -6.18 0.108 79.049
18394.375 0.109 79.031 0.985 -6.254 0.985 -6.254 0.109 79.031
18419.333 0.111 79.012 0.985 -6.328 0.985 -6.328 0.111 79.012
18444.292 0.112 78.992 0.985 -6.402 0.985 -6.402 0.112 78.992
18469.25 0.113 78.971 0.985 -6.476 0.985 -6.476 0.113 78.971
18494.208 0.114 78.949 0.984 -6.55 0.984 -6.55 0.114 78.949
18519.167 0.116 78.926 0.984 -6.624 0.984 -6.624 0.116 78.926
18544.125 0.117 78.901 0.984 -6.698 0.984 -6.698 0.117 78.901
18569.083 0.118 78.876 0.984 -6.771 0.984 -6.771 0.118 78.876
18594.042 0.12 78.849 0.984 -6.845 0.984 -6.845 0.12 78.849
18619 0.121 78.822 0.984 -6.918 0.984 -6.918 0.121 78.822
18643.958 0.122 78.793 0.984 -6.991 0.984 -6.991 0.122 78.793
18668.917 0.123 78.764 0.983 -7.064 0.983 -7.064 0.123 78.764
18693.875 0.125 78.734 0.983 -7.137 0.983 -7.137 0.125 78.734
18718.833 0.126 78.703 0.983 -7.21 0.983 -7.21 0.126 78.703
18743.792 0.127 78.672 0.983 -7.283 0.983 -7.283 0.127 78.672
18768.75 0.128 78.639 0.983 -7.356 0.983 -7.356 0.128 78.639
18793.708 0.13 78.606 0.983 -7.428 0.983 -7.428 0.13 78.606
18818.667 0.131 78.572 0.982 -7.501 0.982 -7.501 0.131 78.572
18843.625 0.132 78.538 0.982 -7.573 0.982 -7.573 0.132 78.538
18868.583 0.133 78.502 0.982 -7.646 0.982 -7.646 0.133 78.502
18893.542 0.135 78.467 0.982 -7.718 0.982 -7.718 0.135 78.467
18918.5 0.136 78.43 0.982 -7.79 0.982 -7.79 0.136 78.43
18943.458 0.137 78.393 0.982 -7.862 0.982 -7.862 0.137 78.393
18968.417 0.138 78.356 0.981 -7.934 0.981 -7.934 0.138 78.356
18993.375 0.14 78.317 0.981 -8.005 0.981 -8.005 0.14 78.317
19018.333 0.141 78.279 0.981 -8.077 0.981 -8.077 0.141 78.279
19043.292 0.142 78.24 0.981 -8.148 0.981 -8.148 0.142 78.24
19068.25 0.143 78.2 0.981 -8.22 0.981 -8.22 0.143 78.2
19093.208 0.144 78.16 0.981 -8.291 0.981 -8.291 0.144 78.16
19118.167 0.146 78.119 0.98 -8.362 0.98 -8.362 0.146 78.119
19143.125 0.147 78.078 0.98 -8.434 0.98 -8.434 0.147 78.078
19168.083 0.148 78.036 0.98 -8.505 0.98 -8.505 0.148 78.036
19193.042 0.149 77.994 0.98 -8.575 0.98 -8.575 0.149 77.994
19218 0.151 77.952 0.98 -8.646 0.98 -8.646 0.151 77.952
19242.958 0.152 77.909 0.98 -8.717 0.98 -8.717 0.152 77.909
19267.917 0.153 77.866 0.979 -8.788 0.979 -8.788 0.153 77.866
19292.875 0.154 77.823 0.979 -8.858 0.979 -8.858 0.154 77.823
19317.833 0.155 77.779 0.979 -8.928 0.979 -8.928 0.155 77.779
19342.792 0.157 77.735 0.979 -8.999 0.979 -8.999 0.157 77.735
19367.75 0.158 77.69 0.979 -9.069 0.979 -9.069 0.158 77.69
19392.708 0.159 77.645 0.978 -9.139 0.978 -9.139 0.159 77.645
19417.667 0.16 77.6 0.978 -9.209 0.978 -9.209 0.16 77.6
19442.625 0.161 77.555 0.978 -9.279 0.978 -9.279 0.161 77.555
19467.583 0.163 77.509 0.978 -9.349 0.978 -9.349 0.163 77.509
19492.542 0.164 77.463 0.978 -9.418 0.978 -9.418 0.164 77.463
19517.5 0.165 77.417 0.977 -9.488 0.977 -9.488 0.165 77.417
19542.458 0.166 77.37 0.977 -9.557 0.977 -9.557 0.166 77.37
19567.417 0.167 77.323 0.977 -9.627 0.977 -9.627 0.167 77.323
19592.375 0.169 77.276 0.977 -9.696 0.977 -9.696 0.169 77.276
19617.333 0.17 77.229 0.977 -9.765 0.977 -9.765 0.17 77.229
19642.292 0.171 77.181 0.976 -9.834 0.976 -9.834 0.171 77.181
19667.25 0.172 77.133 0.976 -9.903 0.976 -9.903 0.172 77.133
19692.208 0.173 77.085 0.976 -9.972 0.976 -9.972 0.173 77.085
19717.167 0.175 77.037 0.976 -10.041 0.976 -10.041 0.175 77.037
19742.125 0.176 76.989 0.976 -10.109 0.976 -10.109 0.176 76.989
19767.083 0.177 76.94 0.975 -10.178 0.975 -10.178 0.177 76.94
19792.042 0.178 76.891 0.975 -10.246 0.975 -10.246 0.178 76.891
19817 0.179 76.842 0.975 -10.315 0.975 -10.315 0.179 76.842
19841.958 0.18 76.793 0.975 -10.383 0.975 -10.383 0.18 76.793
19866.917 0.182 76.744 0.975 -10.451 0.975 -10.451 0.182 76.744
19891.875 0.183 76.694 0.974 -10.519 0.974 -10.519 0.183 76.694
19916.833 0.184 76.644 0.974 -10.587 0.974 -10.587 0.184 76.644
19941.792 0.185 76.595 0.974 -10.655 0.974 -10.655 0.185 76.595
19966.75 0.186 76.545 0.974 -10.723 0.974 -10.723 0.186 76.545
19991.708 0.187 76.494 0.973 -10.79 0.973 -10.79 0.187 76.494
20016.667 0.189 76.444 0.973 -10.858 0.973 -10.858 0.189 76.444
20041.625 0.19 76.394 0.973 -10.925 0.973 -10.925 0.19 76.394
20066.583 0.191 76.343 0.973 -10.993 0.973 -10.993 0.191 76.343
20091.542 0.192 76.293 0.973 -11.06 0.973 -11.06 0.192 76.293
20116.5 0.193 76.242 0.972 -11.127 0.972 -11.127 0.193 76.242
20141.458 0.194 76.191 0.972 -11.194 0.972 -11.194 0.194 76.191
20166.417 0.195 76.14 0.972 -11.261 0.972 -11.261 0.195 76.14
20191.375 0.197 76.089 0.972 -11.328 0.972 -11.328 0.197 76.089
20216.333 0.198 76.037 0.971 -11.395 0.971 -11.395 0.198 76.037
20241.292 0.199 75.986 0.971 -11.461 0.971 -11.461 0.199 75.986
20266.25 0.2 75.935 0.971 -11.528 0.971 -11.528 0.2 75.935
20291.208 0.201 75.883 0.971 -11.595 0.971 -11.595 0.201 75.883
20316.167 0.202 75.831 0.971 -11.661 0.971 -11.661 0.202 75.831
20341.125 0.203 75.78 0.97 -11.727 0.97 -11.727 0.203 75.78
20366.083 0.205 75.728 0.97 -11.793 0.97 -11.793 0.205 75.728
20391.042 0.206 75.676 0.97 -11.859 0.97 -11.859 0.206 75.676
20416 0.207 75.624 0.97 -11.926 0.97 -11.926 0.207 75.624
20440.958 0.208 75.572 0.969 -11.991 0.969 -11.991 0.208 75.572
20465.917 0.209 75.52 0.969 -12.057 0.969 -12.057 0.209 75.52
20490.875 0.21 75.468 0.969 -12.123 0.969 -12.123 0.21 75.468
20515.833 0.211 75.415 0.969 -12.189 0.969 -12.189 0.211 75.415
20540.792 0.212 75.363 0.968 -12.254 0.968 -12.254 0.212 75.363
20565.75 0.214 75.311 0.968 -12.32 0.968 -12.32 0.214 75.311
20590.708 0.215 75.258 0.968 -12.385 0.968 -12.385 0.215 75.258
20615.667 0.216 75.206 0.968 -12.45 0.968 -12.45 0.216 75.206
20640.625 0.217 75.153 0.967 -12.515 0.967 -12.515 0.217 75.153
20665.583 0.218 75.1 0.967 -12.58 0.967 -12.58 0.218 75.1
20690.542 0.219 75.048 0.967 -12.645 0.967 -12.645 0.219 75.048
20715.5 0.22 74.995 0.967 -12.71 0.967 -12.71 0.22 74.995
20740.458 0.221 74.942 0.966 -12.775 0.966 -12.775 0.221 74.942
20765.417 0.222 74.889 0.966 -12.84 0.966 -12.84 0.222 74.889
20790.375 0.223 74.837 0.966 -12.904 0.966 -12.904 0.223 74.837
20815.333 0.225 74.784 0.966 -12.969 0.966 -12.969 0.225 74.784
20840.292 0.226 74.731 0.965 -13.033 0.965 -13.033 0.226 74.731
20865.25 0.227 74.678 0.965 -13.098 0.965 -13.098 0.227 74.678
20890.208 0.228 74.625 0.965 -13.162 0.965 -13.162 0.228 74.625
20915.167 0.229 74.572 0.965 -13.226 0.965 -13.226 0.229 74.572
20940.125 0.23 74.519 0.964 -13.29 0.964 -13.29 0.23 74.519
20965.083 0.231 74.466 0.964 -13.354 0.964 -13.354 0.231 74.466
20990.042 0.232 74.413 0.964 -13.418 0.964 -13.418 0.232 74.413
21015 0.233 74.359 0.964 -13.481 0.964 -13.481 0.233 74.359
21039.958 0.234 74.306 0.963 -13.545 0.963 -13.545 0.234 74.306
21064.917 0.235 74.253 0.963 -13.609 0.963 -13.609 0.235 74.253
21089.875 0.237 74.2 0.963 -13.672 0.963 -13.672 0.237 74.2
21114.833 0.238 74.147 0.963 -13.736 0.963 -13.736 0.238 74.147
21139.792 0.239 74.093 0.962 -13.799 0.962 -13.799 0.239 74.093
21164.75 0.24 74.04 0.962 -13.862 0.962 -13.862 0.24 74.04
21189.708 0.241 73.987 0.962 -13.925 0.962 -13.925 0.241 73.987
21214.667 0.242 73.934 0.962 -13.988 0.962 -13.988 0.242 73.934
21239.625 0.243 73.88 0.961 -14.051 0.961 -14.051 0.243 73.88
21264.583 0.244 73.827 0.961 -14.114 0.961 -14.114 0.244 73.827
21289.542 0.245 73.774 0.961 -14.177 0.961 -14.177 0.245 73.774
21314.5 0.246 73.721 0.961 -14.24 0.961 -14.24 0.246 73.721
21339.458 0.247 73.667 0.96 -14.302 0.96 -14.302 0.247 73.667
21364.417 0.248 73.614 0.96 -14.365 0.96 -14.365 0.248 73.614
21389.375 0.249 73.561 0.96 -14.427 0.96 -14.427 0.249 73.561
21414.333 0.25 73.507 0.959 -14.489 0.959 -14.489 0.25 73.507
21439.292 0.251 73.454 0.959 -14.552 0.959 -14.552 0.251 73.454
21464.25 0.252 73.401 0.959 -14.614 0.959 -14.614 0.252 73.401
21489.208 0.254 73.348 0.959 -14.676 0.959 -14.676 0.254 73.348
21514.167 0.255 73.294 0.958 -14.738 0.958 -14.738 0.255 73.294
21539.125 0.256 73.241 0.958 -14.8 0.958 -14.8 0.256 73.241
21564.083 0.257 73.188 0.958 -14.862 0.958 -14.862 0.257 73.188
21589.042 0.258 73.134 0.958 -14.923 0.958 -14.923 0.258 73.134
21614 0.259 73.081 0.957 -14.985 0.957 -14.985 0.259 73.081
21638.958 0.26 73.028 0.957 -15.046 0.957 -15.046 0.26 73.028
21663.917 0.261 72.975 0.957 -15.108 0.957 -15.108 0.261 72.975
21688.875 0.262 72.921 0.956 -15.169 0.956 -15.169 0.262 72.921
21713.833 0.263 72.868 0.956 -15.23 0.956 -15.23 0.263 72.868
21738.792 0.264 72.815 0.956 -15.292 0.956 -15.292 0.264 72.815
21763.75 0.265 72.762 0.956 -15.353 0.956 -15.353 0.265 72.762
21788.708 0.266 72.709 0.955 -15.414 0.955 -15.414 0.266 72.709
21813.667 0.267 72.655 0.955 -15.475 0.955 -15.475 0.267 72.655
21838.625 0.268 72.602 0.955 -15.535 0.955 -15.535 0.268 72.602
21863.583 0.269 72.549 0.954 -15.596 0.954 -15.596 0.269 72.549
21888.542 0.27 72.496 0.954 -15.657 0.954 -15.657 0.27 72.496
21913.5 0.271 72.443 0.954 -15.717 0.954 -15.717 0.271 72.443
21938.458 0.272 72.39 0.954 -15.778 0.954 -15.778 0.272 72.39
21963.417 0.273 72.337 0.953 -15.838 0.953 -15.838 0.273 72.337
21988.375 0.274 72.284 0.953 -15.899 0.953 -15.899 0.274 72.284
22013.333 0.275 72.231 0.953 -15.959 0.953 -15.959 0.275 72.231
22038.292 0.276 72.178 0.952 -16.019 0.952 -16.019 0.276 72.178
22063.25 0.277 72.125 0.952 -16.079 0.952 -16.079 0.277 72.125
22088.208 0.278 72.072 0.952 -16.139 0.952 -16.139 0.278 72.072
22113.167 0.279 72.019 0.952 -16.199 0.952 -16.199 0.279 72.019
22138.125 0.28 71.966 0.951 -16.259 0.951 -16.259 0.28 71.966
22163.083 0.281 71.913 0.951 -16.319 0.951 -16.319 0.281 71.913
22188.042 0.282 71.86 0.951 -16.378 0.951 -16.378 0.282 71.86
22213 0.283 71.807 0.95 -16.438 0.95 -16.438 0.283 71.807
22237.958 0.284 71.755 0.95 -16.497 0.95 -16.497 0.284 71.755
22262.917 0.285 71.702 0.95 -16.557 0.95 -16.557 0.285 71.702
22287.875 0.286 71.649 0.95 -16.616 0.95 -16.616 0.286 71.649
22312.833 0.287 71.596 0.949 -16.675 0.949 -16.675 0.287 71.596
22337.792 0.288 71.544 0.949 -16.734 0.949 -16.734 0.288 71.544
22362.75 0.289 71.491 0.949 -16.793 0.949 -16.793 0.289 71.491
22387.708 0.29 71.438 0.948 -16.852 0.948 -16.852 0.29 71.438
22412.667 0.291 71.386 0.948 -16.911 0.948 -16.911 0.291 71.386
22437.625 0.292 71.333 0.948 -16.97 0.948 -16.97 0.292 71.333
22462.583 0.293 71.281 0.948 -17.029 0.948 -17.029 0.293 71.281
22487.542 0.294 71.228 0.947 -17.088 0.947 -17.088 0.294 71.228
22512.5 0.295 71.176 0.947 -17.146 0.947 -17.146 0.295 71.176
22537.458 0.296 71.123 0.947 -17.205 0.947 -17.205 0.296 71.123
22562.417 0.297 71.071 0.946 -17.263 0.946 -17.263 0.297 71.071
22587.375 0.298 71.019 0.946 -17.321 0.946 -17.321 0.298 71.019
22612.333 0.299 70.966 0.946 -17.38 0.946 -17.38 0.299 70.966
22637.292 0.3 70.914 0.945 -17.438 0.945 -17.438 0.3 70.914
22662.25 0.301 70.862 0.945 -17.496 0.945 -17.496 0.301 70.862
22687.208 0.302 70.81 0.945 -17.554 0.945 -17.554 0.302 70.81
22712.167 0.303 70.757 0.945 -17.612 0.945 -17.612 0.303 70.757
22737.125 0.304 70.705 0.944 -17.67 0.944 -17.67 0.304 70.705
22762.083 0.305 70.653 0.944 -17.727 0.944 -17.727 0.305 70.653
22787.042 0.306 70.601 0.944 -17.785 0.944 -17.785 0.306 70.601
22812 0.307 70.549 0.943 -17.843 0.943 -17.843 0.307 70.549
22836.958 0.307 70.497 0.943 -17.9 0.943 -17.9 0.307 70.497
22861.917 0.308 70.445 0.943 -17.957 0.943 -17.957 0.308 70.445
22886.875 0.309 70.393 0.942 -18.015 0.942 -18.015 0.309 70.393
22911.833 0.31 70.341 0.942 -18.072 0.942 -18.072 0.31 70.341
22936.792 0.311 70.289 0.942 -18.129 0.942 -18.129 0.311 70.289
22961.75 0.312 70.238 0.941 -18.186 0.941 -18.186 0.312 70.238
22986.708 0.313 70.186 0.941 -18.243 0.941 -18.243 0.313 70.186
23011.667 0.314 70.134 0.941 -18.3 0.941 -18.3 0.314 70.134
23036.625 0.315 70.082 0.941 -18.357 0.941 -18.357 0.315 70.082
23061.583 0.316 70.031 0.94 -18.414 0.94 -18.414 0.316 70.031
23086.542 0.317 69.979 0.94 -18.471 0.94 -18.471 0.317 69.979
23111.5 0.318 69.928 0.94 -18.527 0.94 -18.527 0.318 69.928
23136.458 0.319 69.876 0.939 -18.584 0.939 -18.584 0.319 69.876
23161.417 0.32 69.825 0.939 -18.641 0.939 -18.641 0.32 69.825
23186.375 0.321 69.773 0.939 -18.697 0.939 -18.697 0.321 69.773
23211.333 0.322 69.722 0.938 -18.753 0.938 -18.753 0.322 69.722
23236.292 0.323 69.67 0.938 -18.81 0.938 -18.81 0.323 69.67
23261.25 0.323 69.619 0.938 -18.866 0.938 -18.866 0.323 69.619
23286.208 0.324 69.568 0.937 -18.922 0.937 -18.922 0.324 69.568
23311.167 0.325 69.517 0.937 -18.978 0.937 -18.978 0.325 69.517
23336.125 0.326 69.465 0.937 -19.034 0.937 -19.034 0.326 69.465
23361.083 0.327 69.414 0.936 -19.09 0.936 -19.09 0.327 69.414
23386.042 0.328 69.363 0.936 -19.145 0.936 -19.145 0.328 69.363
23411 0.329 69.312 0.936 -19.201 0.936 -19.201 0.329 69.312
23435.958 0.33 69.261 0.936 -19.257 0.936 -19.257 0.33 69.261
23460.917 0.331 69.21 0.935 -19.312 0.935 -19.312 0.331 69.21
23485.875 0.332 69.159 0.935 -19.368 0.935 -19.368 0.332 69.159
23510.833 0.333 69.108 0.935 -19.423 0.935 -19.423 0.333 69.108
23535.792 0.334 69.058 0.934 -19.478 0.934 -19.478 0.334 69.058
23560.75 0.334 69.007 0.934 -19.534 0.934 -19.534 0.334 69.007
23585.708 0.335 68.956 0.934 -19.589 0.934 -19.589 0.335 68.956
23610.667 0.336 68.905 0.933 -19.644 0.933 -19.644 0.336 68.905
23635.625 0.337 68.855 0.933 -19.699 0.933 -19.699 0.337 68.855
23660.583 0.338 68.804 0.933 -19.754 0.933 -19.754 0.338 68.804
23685.542 0.339 68.754 0.932 -19.809 0.932 -19.809 0.339 68.754
23710.5 0.34 68.703 0.932 -19.864 0.932 -19.864 0.34 68.703
23735.458 0.341 68.653 0.932 -19.918 0.932 -19.918 0.341 68.653
23760.417 0.342 68.602 0.931 -19.973 0.931 -19.973 0.342 68.602
23785.375 0.343 68.552 0.931 -20.028 0.931 -20.028 0.343 68.552
23810.333 0.343 68.502 0.931 -20.082 0.931 -20.082 0.343 68.502
23835.292 0.344 68.451 0.93 -20.137 0.93 -20.137 0.344 68.451
23860.25 0.345 68.401 0.93 -20.191 0.93 -20.191 0.345 68.401
23885.208 0.346 68.351 0.93 -20.245 0.93 -20.245 0.346 68.351
23910.167 0.347 68.301 0.929 -20.299 0.929 -20.299 0.347 68.301
23935.125 0.348 68.251 0.929 -20.353 0.929 -20.353 0.348 68.251
23960.083 0.349 68.201 0.929 -20.408 0.929 -20.408 0.349 68.201
23985.042 0.35 68.151 0.928 -20.461 0.928 -20.461 0.35 68.151
24010 0.351 68.101 0.928 -20.515 0.928 -20.515 0.351 68.101
24034.958 0.351 68.051 0.928 -20.569 0.928 -20.569 0.351 68.051
24059.917 0.352 68.001 0.927 -20.623 0.927 -20.623 0.352 68.001
24084.875 0.353 67.951 0.927 -20.677 0.927 -20.677 0.353 67.951
24109.833 0.354 67.902 0.927 -20.73 0.927 -20.73 0.354 67.902
24134.792 0.355 67.852 0.926 -20.784 0.926 -20.784 0.355 67.852
24159.75 0.356 67.802 0.926 -20.837 0.926 -20.837 0.356 67.802
24184.708 0.357 67.753 0.926 -20.891 0.926 -20.891 0.357 67.753
24209.667 0.358 67.703 0.925 -20.944 0.925 -20.944 0.358 67.703
24234.625 0.358 67.654 0.925 -20.997 0.925 -20.997 0.358 67.654
24259.583 0.359 67.604 0.925 -21.05 0.925 -21.05 0.359 67.604
24284.542 0.36 67.555 0.924 -21.104 0.924 -21.104 0.36 67.555
24309.5 0.361 67.506 0.924 -21.157 0.924 -21.157 0.361 67.506
24334.458 0.362 67.456 0.924 -21.209 0.924 -21.209 0.362 67.456
24359.417 0.363 67.407 0.924 -21.262 0.924 -21.262 0.363 67.407
24384.375 0.364 67.358 0.923 -21.315 0.923 -21.315 0.364 67.358
24409.333 0.364 67.309 0.923 -21.368 0.923 -21.368 0.364 67.309
24434.292 0.365 67.26 0.923 -21.421 0.923 -21.421 0.365 67.26
24459.25 0.366 67.211 0.922 -21.473 0.922 -21.473 0.366 67.211
24484.208 0.367 67.162 0.922 -21.526 0.922 -21.526 0.367 67.162
24509.167 0.368 67.113 0.922 -21.578 0.922 -21.578 0.368 67.113
24534.125 0.369 67.064 0.921 -21.631 0.921 -21.631 0.369 67.064
24559.083 0.37 67.015 0.921 -21.683 0.921 -21.683 0.37 67.015
24584.042 0.37 66.966 0.921 -21.735 0.921 -21.735 0.37 66.966
24609 0.371 66.917 0.92 -21.787 0.92 -21.787 0.371 66.917
24633.958 0.372 66.869 0.92 -21.839 0.92 -21.839 0.372 66.869
24658.917 0.373 66.82 0.92 -21.891 0.92 -21.891 0.373 66.82
24683.875 0.374 66.771 0.919 -21.943 0.919 -21.943 0.374 66.771
24708.833 0.375 66.723 0.919 -21.995 0.919 -21.995 0.375 66.723
24733.792 0.375 66.674 0.918 -22.047 0.918 -22.047 0.375 66.674
24758.75 0.376 66.626 0.918 -22.099 0.918 -22.099 0.376 66.626
24783.708 0.377 66.578 0.918 -22.151 0.918 -22.151 0.377 66.578
24808.667 0.378 66.529 0.917 -22.202 0.917 -22.202 0.378 66.529
24833.625 0.379 66.481 0.917 -22.254 0.917 -22.254 0.379 66.481
24858.583 0.38 66.433 0.917 -22.305 0.917 -22.305 0.38 66.433
24883.542 0.38 66.384 0.916 -22.357 0.916 -22.357 0.38 66.384
24908.5 0.381 66.336 0.916 -22.408 0.916 -22.408 0.381 66.336
24933.458 0.382 66.288 0.916 -22.459 0.916 -22.459 0.382 66.288
24958.417 0.383 66.24 0.915 -22.51 0.915 -22.51 0.383 66.24
24983.375 0.384 66.192 0.915 -22.562 0.915 -22.562 0.384 66.192
25008.333 0.385 66.144 0.915 -22.613 0.915 -22.613 0.385 66.144
25033.292 0.385 66.096 0.914 -22.664 0.914 -22.664 0.385 66.096
25058.25 0.386 66.049 0.914 -22.714 0.914 -22.714 0.386 66.049
25083.208 0.387 66.001 0.914 -22.765 0.914 -22.765 0.387 66.001
25108.167 0.388 65.953 0.913 -22.816 0.913 -22.816 0.388 65.953
25133.125 0.389 65.905 0.913 -22.867 0.913 -22.867 0.389 65.905
25158.083 0.389 65.858 0.913 -22.918 0.913 -22.918 0.389 65.858
25183.042 0.39 65.81 0.912 -22.968 0.912 -22.968 0.39 65.81
25208 0.391 65.763 0.912 -23.019 0.912 -23.019 0.391 65.763
25232.958 0.392 65.715 0.912 -23.069 0.912 -23.069 0.392 65.715
25257.917 0.393 65.668 0.911 -23.119 0.911 -23.119 0.393 65.668
25282.875 0.394 65.62 0.911 -23.17 0.911 -23.17 0.394 65.62
25307.833 0.394 65.573 0.911 -23.22 0.911 -23.22 0.394 65.573
25332.792 0.395 65.526 0.91 -23.27 0.91 -23.27 0.395 65.526
25357.75 0.396 65.479 0.91 -23.32 0.91 -23.32 0.396 65.479
25382.708 0.397 65.431 0.91 -23.37 0.91 -23.37 0.397 65.431
25407.667 0.398 65.384 0.909 -23.42 0.909 -23.42 0.398 65.384
25432.625 0.398 65.337 0.909 -23.47 0.909 -23.47 0.398 65.337
25457.583 0.399 65.29 0.909 -23.52 0.909 -23.52 0.399 65.29
25482.542 0.4 65.243 0.908 -23.57 0.908 -23.57 0.4 65.243
25507.5 0.401 65.196 0.908 -23.62 0.908 -23.62 0.401 65.196
25532.458 0.402 65.149 0.908 -23.669 0.908 -23.669 0.402 65.149
25557.417 0.402 65.103 0.907 -23.719 0.907 -23.719 0.402 65.103
25582.375 0.403 65.056 0.907 -23.768 0.907 -23.768 0.403 65.056
25607.333 0.404 65.009 0.907 -23.818 0.907 -23.818 0.404 65.009
25632.292 0.405 64.963 0.906 -23.867 0.906 -23.867 0.405 64.963
25657.25 0.405 64.916 0.906 -23.916 0.906 -23.916 0.405 64.916
25682.208 0.406 64.869 0.906 -23.966 0.906 -23.966 0.406 64.869
25707.167 0.407 64.823 0.905 -24.015 0.905 -24.015 0.407 64.823
25732.125 0.408 64.776 0.905 -24.064 0.905 -24.064 0.408 64.776
25757.083 0.409 64.73 0.904 -24.113 0.904 -24.113 0.409 64.73
25782.042 0.409 64.684 0.904 -24.162 0.904 -24.162 0.409 64.684
25807 0.41 64.637 0.904 -24.211 0.904 -24.211 0.41 64.637
25831.958 0.411 64.591 0.903 -24.26 0.903 -24.26 0.411 64.591
25856.917 0.412 64.545 0.903 -24.309 0.903 -24.309 0.412 64.545
25881.875 0.413 64.499 0.903 -24.357 0.903 -24.357 0.413 64.499
25906.833 0.413 64.453 0.902 -24.406 0.902 -24.406 0.413 64.453
25931.792 0.414 64.407 0.902 -24.455 0.902 -24.455 0.414 64.407
25956.75 0.415 64.361 0.902 -24.503 0.902 -24.503 0.415 64.361
25981.708 0.416 64.315 0.901 -24.552 0.901 -24.552 0.416 64.315
26006.667 0.416 64.269 0.901 -24.6 0.901 -24.6 0.416 64.269
26031.625 0.417 64.223 0.901 -24.648 0.901 -24.648 0.417 64.223
26056.583 0.418 64.177 0.9 -24.697 0.9 -24.697 0.418 64.177
26081.542 0.419 64.132 0.9 -24.745 0.9 -24.745 0.419 64.132
26106.5 0.419 64.086 0.9 -24.793 0.9 -24.793 0.419 64.086
26131.458 0.42 64.04 0.899 -24.841 0.899 -24.841 0.42 64.04
26156.417 0.421 63.995 0.899 -24.889 0.899 -24.889 0.421 63.995
26181.375 0.422 63.949 0.899 -24.937 0.899 -24.937 0.422 63.949
26206.333 0.422 63.904 0.898 -24.985 0.898 -24.985 0.422 63.904
26231.292 0.423 63.858 0.898 -25.033 0.898 -25.033 0.423 63.858
26256.25 0.424 63.813 0.898 -25.081 0.898 -25.081 0.424 63.813
26281.208 0.425 63.768 0.897 -25.128 0.897 -25.128 0.425 63.768
26306.167 0.425 63.722 0.897 -25.176 0.897 -25.176 0.425 63.722
26331.125 0.426 63.677 0.896 -25.224 0.896 -25.224 0.426 63.677
26356.083 0.427 63.632 0.896 -25.271 0.896 -25.271 0.427 63.632
26381.042 0.428 63.587 0.896 -25.319 0.896 -25.319 0.428 63.587
26406 0.428 63.542 0.895 -25.366 0.895 -25.366 0.428 63.542
26430.958 0.429 63.497 0.895 -25.413 0.895 -25.413 0.429 63.497
26455.917 0.43 63.452 0.895 -25.461 0.895 -25.461 0.43 63.452
26480.875 0.431 63.407 0.894 -25.508 0.894 -25.508 0.431 63.407
26505.833 0.431 63.362 0.894 -25.555 0.894 -25.555 0.431 63.362
26530.792 0.432 63.317 0.894 -25.602 0.894 -25.602 0.432 63.317
26555.75 0.433 63.272 0.893 -25.649 0.893 -25.649 0.433 63.272
26580.708 0.434 63.228 0.893 -25.696 0.893 -25.696 0.434 63.228
26605.667 0.434 63.183 0.893 -25.743 0.893 -25.743 0.434 63.183
26630.625 0.435 63.138 0.892 -25.79 0.892 -25.79 0.435 63.138
26655.583 0.436 63.094 0.892 -25.837 0.892 -25.837 0.436 63.094
26680.542 0.437 63.049 0.892 -25.883 0.892 -25.883 0.437 63.049
26705.5 0.437 63.005 0.891 -25.93 0.891 -25.93 0.437 63.005
26730.458 0.438 62.961 0.891 -25.977 0.891 -25.977 0.438 62.961
26755.417 0.439 62.916 0.89 -26.023 0.89 -26.023 0.439 62.916
26780.375 0.44 62.872 0.89 -26.07 0.89 -26.07 0.44 62.872
26805.333 0.44 62.828 0.89 -26.116 0.89 -26.116 0.44 62.828
26830.292 0.441 62.783 0.889 -26.162 0.889 -26.162 0.441 62.783
26855.25 0.442 62.739 0.889 -26.209 0.889 -26.209 0.442 62.739
26880.208 0.442 62.695 0.889 -26.255 0.889 -26.255 0.442 62.695
26905.167 0.443 62.651 0.888 -26.301 0.888 -26.301 0.443 62.651
26930.125 0.444 62.607 0.888 -26.347 0.888 -26.347 0.444 62.607
26955.083 0.445 62.563 0.888 -26.393 0.888 -26.393 0.445 62.563
26980.042 0.445 62.519 0.887 -26.439 0.887 -26.439 0.445 62.519
27005 0.446 62.475 0.887 -26.485 0.887 -26.485 0.446 62.475
27029.958 0.447 62.432 0.887 -26.531 0.887 -26.531 0.447 62.432
27054.917 0.447 62.388 0.886 -26.577 0.886 -26.577 0.447 62.388
27079.875 0.448 62.344 0.886 -26.623 0.886 -26.623 0.448 62.344
27104.833 0.449 62.3 0.886 -26.669 0.886 -26.669 0.449 62.3
27129.792 0.45 62.257 0.885 -26.714 0.885 -26.714 0.45 62.257
27154.75 0.45 62.213 0.885 -26.76 0.885 -26.76 0.45 62.213
27179.708 0.451 62.17 0.884 -26.805 0.884 -26.805 0.451 62.17
27204.667 0.452 62.126 0.884 -26.851 0.884 -26.851 0.452 62.126
27229.625 0.452 62.083 0.884 -26.896 0.884 -26.896 0.452 62.083
27254.583 0.453 62.04 0.883 -26.942 0.883 -26.942 0.453 62.04
27279.542 0.454 61.996 0.883 -26.987 0.883 -26.987 0.454 61.996
27304.5 0.455 61.953 0.883 -27.032 0.883 -27.032 0.455 61.953
27329.458 0.455 61.91 0.882 -27.077 0.882 -27.077 0.455 61.91
27354.417 0.456 61.867 0.882 -27.122 0.882 -27.122 0.456 61.867
27379.375 0.457 61.824 0.882 -27.167 0.882 -27.167 0.457 61.824
27404.333 0.457 61.781 0.881 -27.212 0.881 -27.212 0.457 61.781
27429.292 0.458 61.738 0.881 -27.257 0.881 -27.257 0.458 61.738
27454.25 0.459 61.695 0.881 -27.302 0.881 -27.302 0.459 61.695
27479.208 0.459 61.652 0.88 -27.347 0.88 -27.347 0.459 61.652
27504.167 0.46 61.609 0.88 -27.392 0.88 -27.392 0.46 61.609
27529.125 0.461 61.566 0.879 -27.437 0.879 -27.437 0.461 61.566
27554.083 0.462 61.523 0.879 -27.481 0.879 -27.481 0.462 61.523
27579.042 0.462 61.481 0.879 -27.526 0.879 -27.526 0.462 61.481
27604 0.463 61.438 0.878 -27.57 0.878 -27.57 0.463 61.438
27628.958 0.464 61.395 0.878 -27.615 0.878 -27.615 0.464 61.395
27653.917 0.464 61.353 0.878 -27.659 0.878 -27.659 0.464 61.353
27678.875 0.465 61.31 0.877 -27.704 0.877 -27.704 0.465 61.31
27703.833 0.466 61.268 0.877 -27.748 0.877 -27.748 0.466 61.268
27728.792 0.466 61.225 0.877 -27.792 0.877 -27.792 0.466 61.225
27753.75 0.467 61.183 0.876 -27.836 0.876 -27.836 0.467 61.183
27778.708 0.468 61.141 0.876 -27.881 0.876 -27.881 0.468 61.141
27803.667 0.468 61.098 0.876 -27.925 0.876 -27.925 0.468 61.098
27828.625 0.469 61.056 0.875 -27.969 0.875 -27.969 0.469 61.056
27853.583 0.47 61.014 0.875 -28.013 0.875 -28.013 0.47 61.014
27878.542 0.47 60.972 0.875 -28.057 0.875 -28.057 0.47 60.972
27903.5 0.471 60.93 0.874 -28.1 0.874 -28.1 0.471 60.93
27928.458 0.472 60.888 0.874 -28.144 0.874 -28.144 0.472 60.888
27953.417 0.472 60.846 0.873 -28.188 0.873 -28.188 0.472 60.846
27978.375 0.473 60.804 0.873 -28.232 0.873 -28.232 0.473 60.804
28003.333 0.474 60.762 0.873 -28.275 0.873 -28.275 0.474 60.762
28028.292 0.474 60.72 0.872 -28.319 0.872 -28.319 0.474 60.72
28053.25 0.475 60.678 0.872 -28.362 0.872 -28.362 0.475 60.678
28078.208 0.476 60.637 0.872 -28.406 0.872 -28.406 0.476 60.637
28103.167 0.476 60.595 0.871 -28.449 0.871 -28.449 0.476 60.595
28128.125 0.477 60.553 0.871 -28.493 0.871 -28.493 0.477 60.553
28153.083 0.478 60.512 0.871 -28.536 0.871 -28.536 0.478 60.512
28178.042 0.478 60.47 0.87 -28.579 0.87 -28.579 0.478 60.47
28203 0.479 60.429 0.87 -28.622 0.87 -28.622 0.479 60.429
28227.958 0.48 60.387 0.87 -28.666 0.87 -28.666 0.48 60.387
28252.917 0.48 60.346 0.869 -28.709 0.869 -28.709 0.48 60.346
28277.875 0.481 60.305 0.869 -28.752 0.869 -28.752 0.481 60.305
28302.833 0.482 60.263 0.868 -28.795 0.868 -28.795 0.482 60.263
28327.792 0.482 60.222 0.868 -28.838 0.868 -28.838 0.482 60.222
28352.75 0.483 60.181 0.868 -28.88 0.868 -28.88 0.483 60.181
28377.708 0.484 60.14 0.867 -28.923 0.867 -28.923 0.484 60.14
28402.667 0.484 60.099 0.867 -28.966 0.867 -28.966 0.484 60.099
28427.625 0.485 60.057 0.867 -29.009 0.867 -29.009 0.485 60.057
28452.583 0.486 60.016 0.866 -29.051 0.866 -29.051 0.486 60.016
28477.542 0.486 59.975 0.866 -29.094 0.866 -29.094 0.486 59.975
28502.5 0.487 59.935 0.866 -29.136 0.866 -29.136 0.487 59.935
28527.458 0.488 59.894 0.865 -29.179 0.865 -29.179 0.488 59.894
28552.417 0.488 59.853 0.865 -29.221 0.865 -29.221 0.488 59.853
28577.375 0.489 59.812 0.864 -29.264 0.864 -29.264 0.489 59.812
28602.333 0.49 59.771 0.864 -29.306 0.864 -29.306 0.49 59.771
28627.292 0.49 59.731 0.864 -29.348 0.864 -29.348 0.49 59.731
28652.25 0.491 59.69 0.863 -29.391 0.863 -29.391 0.491 59.69
28677.208 0.491 59.649 0.863 -29.433 0.863 -29.433 0.491 59.649
28702.167 0.492 59.609 0.863 -29.475 0.863 -29.475 0.492 59.609
28727.125 0.493 59.568 0.862 -29.517 0.862 -29.517 0.493 59.568
28752.083 0.493 59.528 0.862 -29.559 0.862 -29.559 0.493 59.528
28777.042 0.494 59.488 0.862 -29.601 0.862 -29.601 0.494 59.488
28802 0.495 59.447 0.861 -29.643 0.861 -29.643 0.495 59.447
28826.958 0.495 59.407 0.861 -29.685 0.861 -29.685 0.495 59.407
28851.917 0.496 59.367 0.861 -29.727 0.861 -29.727 0.496 59.367
28876.875 0.497 59.326 0.86 -29.768 0.86 -29.768 0.497 59.326
28901.833 0.497 59.286 0.86 -29.81 0.86 -29.81 0.497 59.286
28926.792 0.498 59.246 0.859 -29.852 0.859 -29.852 0.498 59.246
28951.75 0.498 59.206 0.859 -29.893 0.859 -29.893 0.498 59.206
28976.708 0.499 59.166 0.859 -29.935 0.859 -29.935 0.499 59.166
29001.667 0.5 59.126 0.858 -29.976 0.858 -29.976 0.5 59.126
29026.625 0.5 59.086 0.858 -30.018 0.858 -30.018 0.5 59.086
29051.583 0.501 59.046 0.858 -30.059 0.858 -30.059 0.501 59.046
29076.542 0.502 59.006 0.857 -30.1 0.857 -30.1 0.502 59.006
29101.5 0.502 58.967 0.857 -30.142 0.857 -30.142 0.502 58.967
29126.458 0.503 58.927 0.857 -30.183 0.857 -30.183 0.503 58.927
29151.417 0.503 58.887 0.856 -30.224 0.856 -30.224 0.503 58.887
29176.375 0.504 58.847 0.856 -30.265 0.856 -30.265 0.504 58.847
29201.333 0.505 58.808 0.856 -30.306 0.856 -30.306 0.505 58.808
29226.292 0.505 58.768 0.855 -30.347 0.855 -30.347 0.505 58.768
29251.25 0.506 58.729 0.855 -30.388 0.855 -30.388 0.506 58.729
29276.208 0.507 58.689 0.854 -30.429 0.854 -30.429 0.507 58.689
29301.167 0.507 58.65 0.854 -30.47 0.854 -30.47 0.507 58.65
29326.125 0.508 58.61 0.854 -30.511 0.854 -30.511 0.508 58.61
29351.083 0.508 58.571 0.853 -30.552 0.853 -30.552 0.508 58.571
29376.042 0.509 58.532 0.853 -30.592 0.853 -30.592 0.509 58.532
29401 0.51 58.493 0.853 -30.633 0.853 -30.633 0.51 58.493
29425.958 0.51 58.453 0.852 -30.674 0.852 -30.674 0.51 58.453
29450.917 0.511 58.414 0.852 -30.714 0.852 -30.714 0.511 58.414
29475.875 0.511 58.375 0.852 -30.755 0.852 -30.755 0.511 58.375
29500.833 0.512 58.336 0.851 -30.795 0.851 -30.795 0.512 58.336
29525.792 0.513 58.297 0.851 -30.836 0.851 -30.836 0.513 58.297
29550.75 0.513 58.258 0.851 -30.876 0.851 -30.876 0.513 58.258
29575.708 0.514 58.219 0.85 -30.916 0.85 -30.916 0.514 58.219
29600.667 0.514 58.18 0.85 -30.957 0.85 -30.957 0.514 58.18
29625.625 0.515 58.141 0.849 -30.997 0.849 -30.997 0.515 58.141
29650.583 0.516 58.103 0.849 -31.037 0.849 -31.037 0.516 58.103
29675.542 0.516 58.064 0.849 -31.077 0.849 -31.077 0.516 58.064
29700.5 0.517 58.025 0.848 -31.117 0.848 -31.117 0.517 58.025
29725.458 0.517 57.986 0.848 -31.157 0.848 -31.157 0.517 57.986
29750.417 0.518 57.948 0.848 -31.197 0.848 -31.197 0.518 57.948
29775.375 0.519 57.909 0.847 -31.237 0.847 -31.237 0.519 57.909
29800.333 0.519 57.871 0.847 -31.277 0.847 -31.277 0.519 57.871
29825.292 0.52 57.832 0.847 -31.317 0.847 -31.317 0.52 57.832
29850.25 0.52 57.794 0.846 -31.356 0.846 -31.356 0.52 57.794
29875.208 0.521 57.755 0.846 -31.396 0.846 -31.396 0.521 57.755
29900.167 0.522 57.717 0.846 -31.436 0.846 -31.436 0.522 57.717
29925.125 0.522 57.679 0.845 -31.475 0.845 -31.475 0.522 57.679
29950.083 0.523 57.64 0.845 -31.515 0.845 -31.515 0.523 57.64
29975.042 0.523 57.602 0.844 -31.555 0.844 -31.555 0.523 57.602
30000 0.524 57.564 0.844 -31.594 0.844 -31.594 0.524 57.564
