!	AVX Thin Film Operation 	Date: April 2014		
!	Description: Accu-P® Series, Thin Film  SMD RF Capacitor
!	Part Number: 04021J0R6PBSTR					
!
# MHZ S MA R 50

50 1 -1.08 0.019 88.916 0.019 88.916 1 -1.08
74.958 1 -1.619 0.028 88.376 0.028 88.376 1 -1.619
99.917 0.999 -2.157 0.038 87.835 0.038 87.835 0.999 -2.157
124.875 0.999 -2.696 0.047 87.295 0.047 87.295 0.999 -2.696
149.833 0.998 -3.234 0.056 86.755 0.056 86.755 0.998 -3.234
174.792 0.998 -3.771 0.066 86.216 0.066 86.216 0.998 -3.771
199.75 0.997 -4.308 0.075 85.677 0.075 85.677 0.997 -4.308
224.708 0.996 -4.844 0.084 85.139 0.084 85.139 0.996 -4.844
249.667 0.996 -5.38 0.094 84.602 0.094 84.602 0.996 -5.38
274.625 0.995 -5.915 0.103 84.065 0.103 84.065 0.995 -5.915
299.583 0.994 -6.449 0.112 83.529 0.112 83.529 0.994 -6.449
324.542 0.993 -6.982 0.122 82.994 0.122 82.994 0.993 -6.982
349.5 0.991 -7.514 0.131 82.46 0.131 82.46 0.991 -7.514
374.458 0.99 -8.045 0.14 81.927 0.14 81.927 0.99 -8.045
399.417 0.989 -8.575 0.149 81.395 0.149 81.395 0.989 -8.575
424.375 0.987 -9.104 0.158 80.865 0.158 80.865 0.987 -9.104
449.333 0.986 -9.631 0.167 80.336 0.167 80.336 0.986 -9.631
474.292 0.984 -10.157 0.176 79.808 0.176 79.808 0.984 -10.157
499.25 0.983 -10.682 0.185 79.281 0.185 79.281 0.983 -10.682
524.208 0.981 -11.205 0.194 78.756 0.194 78.756 0.981 -11.205
549.167 0.979 -11.727 0.203 78.232 0.203 78.232 0.979 -11.727
574.125 0.977 -12.247 0.212 77.71 0.212 77.71 0.977 -12.247
599.083 0.975 -12.765 0.221 77.19 0.221 77.19 0.975 -12.765
624.042 0.973 -13.282 0.23 76.671 0.23 76.671 0.973 -13.282
649 0.971 -13.797 0.238 76.154 0.238 76.154 0.971 -13.797
673.958 0.969 -14.31 0.247 75.639 0.247 75.639 0.969 -14.31
698.917 0.966 -14.822 0.256 75.126 0.256 75.126 0.966 -14.822
723.875 0.964 -15.331 0.264 74.615 0.264 74.615 0.964 -15.331
748.833 0.962 -15.838 0.273 74.106 0.273 74.106 0.962 -15.838
773.792 0.959 -16.344 0.281 73.599 0.281 73.599 0.959 -16.344
798.75 0.957 -16.847 0.29 73.094 0.29 73.094 0.957 -16.847
823.708 0.954 -17.348 0.298 72.591 0.298 72.591 0.954 -17.348
848.667 0.952 -17.847 0.306 72.09 0.306 72.09 0.952 -17.847
873.625 0.949 -18.344 0.315 71.591 0.315 71.591 0.949 -18.344
898.583 0.946 -18.838 0.323 71.095 0.323 71.095 0.946 -18.838
923.542 0.943 -19.33 0.331 70.601 0.331 70.601 0.943 -19.33
948.5 0.94 -19.82 0.339 70.109 0.339 70.109 0.94 -19.82
973.458 0.937 -20.307 0.347 69.62 0.347 69.62 0.937 -20.307
998.417 0.934 -20.792 0.355 69.133 0.355 69.133 0.934 -20.792
1023.375 0.931 -21.274 0.363 68.649 0.363 68.649 0.931 -21.274
1048.333 0.928 -21.754 0.371 68.167 0.371 68.167 0.928 -21.754
1073.292 0.925 -22.232 0.378 67.688 0.378 67.688 0.925 -22.232
1098.25 0.922 -22.707 0.386 67.211 0.386 67.211 0.922 -22.707
1123.208 0.919 -23.179 0.394 66.737 0.394 66.737 0.919 -23.179
1148.167 0.915 -23.648 0.401 66.265 0.401 66.265 0.915 -23.648
1173.125 0.912 -24.115 0.409 65.797 0.409 65.797 0.912 -24.115
1198.083 0.909 -24.58 0.416 65.33 0.416 65.33 0.909 -24.58
1223.042 0.905 -25.041 0.423 64.867 0.423 64.867 0.905 -25.041
1248 0.902 -25.5 0.431 64.406 0.431 64.406 0.902 -25.5
1272.958 0.898 -25.956 0.438 63.948 0.438 63.948 0.898 -25.956
1297.917 0.895 -26.41 0.445 63.493 0.445 63.493 0.895 -26.41
1322.875 0.891 -26.86 0.452 63.04 0.452 63.04 0.891 -26.86
1347.833 0.888 -27.308 0.459 62.59 0.459 62.59 0.888 -27.308
1372.792 0.884 -27.753 0.466 62.143 0.466 62.143 0.884 -27.753
1397.75 0.88 -28.195 0.472 61.699 0.472 61.699 0.88 -28.195
1422.708 0.877 -28.635 0.479 61.258 0.479 61.258 0.877 -28.635
1447.667 0.873 -29.071 0.486 60.819 0.486 60.819 0.873 -29.071
1472.625 0.869 -29.505 0.493 60.383 0.493 60.383 0.869 -29.505
1497.583 0.866 -29.936 0.499 59.951 0.499 59.951 0.866 -29.936
1522.542 0.862 -30.364 0.505 59.521 0.505 59.521 0.862 -30.364
1547.5 0.858 -30.789 0.512 59.094 0.512 59.094 0.858 -30.789
1572.458 0.854 -31.211 0.518 58.669 0.518 58.669 0.854 -31.211
1597.417 0.85 -31.631 0.524 58.248 0.524 58.248 0.85 -31.631
1622.375 0.846 -32.047 0.531 57.83 0.531 57.83 0.846 -32.047
1647.333 0.843 -32.461 0.537 57.414 0.537 57.414 0.843 -32.461
1672.292 0.839 -32.872 0.543 57.001 0.543 57.001 0.839 -32.872
1697.25 0.835 -33.279 0.549 56.591 0.549 56.591 0.835 -33.279
1722.208 0.831 -33.684 0.555 56.184 0.555 56.184 0.831 -33.684
1747.167 0.827 -34.087 0.56 55.78 0.56 55.78 0.827 -34.087
1772.125 0.823 -34.486 0.566 55.379 0.566 55.379 0.823 -34.486
1797.083 0.819 -34.882 0.572 54.981 0.572 54.981 0.819 -34.882
1822.042 0.815 -35.276 0.578 54.585 0.578 54.585 0.815 -35.276
1847 0.811 -35.666 0.583 54.192 0.583 54.192 0.811 -35.666
1871.958 0.807 -36.054 0.589 53.802 0.589 53.802 0.807 -36.054
1896.917 0.803 -36.439 0.594 53.415 0.594 53.415 0.803 -36.439
1921.875 0.799 -36.821 0.599 53.031 0.599 53.031 0.799 -36.821
1946.833 0.795 -37.201 0.605 52.65 0.605 52.65 0.795 -37.201
1971.792 0.791 -37.577 0.61 52.271 0.61 52.271 0.791 -37.577
1996.75 0.787 -37.951 0.615 51.896 0.615 51.896 0.787 -37.951
2021.708 0.783 -38.322 0.62 51.523 0.62 51.523 0.783 -38.322
2046.667 0.779 -38.69 0.625 51.152 0.625 51.152 0.779 -38.69
2071.625 0.775 -39.055 0.63 50.785 0.63 50.785 0.775 -39.055
2096.583 0.771 -39.418 0.635 50.42 0.635 50.42 0.771 -39.418
2121.542 0.767 -39.778 0.64 50.058 0.64 50.058 0.767 -39.778
2146.5 0.763 -40.135 0.645 49.699 0.645 49.699 0.763 -40.135
2171.458 0.759 -40.489 0.649 49.343 0.649 49.343 0.759 -40.489
2196.417 0.755 -40.841 0.654 48.989 0.654 48.989 0.755 -40.841
2221.375 0.751 -41.19 0.659 48.638 0.659 48.638 0.751 -41.19
2246.333 0.747 -41.536 0.663 48.289 0.663 48.289 0.747 -41.536
2271.292 0.742 -41.88 0.668 47.944 0.668 47.944 0.742 -41.88
2296.25 0.738 -42.221 0.672 47.6 0.672 47.6 0.738 -42.221
2321.208 0.734 -42.559 0.676 47.26 0.676 47.26 0.734 -42.559
2346.167 0.73 -42.895 0.681 46.922 0.681 46.922 0.73 -42.895
2371.125 0.726 -43.228 0.685 46.587 0.685 46.587 0.726 -43.228
2396.083 0.722 -43.559 0.689 46.254 0.689 46.254 0.722 -43.559
2421.042 0.718 -43.887 0.693 45.923 0.693 45.923 0.718 -43.887
2446 0.714 -44.212 0.697 45.596 0.697 45.596 0.714 -44.212
2470.958 0.71 -44.535 0.701 45.271 0.701 45.271 0.71 -44.535
2495.917 0.706 -44.856 0.705 44.948 0.705 44.948 0.706 -44.856
2520.875 0.703 -45.174 0.709 44.628 0.709 44.628 0.703 -45.174
2545.833 0.699 -45.489 0.713 44.31 0.713 44.31 0.699 -45.489
2570.792 0.695 -45.802 0.717 43.995 0.717 43.995 0.695 -45.802
2595.75 0.691 -46.113 0.721 43.682 0.721 43.682 0.691 -46.113
2620.708 0.687 -46.421 0.724 43.371 0.724 43.371 0.687 -46.421
2645.667 0.683 -46.727 0.728 43.063 0.728 43.063 0.683 -46.727
2670.625 0.679 -47.031 0.732 42.757 0.732 42.757 0.679 -47.031
2695.583 0.675 -47.332 0.735 42.454 0.735 42.454 0.675 -47.332
2720.542 0.671 -47.631 0.739 42.153 0.739 42.153 0.671 -47.631
2745.5 0.667 -47.927 0.742 41.854 0.742 41.854 0.667 -47.927
2770.458 0.663 -48.221 0.746 41.558 0.746 41.558 0.663 -48.221
2795.417 0.66 -48.513 0.749 41.264 0.749 41.264 0.66 -48.513
2820.375 0.656 -48.803 0.752 40.972 0.752 40.972 0.656 -48.803
2845.333 0.652 -49.09 0.756 40.682 0.756 40.682 0.652 -49.09
2870.292 0.648 -49.375 0.759 40.394 0.759 40.394 0.648 -49.375
2895.25 0.644 -49.658 0.762 40.109 0.762 40.109 0.644 -49.658
2920.208 0.64 -49.939 0.765 39.826 0.765 39.826 0.64 -49.939
2945.167 0.637 -50.218 0.768 39.545 0.768 39.545 0.637 -50.218
2970.125 0.633 -50.494 0.772 39.266 0.772 39.266 0.633 -50.494
2995.083 0.629 -50.769 0.775 38.989 0.775 38.989 0.629 -50.769
3020.042 0.625 -51.041 0.778 38.715 0.778 38.715 0.625 -51.041
3045 0.622 -51.311 0.781 38.442 0.781 38.442 0.622 -51.311
3069.958 0.618 -51.579 0.783 38.172 0.783 38.172 0.618 -51.579
3094.917 0.614 -51.845 0.786 37.903 0.786 37.903 0.614 -51.845
3119.875 0.611 -52.109 0.789 37.637 0.789 37.637 0.611 -52.109
3144.833 0.607 -52.371 0.792 37.372 0.792 37.372 0.607 -52.371
3169.792 0.603 -52.631 0.795 37.11 0.795 37.11 0.603 -52.631
3194.75 0.6 -52.889 0.797 36.849 0.797 36.849 0.6 -52.889
3219.708 0.596 -53.145 0.8 36.591 0.8 36.591 0.596 -53.145
3244.667 0.592 -53.4 0.803 36.334 0.803 36.334 0.592 -53.4
3269.625 0.589 -53.652 0.805 36.079 0.805 36.079 0.589 -53.652
3294.583 0.585 -53.902 0.808 35.826 0.808 35.826 0.585 -53.902
3319.542 0.582 -54.151 0.811 35.576 0.811 35.576 0.582 -54.151
3344.5 0.578 -54.397 0.813 35.326 0.813 35.326 0.578 -54.397
3369.458 0.575 -54.642 0.816 35.079 0.816 35.079 0.575 -54.642
3394.417 0.571 -54.885 0.818 34.834 0.818 34.834 0.571 -54.885
3419.375 0.568 -55.126 0.82 34.59 0.82 34.59 0.568 -55.126
3444.333 0.564 -55.365 0.823 34.348 0.823 34.348 0.564 -55.365
3469.292 0.561 -55.603 0.825 34.108 0.825 34.108 0.561 -55.603
3494.25 0.557 -55.839 0.827 33.87 0.827 33.87 0.557 -55.839
3519.208 0.554 -56.073 0.83 33.633 0.83 33.633 0.554 -56.073
3544.167 0.55 -56.305 0.832 33.398 0.832 33.398 0.55 -56.305
3569.125 0.547 -56.536 0.834 33.165 0.834 33.165 0.547 -56.536
3594.083 0.544 -56.764 0.836 32.933 0.836 32.933 0.544 -56.764
3619.042 0.54 -56.992 0.839 32.703 0.839 32.703 0.54 -56.992
3644 0.537 -57.217 0.841 32.475 0.841 32.475 0.537 -57.217
3668.958 0.534 -57.441 0.843 32.248 0.843 32.248 0.534 -57.441
3693.917 0.53 -57.664 0.845 32.023 0.845 32.023 0.53 -57.664
3718.875 0.527 -57.884 0.847 31.8 0.847 31.8 0.527 -57.884
3743.833 0.524 -58.103 0.849 31.578 0.849 31.578 0.524 -58.103
3768.792 0.52 -58.321 0.851 31.358 0.851 31.358 0.52 -58.321
3793.75 0.517 -58.537 0.853 31.139 0.853 31.139 0.517 -58.537
3818.708 0.514 -58.751 0.855 30.922 0.855 30.922 0.514 -58.751
3843.667 0.511 -58.964 0.857 30.706 0.857 30.706 0.511 -58.964
3868.625 0.507 -59.176 0.859 30.492 0.859 30.492 0.507 -59.176
3893.583 0.504 -59.386 0.861 30.279 0.861 30.279 0.504 -59.386
3918.542 0.501 -59.594 0.862 30.068 0.862 30.068 0.501 -59.594
3943.5 0.498 -59.801 0.864 29.858 0.864 29.858 0.498 -59.801
3968.458 0.495 -60.007 0.866 29.649 0.866 29.649 0.495 -60.007
3993.417 0.492 -60.211 0.868 29.442 0.868 29.442 0.492 -60.211
4018.375 0.488 -60.413 0.87 29.237 0.87 29.237 0.488 -60.413
4043.333 0.485 -60.614 0.871 29.033 0.871 29.033 0.485 -60.614
4068.292 0.482 -60.814 0.873 28.83 0.873 28.83 0.482 -60.814
4093.25 0.479 -61.013 0.875 28.628 0.875 28.628 0.479 -61.013
4118.208 0.476 -61.21 0.876 28.428 0.876 28.428 0.476 -61.21
4143.167 0.473 -61.405 0.878 28.23 0.878 28.23 0.473 -61.405
4168.125 0.47 -61.6 0.88 28.032 0.88 28.032 0.47 -61.6
4193.083 0.467 -61.793 0.881 27.836 0.881 27.836 0.467 -61.793
4218.042 0.464 -61.985 0.883 27.641 0.883 27.641 0.464 -61.985
4243 0.461 -62.175 0.884 27.448 0.884 27.448 0.461 -62.175
4267.958 0.458 -62.364 0.886 27.256 0.886 27.256 0.458 -62.364
4292.917 0.455 -62.552 0.887 27.065 0.887 27.065 0.455 -62.552
4317.875 0.452 -62.738 0.889 26.875 0.889 26.875 0.452 -62.738
4342.833 0.449 -62.924 0.89 26.686 0.89 26.686 0.449 -62.924
4367.792 0.446 -63.108 0.892 26.499 0.892 26.499 0.446 -63.108
4392.75 0.443 -63.291 0.893 26.313 0.893 26.313 0.443 -63.291
4417.708 0.44 -63.472 0.895 26.128 0.895 26.128 0.44 -63.472
4442.667 0.438 -63.653 0.896 25.945 0.896 25.945 0.438 -63.653
4467.625 0.435 -63.832 0.898 25.762 0.898 25.762 0.435 -63.832
4492.583 0.432 -64.01 0.899 25.581 0.899 25.581 0.432 -64.01
4517.542 0.429 -64.187 0.9 25.4 0.9 25.4 0.429 -64.187
4542.5 0.426 -64.363 0.902 25.221 0.902 25.221 0.426 -64.363
4567.458 0.423 -64.537 0.903 25.043 0.903 25.043 0.423 -64.537
4592.417 0.421 -64.711 0.904 24.867 0.904 24.867 0.421 -64.711
4617.375 0.418 -64.883 0.905 24.691 0.905 24.691 0.418 -64.883
4642.333 0.415 -65.054 0.907 24.516 0.907 24.516 0.415 -65.054
4667.292 0.412 -65.224 0.908 24.343 0.908 24.343 0.412 -65.224
4692.25 0.409 -65.393 0.909 24.17 0.909 24.17 0.409 -65.393
4717.208 0.407 -65.561 0.91 23.999 0.91 23.999 0.407 -65.561
4742.167 0.404 -65.728 0.912 23.828 0.912 23.828 0.404 -65.728
4767.125 0.401 -65.894 0.913 23.659 0.913 23.659 0.401 -65.894
4792.083 0.399 -66.059 0.914 23.491 0.914 23.491 0.399 -66.059
4817.042 0.396 -66.222 0.915 23.323 0.915 23.323 0.396 -66.222
4842 0.393 -66.385 0.916 23.157 0.916 23.157 0.393 -66.385
4866.958 0.391 -66.547 0.917 22.992 0.917 22.992 0.391 -66.547
4891.917 0.388 -66.707 0.919 22.827 0.919 22.827 0.388 -66.707
4916.875 0.385 -66.867 0.92 22.664 0.92 22.664 0.385 -66.867
4941.833 0.383 -67.026 0.921 22.501 0.921 22.501 0.383 -67.026
4966.792 0.38 -67.183 0.922 22.34 0.922 22.34 0.38 -67.183
4991.75 0.378 -67.34 0.923 22.179 0.923 22.179 0.378 -67.34
5016.708 0.375 -67.496 0.924 22.02 0.924 22.02 0.375 -67.496
5041.667 0.372 -67.65 0.925 21.861 0.925 21.861 0.372 -67.65
5066.625 0.37 -67.804 0.926 21.704 0.926 21.704 0.37 -67.804
5091.583 0.367 -67.957 0.927 21.547 0.927 21.547 0.367 -67.957
5116.542 0.365 -68.109 0.928 21.391 0.928 21.391 0.365 -68.109
5141.5 0.362 -68.26 0.929 21.236 0.929 21.236 0.362 -68.26
5166.458 0.36 -68.41 0.93 21.082 0.93 21.082 0.36 -68.41
5191.417 0.357 -68.559 0.931 20.928 0.931 20.928 0.357 -68.559
5216.375 0.355 -68.708 0.932 20.776 0.932 20.776 0.355 -68.708
5241.333 0.352 -68.855 0.933 20.624 0.933 20.624 0.352 -68.855
5266.292 0.35 -69.002 0.934 20.474 0.934 20.474 0.35 -69.002
5291.25 0.347 -69.147 0.935 20.324 0.935 20.324 0.347 -69.147
5316.208 0.345 -69.292 0.935 20.175 0.935 20.175 0.345 -69.292
5341.167 0.342 -69.436 0.936 20.027 0.936 20.027 0.342 -69.436
5366.125 0.34 -69.579 0.937 19.879 0.937 19.879 0.34 -69.579
5391.083 0.338 -69.721 0.938 19.733 0.938 19.733 0.338 -69.721
5416.042 0.335 -69.863 0.939 19.587 0.939 19.587 0.335 -69.863
5441 0.333 -70.003 0.94 19.442 0.94 19.442 0.333 -70.003
5465.958 0.33 -70.143 0.941 19.298 0.941 19.298 0.33 -70.143
5490.917 0.328 -70.282 0.941 19.154 0.941 19.154 0.328 -70.282
5515.875 0.326 -70.42 0.942 19.012 0.942 19.012 0.326 -70.42
5540.833 0.323 -70.557 0.943 18.87 0.943 18.87 0.323 -70.557
5565.792 0.321 -70.694 0.944 18.729 0.944 18.729 0.321 -70.694
5590.75 0.319 -70.829 0.945 18.588 0.945 18.588 0.319 -70.829
5615.708 0.316 -70.964 0.945 18.449 0.945 18.449 0.316 -70.964
5640.667 0.314 -71.098 0.946 18.31 0.946 18.31 0.314 -71.098
5665.625 0.312 -71.232 0.947 18.171 0.947 18.171 0.312 -71.232
5690.583 0.31 -71.364 0.948 18.034 0.948 18.034 0.31 -71.364
5715.542 0.307 -71.496 0.948 17.897 0.948 17.897 0.307 -71.496
5740.5 0.305 -71.627 0.949 17.761 0.949 17.761 0.305 -71.627
5765.458 0.303 -71.758 0.95 17.626 0.95 17.626 0.303 -71.758
5790.417 0.301 -71.887 0.951 17.491 0.951 17.491 0.301 -71.887
5815.375 0.298 -72.016 0.951 17.357 0.951 17.357 0.298 -72.016
5840.333 0.296 -72.144 0.952 17.224 0.952 17.224 0.296 -72.144
5865.292 0.294 -72.272 0.953 17.091 0.953 17.091 0.294 -72.272
5890.25 0.292 -72.399 0.953 16.959 0.953 16.959 0.292 -72.399
5915.208 0.29 -72.525 0.954 16.828 0.954 16.828 0.29 -72.525
5940.167 0.287 -72.65 0.955 16.697 0.955 16.697 0.287 -72.65
5965.125 0.285 -72.774 0.955 16.567 0.955 16.567 0.285 -72.774
5990.083 0.283 -72.898 0.956 16.438 0.956 16.438 0.283 -72.898
6015.042 0.281 -73.021 0.956 16.309 0.956 16.309 0.281 -73.021
6040 0.279 -73.144 0.957 16.181 0.957 16.181 0.279 -73.144
6064.958 0.277 -73.266 0.958 16.054 0.958 16.054 0.277 -73.266
6089.917 0.274 -73.387 0.958 15.927 0.958 15.927 0.274 -73.387
6114.875 0.272 -73.507 0.959 15.8 0.959 15.8 0.272 -73.507
6139.833 0.27 -73.627 0.96 15.675 0.96 15.675 0.27 -73.627
6164.792 0.268 -73.746 0.96 15.55 0.96 15.55 0.268 -73.746
6189.75 0.266 -73.865 0.961 15.425 0.961 15.425 0.266 -73.865
6214.708 0.264 -73.983 0.961 15.301 0.961 15.301 0.264 -73.983
6239.667 0.262 -74.1 0.962 15.178 0.962 15.178 0.262 -74.1
6264.625 0.26 -74.216 0.962 15.056 0.962 15.056 0.26 -74.216
6289.583 0.258 -74.332 0.963 14.933 0.963 14.933 0.258 -74.332
6314.542 0.256 -74.447 0.963 14.812 0.963 14.812 0.256 -74.447
6339.5 0.254 -74.562 0.964 14.691 0.964 14.691 0.254 -74.562
6364.458 0.252 -74.676 0.965 14.571 0.965 14.571 0.252 -74.676
6389.417 0.25 -74.789 0.965 14.451 0.965 14.451 0.25 -74.789
6414.375 0.248 -74.902 0.966 14.331 0.966 14.331 0.248 -74.902
6439.333 0.246 -75.014 0.966 14.213 0.966 14.213 0.246 -75.014
6464.292 0.244 -75.125 0.967 14.094 0.967 14.094 0.244 -75.125
6489.25 0.242 -75.236 0.967 13.977 0.967 13.977 0.242 -75.236
6514.208 0.24 -75.347 0.968 13.86 0.968 13.86 0.24 -75.347
6539.167 0.238 -75.456 0.968 13.743 0.968 13.743 0.238 -75.456
6564.125 0.236 -75.565 0.969 13.627 0.969 13.627 0.236 -75.565
6589.083 0.234 -75.674 0.969 13.511 0.969 13.511 0.234 -75.674
6614.042 0.232 -75.781 0.969 13.396 0.969 13.396 0.232 -75.781
6639 0.23 -75.889 0.97 13.282 0.97 13.282 0.23 -75.889
6663.958 0.228 -75.995 0.97 13.168 0.97 13.168 0.228 -75.995
6688.917 0.226 -76.101 0.971 13.054 0.971 13.054 0.226 -76.101
6713.875 0.224 -76.207 0.971 12.941 0.971 12.941 0.224 -76.207
6738.833 0.222 -76.312 0.972 12.828 0.972 12.828 0.222 -76.312
6763.792 0.22 -76.416 0.972 12.716 0.972 12.716 0.22 -76.416
6788.75 0.218 -76.519 0.973 12.605 0.973 12.605 0.218 -76.519
6813.708 0.216 -76.623 0.973 12.493 0.973 12.493 0.216 -76.623
6838.667 0.214 -76.725 0.973 12.383 0.973 12.383 0.214 -76.725
6863.625 0.213 -76.827 0.974 12.273 0.974 12.273 0.213 -76.827
6888.583 0.211 -76.928 0.974 12.163 0.974 12.163 0.211 -76.928
6913.542 0.209 -77.029 0.975 12.054 0.975 12.054 0.209 -77.029
6938.5 0.207 -77.129 0.975 11.945 0.975 11.945 0.207 -77.129
6963.458 0.205 -77.229 0.975 11.836 0.975 11.836 0.205 -77.229
6988.417 0.203 -77.328 0.976 11.729 0.976 11.729 0.203 -77.328
7013.375 0.201 -77.427 0.976 11.621 0.976 11.621 0.201 -77.427
7038.333 0.2 -77.524 0.977 11.514 0.977 11.514 0.2 -77.524
7063.292 0.198 -77.622 0.977 11.407 0.977 11.407 0.198 -77.622
7088.25 0.196 -77.719 0.977 11.301 0.977 11.301 0.196 -77.719
7113.208 0.194 -77.815 0.978 11.196 0.978 11.196 0.194 -77.815
7138.167 0.192 -77.91 0.978 11.09 0.978 11.09 0.192 -77.91
7163.125 0.191 -78.006 0.978 10.985 0.978 10.985 0.191 -78.006
7188.083 0.189 -78.1 0.979 10.881 0.979 10.881 0.189 -78.1
7213.042 0.187 -78.194 0.979 10.777 0.979 10.777 0.187 -78.194
7238 0.185 -78.287 0.979 10.673 0.979 10.673 0.185 -78.287
7262.958 0.183 -78.38 0.98 10.57 0.98 10.57 0.183 -78.38
7287.917 0.182 -78.472 0.98 10.467 0.98 10.467 0.182 -78.472
7312.875 0.18 -78.564 0.98 10.365 0.98 10.365 0.18 -78.564
7337.833 0.178 -78.655 0.981 10.263 0.981 10.263 0.178 -78.655
7362.792 0.176 -78.746 0.981 10.161 0.981 10.161 0.176 -78.746
7387.75 0.175 -78.836 0.981 10.06 0.981 10.06 0.175 -78.836
7412.708 0.173 -78.925 0.982 9.959 0.982 9.959 0.173 -78.925
7437.667 0.171 -79.014 0.982 9.859 0.982 9.859 0.171 -79.014
7462.625 0.17 -79.102 0.982 9.759 0.982 9.759 0.17 -79.102
7487.583 0.168 -79.19 0.982 9.659 0.982 9.659 0.168 -79.19
7512.542 0.166 -79.277 0.983 9.56 0.983 9.56 0.166 -79.277
7537.5 0.164 -79.364 0.983 9.461 0.983 9.461 0.164 -79.364
7562.458 0.163 -79.45 0.983 9.363 0.983 9.363 0.163 -79.45
7587.417 0.161 -79.535 0.984 9.264 0.984 9.264 0.161 -79.535
7612.375 0.159 -79.62 0.984 9.167 0.984 9.167 0.159 -79.62
7637.333 0.158 -79.704 0.984 9.069 0.984 9.069 0.158 -79.704
7662.292 0.156 -79.787 0.984 8.972 0.984 8.972 0.156 -79.787
7687.25 0.154 -79.87 0.985 8.875 0.985 8.875 0.154 -79.87
7712.208 0.153 -79.953 0.985 8.779 0.985 8.779 0.153 -79.953
7737.167 0.151 -80.035 0.985 8.683 0.985 8.683 0.151 -80.035
7762.125 0.149 -80.116 0.985 8.587 0.985 8.587 0.149 -80.116
7787.083 0.148 -80.196 0.986 8.492 0.986 8.492 0.148 -80.196
7812.042 0.146 -80.276 0.986 8.397 0.986 8.397 0.146 -80.276
7837 0.144 -80.355 0.986 8.302 0.986 8.302 0.144 -80.355
7861.958 0.143 -80.434 0.986 8.208 0.986 8.208 0.143 -80.434
7886.917 0.141 -80.512 0.987 8.114 0.987 8.114 0.141 -80.512
7911.875 0.14 -80.59 0.987 8.021 0.987 8.021 0.14 -80.59
7936.833 0.138 -80.666 0.987 7.927 0.987 7.927 0.138 -80.666
7961.792 0.136 -80.742 0.987 7.834 0.987 7.834 0.136 -80.742
7986.75 0.135 -80.818 0.987 7.742 0.987 7.742 0.135 -80.818
8011.708 0.133 -80.892 0.988 7.649 0.988 7.649 0.133 -80.892
8036.667 0.132 -80.967 0.988 7.557 0.988 7.557 0.132 -80.967
8061.625 0.13 -81.04 0.988 7.466 0.988 7.466 0.13 -81.04
8086.583 0.128 -81.113 0.988 7.374 0.988 7.374 0.128 -81.113
8111.542 0.127 -81.184 0.989 7.283 0.989 7.283 0.127 -81.184
8136.5 0.125 -81.256 0.989 7.193 0.989 7.193 0.125 -81.256
8161.458 0.124 -81.326 0.989 7.102 0.989 7.102 0.124 -81.326
8186.417 0.122 -81.396 0.989 7.012 0.989 7.012 0.122 -81.396
8211.375 0.121 -81.465 0.989 6.922 0.989 6.922 0.121 -81.465
8236.333 0.119 -81.533 0.99 6.833 0.99 6.833 0.119 -81.533
8261.292 0.117 -81.6 0.99 6.743 0.99 6.743 0.117 -81.6
8286.25 0.116 -81.667 0.99 6.655 0.99 6.655 0.116 -81.667
8311.208 0.114 -81.733 0.99 6.566 0.99 6.566 0.114 -81.733
8336.167 0.113 -81.798 0.99 6.478 0.99 6.478 0.113 -81.798
8361.125 0.111 -81.862 0.99 6.39 0.99 6.39 0.111 -81.862
8386.083 0.11 -81.925 0.991 6.302 0.991 6.302 0.11 -81.925
8411.042 0.108 -81.987 0.991 6.214 0.991 6.214 0.108 -81.987
8436 0.107 -82.049 0.991 6.127 0.991 6.127 0.107 -82.049
8460.958 0.105 -82.109 0.991 6.04 0.991 6.04 0.105 -82.109
8485.917 0.104 -82.169 0.991 5.954 0.991 5.954 0.104 -82.169
8510.875 0.102 -82.227 0.991 5.867 0.991 5.867 0.102 -82.227
8535.833 0.101 -82.285 0.992 5.781 0.992 5.781 0.101 -82.285
8560.792 0.099 -82.341 0.992 5.695 0.992 5.695 0.099 -82.341
8585.75 0.098 -82.397 0.992 5.61 0.992 5.61 0.098 -82.397
8610.708 0.096 -82.451 0.992 5.525 0.992 5.525 0.096 -82.451
8635.667 0.095 -82.504 0.992 5.44 0.992 5.44 0.095 -82.504
8660.625 0.093 -82.556 0.992 5.355 0.992 5.355 0.093 -82.556
8685.583 0.092 -82.607 0.992 5.271 0.992 5.271 0.092 -82.607
8710.542 0.09 -82.657 0.993 5.186 0.993 5.186 0.09 -82.657
8735.5 0.089 -82.705 0.993 5.102 0.993 5.102 0.089 -82.705
8760.458 0.088 -82.752 0.993 5.019 0.993 5.019 0.088 -82.752
8785.417 0.086 -82.797 0.993 4.935 0.993 4.935 0.086 -82.797
8810.375 0.085 -82.842 0.993 4.852 0.993 4.852 0.085 -82.842
8835.333 0.083 -82.884 0.993 4.769 0.993 4.769 0.083 -82.884
8860.292 0.082 -82.925 0.993 4.687 0.993 4.687 0.082 -82.925
8885.25 0.08 -82.965 0.993 4.604 0.993 4.604 0.08 -82.965
8910.208 0.079 -83.003 0.993 4.522 0.993 4.522 0.079 -83.003
8935.167 0.077 -83.039 0.994 4.44 0.994 4.44 0.077 -83.039
8960.125 0.076 -83.073 0.994 4.359 0.994 4.359 0.076 -83.073
8985.083 0.075 -83.106 0.994 4.277 0.994 4.277 0.075 -83.106
9010.042 0.073 -83.136 0.994 4.196 0.994 4.196 0.073 -83.136
9035 0.072 -83.164 0.994 4.115 0.994 4.115 0.072 -83.164
9059.958 0.07 -83.19 0.994 4.034 0.994 4.034 0.07 -83.19
9084.917 0.069 -83.214 0.994 3.954 0.994 3.954 0.069 -83.214
9109.875 0.068 -83.236 0.994 3.874 0.994 3.874 0.068 -83.236
9134.833 0.066 -83.255 0.994 3.794 0.994 3.794 0.066 -83.255
9159.792 0.065 -83.271 0.994 3.714 0.994 3.714 0.065 -83.271
9184.75 0.063 -83.285 0.995 3.634 0.995 3.634 0.063 -83.285
9209.708 0.062 -83.295 0.995 3.555 0.995 3.555 0.062 -83.295
9234.667 0.061 -83.303 0.995 3.476 0.995 3.476 0.061 -83.303
9259.625 0.059 -83.307 0.995 3.397 0.995 3.397 0.059 -83.307
9284.583 0.058 -83.307 0.995 3.319 0.995 3.319 0.058 -83.307
9309.542 0.057 -83.304 0.995 3.24 0.995 3.24 0.057 -83.304
9334.5 0.055 -83.297 0.995 3.162 0.995 3.162 0.055 -83.297
9359.458 0.054 -83.285 0.995 3.084 0.995 3.084 0.054 -83.285
9384.417 0.053 -83.269 0.995 3.006 0.995 3.006 0.053 -83.269
9409.375 0.051 -83.248 0.995 2.929 0.995 2.929 0.051 -83.248
9434.333 0.05 -83.222 0.995 2.851 0.995 2.851 0.05 -83.222
9459.292 0.049 -83.19 0.995 2.774 0.995 2.774 0.049 -83.19
9484.25 0.047 -83.152 0.995 2.698 0.995 2.698 0.047 -83.152
9509.208 0.046 -83.108 0.996 2.621 0.996 2.621 0.046 -83.108
9534.167 0.045 -83.056 0.996 2.544 0.996 2.544 0.045 -83.056
9559.125 0.043 -82.997 0.996 2.468 0.996 2.468 0.043 -82.997
9584.083 0.042 -82.929 0.996 2.392 0.996 2.392 0.042 -82.929
9609.042 0.041 -82.852 0.996 2.316 0.996 2.316 0.041 -82.852
9634 0.039 -82.766 0.996 2.241 0.996 2.241 0.039 -82.766
9658.958 0.038 -82.668 0.996 2.165 0.996 2.165 0.038 -82.668
9683.917 0.037 -82.558 0.996 2.09 0.996 2.09 0.037 -82.558
9708.875 0.035 -82.435 0.996 2.015 0.996 2.015 0.035 -82.435
9733.833 0.034 -82.297 0.996 1.94 0.996 1.94 0.034 -82.297
9758.792 0.033 -82.142 0.996 1.865 0.996 1.865 0.033 -82.142
9783.75 0.031 -81.969 0.996 1.791 0.996 1.791 0.031 -81.969
9808.708 0.03 -81.776 0.996 1.717 0.996 1.717 0.03 -81.776
9833.667 0.029 -81.559 0.996 1.643 0.996 1.643 0.029 -81.559
9858.625 0.028 -81.316 0.996 1.569 0.996 1.569 0.028 -81.316
9883.583 0.026 -81.043 0.996 1.495 0.996 1.495 0.026 -81.043
9908.542 0.025 -80.735 0.996 1.422 0.996 1.422 0.025 -80.735
9933.5 0.024 -80.388 0.996 1.348 0.996 1.348 0.024 -80.388
9958.458 0.023 -79.994 0.996 1.275 0.996 1.275 0.023 -79.994
9983.417 0.021 -79.546 0.996 1.202 0.996 1.202 0.021 -79.546
10008.375 0.02 -79.035 0.996 1.13 0.996 1.13 0.02 -79.035
10033.333 0.019 -78.447 0.996 1.057 0.996 1.057 0.019 -78.447
10058.292 0.018 -77.766 0.996 0.985 0.996 0.985 0.018 -77.766
10083.25 0.016 -76.974 0.996 0.913 0.996 0.913 0.016 -76.974
10108.208 0.015 -76.043 0.996 0.841 0.996 0.841 0.015 -76.043
10133.167 0.014 -74.938 0.996 0.769 0.996 0.769 0.014 -74.938
10158.125 0.013 -73.61 0.997 0.697 0.997 0.697 0.013 -73.61
10183.083 0.011 -71.992 0.997 0.626 0.997 0.626 0.011 -71.992
10208.042 0.01 -69.988 0.997 0.554 0.997 0.554 0.01 -69.988
10233 9.102e-3 -67.455 0.997 0.483 0.997 0.483 9.102e-3 -67.455
10257.958 7.968e-3 -64.181 0.997 0.412 0.997 0.412 7.968e-3 -64.181
10282.917 6.873e-3 -59.83 0.997 0.342 0.997 0.342 6.873e-3 -59.83
10307.875 5.837e-3 -53.874 0.997 0.271 0.997 0.271 5.837e-3 -53.874
10332.833 4.894e-3 -45.487 0.997 0.201 0.997 0.201 4.894e-3 -45.487
10357.792 4.107e-3 -33.521 0.997 0.13 0.997 0.13 4.107e-3 -33.521
10382.75 3.577e-3 -17.056 0.997 0.06 0.997 0.06 3.577e-3 -17.056
10407.708 3.423e-3 2.791 0.997 -9.581e-3 0.997 -9.581e-3 3.423e-3 2.791
10432.667 3.688e-3 21.965 0.997 -0.079 0.997 -0.079 3.688e-3 21.965
10457.625 4.294e-3 37.089 0.997 -0.149 0.997 -0.149 4.294e-3 37.089
10482.583 5.119e-3 47.879 0.997 -0.218 0.997 -0.218 5.119e-3 47.879
10507.542 6.072e-3 55.448 0.997 -0.288 0.997 -0.288 6.072e-3 55.448
10532.5 7.101e-3 60.864 0.997 -0.357 0.997 -0.357 7.101e-3 60.864
10557.458 8.176e-3 64.857 0.997 -0.426 0.997 -0.426 8.176e-3 64.857
10582.417 9.279e-3 67.888 0.997 -0.494 0.997 -0.494 9.279e-3 67.888
10607.375 0.01 70.25 0.997 -0.563 0.997 -0.563 0.01 70.25
10632.333 0.012 72.131 0.997 -0.631 0.997 -0.631 0.012 72.131
10657.292 0.013 73.659 0.997 -0.7 0.997 -0.7 0.013 73.659
10682.25 0.014 74.919 0.996 -0.768 0.996 -0.768 0.014 74.919
10707.208 0.015 75.973 0.996 -0.836 0.996 -0.836 0.015 75.973
10732.167 0.016 76.864 0.996 -0.903 0.996 -0.903 0.016 76.864
10757.125 0.017 77.626 0.996 -0.971 0.996 -0.971 0.017 77.626
10782.083 0.018 78.282 0.996 -1.039 0.996 -1.039 0.018 78.282
10807.042 0.02 78.851 0.996 -1.106 0.996 -1.106 0.02 78.851
10832 0.021 79.349 0.996 -1.173 0.996 -1.173 0.021 79.349
10856.958 0.022 79.786 0.996 -1.24 0.996 -1.24 0.022 79.786
10881.917 0.023 80.171 0.996 -1.307 0.996 -1.307 0.023 80.171
10906.875 0.024 80.513 0.996 -1.374 0.996 -1.374 0.024 80.513
10931.833 0.025 80.817 0.996 -1.44 0.996 -1.44 0.025 80.817
10956.792 0.027 81.088 0.996 -1.507 0.996 -1.507 0.027 81.088
10981.75 0.028 81.331 0.996 -1.573 0.996 -1.573 0.028 81.331
11006.708 0.029 81.548 0.996 -1.639 0.996 -1.639 0.029 81.548
11031.667 0.03 81.744 0.996 -1.705 0.996 -1.705 0.03 81.744
11056.625 0.031 81.92 0.996 -1.771 0.996 -1.771 0.031 81.92
11081.583 0.032 82.078 0.996 -1.837 0.996 -1.837 0.032 82.078
11106.542 0.033 82.221 0.996 -1.902 0.996 -1.902 0.033 82.221
11131.5 0.035 82.35 0.996 -1.968 0.996 -1.968 0.035 82.35
11156.458 0.036 82.466 0.996 -2.033 0.996 -2.033 0.036 82.466
11181.417 0.037 82.571 0.996 -2.098 0.996 -2.098 0.037 82.571
11206.375 0.038 82.665 0.996 -2.163 0.996 -2.163 0.038 82.665
11231.333 0.039 82.75 0.996 -2.228 0.996 -2.228 0.039 82.75
11256.292 0.04 82.827 0.996 -2.293 0.996 -2.293 0.04 82.827
11281.25 0.041 82.895 0.996 -2.357 0.996 -2.357 0.041 82.895
11306.208 0.042 82.957 0.996 -2.422 0.996 -2.422 0.042 82.957
11331.167 0.044 83.012 0.996 -2.486 0.996 -2.486 0.044 83.012
11356.125 0.045 83.06 0.996 -2.55 0.996 -2.55 0.045 83.06
11381.083 0.046 83.104 0.996 -2.614 0.996 -2.614 0.046 83.104
11406.042 0.047 83.142 0.995 -2.678 0.995 -2.678 0.047 83.142
11431 0.048 83.175 0.995 -2.742 0.995 -2.742 0.048 83.175
11455.958 0.049 83.204 0.995 -2.806 0.995 -2.806 0.049 83.204
11480.917 0.05 83.228 0.995 -2.869 0.995 -2.869 0.05 83.228
11505.875 0.051 83.249 0.995 -2.933 0.995 -2.933 0.051 83.249
11530.833 0.052 83.267 0.995 -2.996 0.995 -2.996 0.052 83.267
11555.792 0.053 83.281 0.995 -3.059 0.995 -3.059 0.053 83.281
11580.75 0.055 83.291 0.995 -3.122 0.995 -3.122 0.055 83.291
11605.708 0.056 83.299 0.995 -3.185 0.995 -3.185 0.056 83.299
11630.667 0.057 83.304 0.995 -3.247 0.995 -3.247 0.057 83.304
11655.625 0.058 83.307 0.995 -3.31 0.995 -3.31 0.058 83.307
11680.583 0.059 83.307 0.995 -3.373 0.995 -3.373 0.059 83.307
11705.542 0.06 83.305 0.995 -3.435 0.995 -3.435 0.06 83.305
11730.5 0.061 83.301 0.995 -3.497 0.995 -3.497 0.061 83.301
11755.458 0.062 83.295 0.995 -3.559 0.995 -3.559 0.062 83.295
11780.417 0.063 83.287 0.995 -3.621 0.995 -3.621 0.063 83.287
11805.375 0.064 83.277 0.995 -3.683 0.995 -3.683 0.064 83.277
11830.333 0.065 83.265 0.994 -3.745 0.994 -3.745 0.065 83.265
11855.292 0.066 83.252 0.994 -3.806 0.994 -3.806 0.066 83.252
11880.25 0.068 83.237 0.994 -3.868 0.994 -3.868 0.068 83.237
11905.208 0.069 83.221 0.994 -3.929 0.994 -3.929 0.069 83.221
11930.167 0.07 83.204 0.994 -3.99 0.994 -3.99 0.07 83.204
11955.125 0.071 83.185 0.994 -4.052 0.994 -4.052 0.071 83.185
11980.083 0.072 83.165 0.994 -4.113 0.994 -4.113 0.072 83.165
12005.042 0.073 83.144 0.994 -4.174 0.994 -4.174 0.073 83.144
12030 0.074 83.122 0.994 -4.234 0.994 -4.234 0.074 83.122
12054.958 0.075 83.099 0.994 -4.295 0.994 -4.295 0.075 83.099
12079.917 0.076 83.074 0.994 -4.355 0.994 -4.355 0.076 83.074
12104.875 0.077 83.049 0.994 -4.416 0.994 -4.416 0.077 83.049
12129.833 0.078 83.023 0.994 -4.476 0.994 -4.476 0.078 83.023
12154.792 0.079 82.996 0.993 -4.536 0.993 -4.536 0.079 82.996
12179.75 0.08 82.969 0.993 -4.596 0.993 -4.596 0.08 82.969
12204.708 0.081 82.94 0.993 -4.656 0.993 -4.656 0.081 82.94
12229.667 0.082 82.911 0.993 -4.716 0.993 -4.716 0.082 82.911
12254.625 0.083 82.881 0.993 -4.776 0.993 -4.776 0.083 82.881
12279.583 0.084 82.85 0.993 -4.836 0.993 -4.836 0.084 82.85
12304.542 0.085 82.819 0.993 -4.895 0.993 -4.895 0.085 82.819
12329.5 0.086 82.787 0.993 -4.955 0.993 -4.955 0.086 82.787
12354.458 0.087 82.755 0.993 -5.014 0.993 -5.014 0.087 82.755
12379.417 0.088 82.722 0.993 -5.073 0.993 -5.073 0.088 82.722
12404.375 0.09 82.688 0.993 -5.132 0.993 -5.132 0.09 82.688
12429.333 0.091 82.654 0.992 -5.191 0.992 -5.191 0.091 82.654
12454.292 0.092 82.619 0.992 -5.25 0.992 -5.25 0.092 82.619
12479.25 0.093 82.584 0.992 -5.309 0.992 -5.309 0.093 82.584
12504.208 0.094 82.549 0.992 -5.367 0.992 -5.367 0.094 82.549
12529.167 0.095 82.513 0.992 -5.426 0.992 -5.426 0.095 82.513
12554.125 0.096 82.476 0.992 -5.484 0.992 -5.484 0.096 82.476
12579.083 0.097 82.44 0.992 -5.543 0.992 -5.543 0.097 82.44
12604.042 0.098 82.403 0.992 -5.601 0.992 -5.601 0.098 82.403
12629 0.099 82.365 0.992 -5.659 0.992 -5.659 0.099 82.365
12653.958 0.1 82.327 0.992 -5.717 0.992 -5.717 0.1 82.327
12678.917 0.101 82.289 0.992 -5.775 0.992 -5.775 0.101 82.289
12703.875 0.102 82.251 0.991 -5.833 0.991 -5.833 0.102 82.251
12728.833 0.103 82.212 0.991 -5.89 0.991 -5.89 0.103 82.212
12753.792 0.104 82.173 0.991 -5.948 0.991 -5.948 0.104 82.173
12778.75 0.105 82.133 0.991 -6.005 0.991 -6.005 0.105 82.133
12803.708 0.106 82.094 0.991 -6.063 0.991 -6.063 0.106 82.094
12828.667 0.107 82.054 0.991 -6.12 0.991 -6.12 0.107 82.054
12853.625 0.108 82.014 0.991 -6.177 0.991 -6.177 0.108 82.014
12878.583 0.109 81.973 0.991 -6.234 0.991 -6.234 0.109 81.973
12903.542 0.11 81.933 0.991 -6.291 0.991 -6.291 0.11 81.933
12928.5 0.111 81.892 0.99 -6.348 0.99 -6.348 0.111 81.892
12953.458 0.112 81.851 0.99 -6.405 0.99 -6.405 0.112 81.851
12978.417 0.113 81.809 0.99 -6.462 0.99 -6.462 0.113 81.809
13003.375 0.114 81.768 0.99 -6.518 0.99 -6.518 0.114 81.768
13028.333 0.115 81.726 0.99 -6.575 0.99 -6.575 0.115 81.726
13053.292 0.116 81.684 0.99 -6.631 0.99 -6.631 0.116 81.684
13078.25 0.117 81.642 0.99 -6.687 0.99 -6.687 0.117 81.642
13103.208 0.117 81.6 0.99 -6.744 0.99 -6.744 0.117 81.6
13128.167 0.118 81.558 0.99 -6.8 0.99 -6.8 0.118 81.558
13153.125 0.119 81.516 0.989 -6.856 0.989 -6.856 0.119 81.516
13178.083 0.12 81.473 0.989 -6.912 0.989 -6.912 0.12 81.473
13203.042 0.121 81.43 0.989 -6.967 0.989 -6.967 0.121 81.43
13228 0.122 81.387 0.989 -7.023 0.989 -7.023 0.122 81.387
13252.958 0.123 81.344 0.989 -7.079 0.989 -7.079 0.123 81.344
13277.917 0.124 81.301 0.989 -7.134 0.989 -7.134 0.124 81.301
13302.875 0.125 81.258 0.989 -7.19 0.989 -7.19 0.125 81.258
13327.833 0.126 81.214 0.989 -7.245 0.989 -7.245 0.126 81.214
13352.792 0.127 81.171 0.989 -7.3 0.989 -7.3 0.127 81.171
13377.75 0.128 81.127 0.988 -7.356 0.988 -7.356 0.128 81.127
13402.708 0.129 81.084 0.988 -7.411 0.988 -7.411 0.129 81.084
13427.667 0.13 81.04 0.988 -7.466 0.988 -7.466 0.13 81.04
13452.625 0.131 80.996 0.988 -7.52 0.988 -7.52 0.131 80.996
13477.583 0.132 80.952 0.988 -7.575 0.988 -7.575 0.132 80.952
13502.542 0.133 80.908 0.988 -7.63 0.988 -7.63 0.133 80.908
13527.5 0.134 80.864 0.988 -7.685 0.988 -7.685 0.134 80.864
13552.458 0.135 80.82 0.988 -7.739 0.988 -7.739 0.135 80.82
13577.417 0.136 80.775 0.987 -7.794 0.987 -7.794 0.136 80.775
13602.375 0.137 80.731 0.987 -7.848 0.987 -7.848 0.137 80.731
13627.333 0.138 80.687 0.987 -7.902 0.987 -7.902 0.138 80.687
13652.292 0.138 80.642 0.987 -7.956 0.987 -7.956 0.138 80.642
13677.25 0.139 80.598 0.987 -8.011 0.987 -8.011 0.139 80.598
13702.208 0.14 80.553 0.987 -8.065 0.987 -8.065 0.14 80.553
13727.167 0.141 80.509 0.987 -8.119 0.987 -8.119 0.141 80.509
13752.125 0.142 80.464 0.986 -8.172 0.986 -8.172 0.142 80.464
13777.083 0.143 80.419 0.986 -8.226 0.986 -8.226 0.143 80.419
13802.042 0.144 80.374 0.986 -8.28 0.986 -8.28 0.144 80.374
13827 0.145 80.33 0.986 -8.333 0.986 -8.333 0.145 80.33
13851.958 0.146 80.285 0.986 -8.387 0.986 -8.387 0.146 80.285
13876.917 0.147 80.24 0.986 -8.44 0.986 -8.44 0.147 80.24
13901.875 0.148 80.195 0.986 -8.494 0.986 -8.494 0.148 80.195
13926.833 0.149 80.15 0.986 -8.547 0.986 -8.547 0.149 80.15
13951.792 0.15 80.105 0.985 -8.6 0.985 -8.6 0.15 80.105
13976.75 0.15 80.06 0.985 -8.653 0.985 -8.653 0.15 80.06
14001.708 0.151 80.015 0.985 -8.706 0.985 -8.706 0.151 80.015
14026.667 0.152 79.97 0.985 -8.759 0.985 -8.759 0.152 79.97
14051.625 0.153 79.925 0.985 -8.812 0.985 -8.812 0.153 79.925
14076.583 0.154 79.88 0.985 -8.865 0.985 -8.865 0.154 79.88
14101.542 0.155 79.834 0.985 -8.917 0.985 -8.917 0.155 79.834
14126.5 0.156 79.789 0.984 -8.97 0.984 -8.97 0.156 79.789
14151.458 0.157 79.744 0.984 -9.022 0.984 -9.022 0.157 79.744
14176.417 0.158 79.699 0.984 -9.075 0.984 -9.075 0.158 79.699
14201.375 0.159 79.654 0.984 -9.127 0.984 -9.127 0.159 79.654
14226.333 0.16 79.608 0.984 -9.18 0.984 -9.18 0.16 79.608
14251.292 0.16 79.563 0.984 -9.232 0.984 -9.232 0.16 79.563
14276.25 0.161 79.518 0.984 -9.284 0.984 -9.284 0.161 79.518
14301.208 0.162 79.473 0.983 -9.336 0.983 -9.336 0.162 79.473
14326.167 0.163 79.428 0.983 -9.388 0.983 -9.388 0.163 79.428
14351.125 0.164 79.382 0.983 -9.44 0.983 -9.44 0.164 79.382
14376.083 0.165 79.337 0.983 -9.492 0.983 -9.492 0.165 79.337
14401.042 0.166 79.292 0.983 -9.543 0.983 -9.543 0.166 79.292
14426 0.167 79.246 0.983 -9.595 0.983 -9.595 0.167 79.246
14450.958 0.168 79.201 0.982 -9.646 0.982 -9.646 0.168 79.201
14475.917 0.168 79.156 0.982 -9.698 0.982 -9.698 0.168 79.156
14500.875 0.169 79.111 0.982 -9.749 0.982 -9.749 0.169 79.111
14525.833 0.17 79.065 0.982 -9.801 0.982 -9.801 0.17 79.065
14550.792 0.171 79.02 0.982 -9.852 0.982 -9.852 0.171 79.02
14575.75 0.172 78.975 0.982 -9.903 0.982 -9.903 0.172 78.975
14600.708 0.173 78.93 0.982 -9.954 0.982 -9.954 0.173 78.93
14625.667 0.174 78.884 0.981 -10.005 0.981 -10.005 0.174 78.884
14650.625 0.175 78.839 0.981 -10.056 0.981 -10.056 0.175 78.839
14675.583 0.176 78.794 0.981 -10.107 0.981 -10.107 0.176 78.794
14700.542 0.176 78.749 0.981 -10.158 0.981 -10.158 0.176 78.749
14725.5 0.177 78.704 0.981 -10.209 0.981 -10.209 0.177 78.704
14750.458 0.178 78.658 0.981 -10.259 0.981 -10.259 0.178 78.658
14775.417 0.179 78.613 0.98 -10.31 0.98 -10.31 0.179 78.613
14800.375 0.18 78.568 0.98 -10.361 0.98 -10.361 0.18 78.568
14825.333 0.181 78.523 0.98 -10.411 0.98 -10.411 0.181 78.523
14850.292 0.182 78.478 0.98 -10.461 0.98 -10.461 0.182 78.478
14875.25 0.182 78.433 0.98 -10.512 0.98 -10.512 0.182 78.433
14900.208 0.183 78.388 0.98 -10.562 0.98 -10.562 0.183 78.388
14925.167 0.184 78.342 0.98 -10.612 0.98 -10.612 0.184 78.342
14950.125 0.185 78.297 0.979 -10.662 0.979 -10.662 0.185 78.297
14975.083 0.186 78.252 0.979 -10.712 0.979 -10.712 0.186 78.252
15000.042 0.187 78.207 0.979 -10.762 0.979 -10.762 0.187 78.207
15025 0.188 78.162 0.979 -10.812 0.979 -10.812 0.188 78.162
15049.958 0.188 78.117 0.979 -10.862 0.979 -10.862 0.188 78.117
15074.917 0.189 78.072 0.979 -10.912 0.979 -10.912 0.189 78.072
15099.875 0.19 78.027 0.978 -10.961 0.978 -10.961 0.19 78.027
15124.833 0.191 77.982 0.978 -11.011 0.978 -11.011 0.191 77.982
15149.792 0.192 77.938 0.978 -11.06 0.978 -11.06 0.192 77.938
15174.75 0.193 77.893 0.978 -11.11 0.978 -11.11 0.193 77.893
15199.708 0.194 77.848 0.978 -11.159 0.978 -11.159 0.194 77.848
15224.667 0.194 77.803 0.978 -11.209 0.978 -11.209 0.194 77.803
15249.625 0.195 77.758 0.977 -11.258 0.977 -11.258 0.195 77.758
15274.583 0.196 77.713 0.977 -11.307 0.977 -11.307 0.196 77.713
15299.542 0.197 77.669 0.977 -11.356 0.977 -11.356 0.197 77.669
15324.5 0.198 77.624 0.977 -11.405 0.977 -11.405 0.198 77.624
15349.458 0.199 77.579 0.977 -11.454 0.977 -11.454 0.199 77.579
15374.417 0.199 77.534 0.977 -11.503 0.977 -11.503 0.199 77.534
15399.375 0.2 77.49 0.976 -11.552 0.976 -11.552 0.2 77.49
15424.333 0.201 77.445 0.976 -11.601 0.976 -11.601 0.201 77.445
15449.292 0.202 77.4 0.976 -11.65 0.976 -11.65 0.202 77.4
15474.25 0.203 77.356 0.976 -11.698 0.976 -11.698 0.203 77.356
15499.208 0.204 77.311 0.976 -11.747 0.976 -11.747 0.204 77.311
15524.167 0.204 77.267 0.976 -11.795 0.976 -11.795 0.204 77.267
15549.125 0.205 77.222 0.975 -11.844 0.975 -11.844 0.205 77.222
15574.083 0.206 77.178 0.975 -11.892 0.975 -11.892 0.206 77.178
15599.042 0.207 77.133 0.975 -11.941 0.975 -11.941 0.207 77.133
15624 0.208 77.089 0.975 -11.989 0.975 -11.989 0.208 77.089
15648.958 0.209 77.044 0.975 -12.037 0.975 -12.037 0.209 77.044
15673.917 0.209 77 0.974 -12.085 0.974 -12.085 0.209 77
15698.875 0.21 76.956 0.974 -12.133 0.974 -12.133 0.21 76.956
15723.833 0.211 76.911 0.974 -12.181 0.974 -12.181 0.211 76.911
15748.792 0.212 76.867 0.974 -12.229 0.974 -12.229 0.212 76.867
15773.75 0.213 76.823 0.974 -12.277 0.974 -12.277 0.213 76.823
15798.708 0.213 76.779 0.974 -12.325 0.974 -12.325 0.213 76.779
15823.667 0.214 76.734 0.973 -12.373 0.973 -12.373 0.214 76.734
15848.625 0.215 76.69 0.973 -12.42 0.973 -12.42 0.215 76.69
15873.583 0.216 76.646 0.973 -12.468 0.973 -12.468 0.216 76.646
15898.542 0.217 76.602 0.973 -12.516 0.973 -12.516 0.217 76.602
15923.5 0.218 76.558 0.973 -12.563 0.973 -12.563 0.218 76.558
15948.458 0.218 76.514 0.973 -12.61 0.973 -12.61 0.218 76.514
15973.417 0.219 76.47 0.972 -12.658 0.972 -12.658 0.219 76.47
15998.375 0.22 76.426 0.972 -12.705 0.972 -12.705 0.22 76.426
16023.333 0.221 76.382 0.972 -12.752 0.972 -12.752 0.221 76.382
16048.292 0.222 76.338 0.972 -12.8 0.972 -12.8 0.222 76.338
16073.25 0.222 76.294 0.972 -12.847 0.972 -12.847 0.222 76.294
16098.208 0.223 76.251 0.971 -12.894 0.971 -12.894 0.223 76.251
16123.167 0.224 76.207 0.971 -12.941 0.971 -12.941 0.224 76.207
16148.125 0.225 76.163 0.971 -12.988 0.971 -12.988 0.225 76.163
16173.083 0.226 76.119 0.971 -13.035 0.971 -13.035 0.226 76.119
16198.042 0.226 76.076 0.971 -13.082 0.971 -13.082 0.226 76.076
16223 0.227 76.032 0.971 -13.128 0.971 -13.128 0.227 76.032
16247.958 0.228 75.988 0.97 -13.175 0.97 -13.175 0.228 75.988
16272.917 0.229 75.945 0.97 -13.222 0.97 -13.222 0.229 75.945
16297.875 0.23 75.901 0.97 -13.268 0.97 -13.268 0.23 75.901
16322.833 0.23 75.858 0.97 -13.315 0.97 -13.315 0.23 75.858
16347.792 0.231 75.814 0.97 -13.361 0.97 -13.361 0.231 75.814
16372.75 0.232 75.771 0.969 -13.408 0.969 -13.408 0.232 75.771
16397.708 0.233 75.727 0.969 -13.454 0.969 -13.454 0.233 75.727
16422.667 0.233 75.684 0.969 -13.5 0.969 -13.5 0.233 75.684
16447.625 0.234 75.64 0.969 -13.547 0.969 -13.547 0.234 75.64
16472.583 0.235 75.597 0.969 -13.593 0.969 -13.593 0.235 75.597
16497.542 0.236 75.554 0.968 -13.639 0.968 -13.639 0.236 75.554
16522.5 0.237 75.511 0.968 -13.685 0.968 -13.685 0.237 75.511
16547.458 0.237 75.467 0.968 -13.731 0.968 -13.731 0.237 75.467
16572.417 0.238 75.424 0.968 -13.777 0.968 -13.777 0.238 75.424
16597.375 0.239 75.381 0.968 -13.823 0.968 -13.823 0.239 75.381
16622.333 0.24 75.338 0.968 -13.869 0.968 -13.869 0.24 75.338
16647.292 0.24 75.295 0.967 -13.914 0.967 -13.914 0.24 75.295
16672.25 0.241 75.252 0.967 -13.96 0.967 -13.96 0.241 75.252
16697.208 0.242 75.209 0.967 -14.006 0.967 -14.006 0.242 75.209
16722.167 0.243 75.166 0.967 -14.051 0.967 -14.051 0.243 75.166
16747.125 0.244 75.123 0.967 -14.097 0.967 -14.097 0.244 75.123
16772.083 0.244 75.08 0.966 -14.142 0.966 -14.142 0.244 75.08
16797.042 0.245 75.037 0.966 -14.188 0.966 -14.188 0.245 75.037
16822 0.246 74.994 0.966 -14.233 0.966 -14.233 0.246 74.994
16846.958 0.247 74.952 0.966 -14.279 0.966 -14.279 0.247 74.952
16871.917 0.247 74.909 0.966 -14.324 0.966 -14.324 0.247 74.909
16896.875 0.248 74.866 0.965 -14.369 0.965 -14.369 0.248 74.866
16921.833 0.249 74.824 0.965 -14.414 0.965 -14.414 0.249 74.824
16946.792 0.25 74.781 0.965 -14.459 0.965 -14.459 0.25 74.781
16971.75 0.25 74.738 0.965 -14.505 0.965 -14.505 0.25 74.738
16996.708 0.251 74.696 0.965 -14.55 0.965 -14.55 0.251 74.696
17021.667 0.252 74.653 0.964 -14.594 0.964 -14.594 0.252 74.653
17046.625 0.253 74.611 0.964 -14.639 0.964 -14.639 0.253 74.611
17071.583 0.254 74.568 0.964 -14.684 0.964 -14.684 0.254 74.568
17096.542 0.254 74.526 0.964 -14.729 0.964 -14.729 0.254 74.526
17121.5 0.255 74.484 0.964 -14.774 0.964 -14.774 0.255 74.484
17146.458 0.256 74.441 0.963 -14.818 0.963 -14.818 0.256 74.441
17171.417 0.257 74.399 0.963 -14.863 0.963 -14.863 0.257 74.399
17196.375 0.257 74.357 0.963 -14.908 0.963 -14.908 0.257 74.357
17221.333 0.258 74.314 0.963 -14.952 0.963 -14.952 0.258 74.314
17246.292 0.259 74.272 0.963 -14.997 0.963 -14.997 0.259 74.272
17271.25 0.26 74.23 0.962 -15.041 0.962 -15.041 0.26 74.23
17296.208 0.26 74.188 0.962 -15.085 0.962 -15.085 0.26 74.188
17321.167 0.261 74.146 0.962 -15.13 0.962 -15.13 0.261 74.146
17346.125 0.262 74.104 0.962 -15.174 0.962 -15.174 0.262 74.104
17371.083 0.263 74.062 0.962 -15.218 0.962 -15.218 0.263 74.062
17396.042 0.263 74.02 0.961 -15.262 0.961 -15.262 0.263 74.02
17421 0.264 73.978 0.961 -15.306 0.961 -15.306 0.264 73.978
17445.958 0.265 73.936 0.961 -15.35 0.961 -15.35 0.265 73.936
17470.917 0.265 73.894 0.961 -15.394 0.961 -15.394 0.265 73.894
17495.875 0.266 73.852 0.961 -15.438 0.961 -15.438 0.266 73.852
17520.833 0.267 73.811 0.96 -15.482 0.96 -15.482 0.267 73.811
17545.792 0.268 73.769 0.96 -15.526 0.96 -15.526 0.268 73.769
17570.75 0.268 73.727 0.96 -15.57 0.96 -15.57 0.268 73.727
17595.708 0.269 73.685 0.96 -15.614 0.96 -15.614 0.269 73.685
17620.667 0.27 73.644 0.96 -15.657 0.96 -15.657 0.27 73.644
17645.625 0.271 73.602 0.959 -15.701 0.959 -15.701 0.271 73.602
17670.583 0.271 73.561 0.959 -15.745 0.959 -15.745 0.271 73.561
17695.542 0.272 73.519 0.959 -15.788 0.959 -15.788 0.272 73.519
17720.5 0.273 73.478 0.959 -15.832 0.959 -15.832 0.273 73.478
17745.458 0.274 73.436 0.959 -15.875 0.959 -15.875 0.274 73.436
17770.417 0.274 73.395 0.958 -15.918 0.958 -15.918 0.274 73.395
17795.375 0.275 73.353 0.958 -15.962 0.958 -15.962 0.275 73.353
17820.333 0.276 73.312 0.958 -16.005 0.958 -16.005 0.276 73.312
17845.292 0.276 73.271 0.958 -16.048 0.958 -16.048 0.276 73.271
17870.25 0.277 73.229 0.958 -16.092 0.958 -16.092 0.277 73.229
17895.208 0.278 73.188 0.957 -16.135 0.957 -16.135 0.278 73.188
17920.167 0.279 73.147 0.957 -16.178 0.957 -16.178 0.279 73.147
17945.125 0.279 73.106 0.957 -16.221 0.957 -16.221 0.279 73.106
17970.083 0.28 73.065 0.957 -16.264 0.957 -16.264 0.28 73.065
17995.042 0.281 73.024 0.956 -16.307 0.956 -16.307 0.281 73.024
18020 0.282 72.983 0.956 -16.35 0.956 -16.35 0.282 72.983
18044.958 0.282 72.942 0.956 -16.392 0.956 -16.392 0.282 72.942
18069.917 0.283 72.901 0.956 -16.435 0.956 -16.435 0.283 72.901
18094.875 0.284 72.86 0.956 -16.478 0.956 -16.478 0.284 72.86
18119.833 0.284 72.819 0.955 -16.521 0.955 -16.521 0.284 72.819
18144.792 0.285 72.778 0.955 -16.563 0.955 -16.563 0.285 72.778
18169.75 0.286 72.737 0.955 -16.606 0.955 -16.606 0.286 72.737
18194.708 0.287 72.696 0.955 -16.649 0.955 -16.649 0.287 72.696
18219.667 0.287 72.656 0.955 -16.691 0.955 -16.691 0.287 72.656
18244.625 0.288 72.615 0.954 -16.734 0.954 -16.734 0.288 72.615
18269.583 0.289 72.574 0.954 -16.776 0.954 -16.776 0.289 72.574
18294.542 0.289 72.534 0.954 -16.818 0.954 -16.818 0.289 72.534
18319.5 0.29 72.493 0.954 -16.861 0.954 -16.861 0.29 72.493
18344.458 0.291 72.452 0.954 -16.903 0.954 -16.903 0.291 72.452
18369.417 0.291 72.412 0.953 -16.945 0.953 -16.945 0.291 72.412
18394.375 0.292 72.371 0.953 -16.987 0.953 -16.987 0.292 72.371
18419.333 0.293 72.331 0.953 -17.029 0.953 -17.029 0.293 72.331
18444.292 0.294 72.291 0.953 -17.072 0.953 -17.072 0.294 72.291
18469.25 0.294 72.25 0.952 -17.114 0.952 -17.114 0.294 72.25
18494.208 0.295 72.21 0.952 -17.156 0.952 -17.156 0.295 72.21
18519.167 0.296 72.17 0.952 -17.198 0.952 -17.198 0.296 72.17
18544.125 0.296 72.129 0.952 -17.239 0.952 -17.239 0.296 72.129
18569.083 0.297 72.089 0.952 -17.281 0.952 -17.281 0.297 72.089
18594.042 0.298 72.049 0.951 -17.323 0.951 -17.323 0.298 72.049
18619 0.298 72.009 0.951 -17.365 0.951 -17.365 0.298 72.009
18643.958 0.299 71.969 0.951 -17.407 0.951 -17.407 0.299 71.969
18668.917 0.3 71.928 0.951 -17.448 0.951 -17.448 0.3 71.928
18693.875 0.301 71.888 0.951 -17.49 0.951 -17.49 0.301 71.888
18718.833 0.301 71.848 0.95 -17.532 0.95 -17.532 0.301 71.848
18743.792 0.302 71.808 0.95 -17.573 0.95 -17.573 0.302 71.808
18768.75 0.303 71.768 0.95 -17.615 0.95 -17.615 0.303 71.768
18793.708 0.303 71.729 0.95 -17.656 0.95 -17.656 0.303 71.729
18818.667 0.304 71.689 0.949 -17.697 0.949 -17.697 0.304 71.689
18843.625 0.305 71.649 0.949 -17.739 0.949 -17.739 0.305 71.649
18868.583 0.305 71.609 0.949 -17.78 0.949 -17.78 0.305 71.609
18893.542 0.306 71.569 0.949 -17.821 0.949 -17.821 0.306 71.569
18918.5 0.307 71.53 0.949 -17.863 0.949 -17.863 0.307 71.53
18943.458 0.307 71.49 0.948 -17.904 0.948 -17.904 0.307 71.49
18968.417 0.308 71.45 0.948 -17.945 0.948 -17.945 0.308 71.45
18993.375 0.309 71.411 0.948 -17.986 0.948 -17.986 0.309 71.411
19018.333 0.309 71.371 0.948 -18.027 0.948 -18.027 0.309 71.371
19043.292 0.31 71.332 0.947 -18.068 0.947 -18.068 0.31 71.332
19068.25 0.311 71.292 0.947 -18.109 0.947 -18.109 0.311 71.292
19093.208 0.312 71.253 0.947 -18.15 0.947 -18.15 0.312 71.253
19118.167 0.312 71.213 0.947 -18.191 0.947 -18.191 0.312 71.213
19143.125 0.313 71.174 0.947 -18.232 0.947 -18.232 0.313 71.174
19168.083 0.314 71.134 0.946 -18.272 0.946 -18.272 0.314 71.134
19193.042 0.314 71.095 0.946 -18.313 0.946 -18.313 0.314 71.095
19218 0.315 71.056 0.946 -18.354 0.946 -18.354 0.315 71.056
19242.958 0.316 71.016 0.946 -18.395 0.946 -18.395 0.316 71.016
19267.917 0.316 70.977 0.945 -18.435 0.945 -18.435 0.316 70.977
19292.875 0.317 70.938 0.945 -18.476 0.945 -18.476 0.317 70.938
19317.833 0.318 70.899 0.945 -18.516 0.945 -18.516 0.318 70.899
19342.792 0.318 70.86 0.945 -18.557 0.945 -18.557 0.318 70.86
19367.75 0.319 70.821 0.945 -18.597 0.945 -18.597 0.319 70.821
19392.708 0.32 70.782 0.944 -18.638 0.944 -18.638 0.32 70.782
19417.667 0.32 70.743 0.944 -18.678 0.944 -18.678 0.32 70.743
19442.625 0.321 70.704 0.944 -18.718 0.944 -18.718 0.321 70.704
19467.583 0.322 70.665 0.944 -18.759 0.944 -18.759 0.322 70.665
19492.542 0.322 70.626 0.943 -18.799 0.943 -18.799 0.322 70.626
19517.5 0.323 70.587 0.943 -18.839 0.943 -18.839 0.323 70.587
19542.458 0.324 70.548 0.943 -18.879 0.943 -18.879 0.324 70.548
19567.417 0.324 70.509 0.943 -18.919 0.943 -18.919 0.324 70.509
19592.375 0.325 70.471 0.943 -18.959 0.943 -18.959 0.325 70.471
19617.333 0.326 70.432 0.942 -18.999 0.942 -18.999 0.326 70.432
19642.292 0.326 70.393 0.942 -19.039 0.942 -19.039 0.326 70.393
19667.25 0.327 70.354 0.942 -19.079 0.942 -19.079 0.327 70.354
19692.208 0.328 70.316 0.942 -19.119 0.942 -19.119 0.328 70.316
19717.167 0.328 70.277 0.941 -19.159 0.941 -19.159 0.328 70.277
19742.125 0.329 70.239 0.941 -19.199 0.941 -19.199 0.329 70.239
19767.083 0.33 70.2 0.941 -19.239 0.941 -19.239 0.33 70.2
19792.042 0.33 70.162 0.941 -19.278 0.941 -19.278 0.33 70.162
19817 0.331 70.123 0.94 -19.318 0.94 -19.318 0.331 70.123
19841.958 0.331 70.085 0.94 -19.358 0.94 -19.358 0.331 70.085
19866.917 0.332 70.046 0.94 -19.397 0.94 -19.397 0.332 70.046
19891.875 0.333 70.008 0.94 -19.437 0.94 -19.437 0.333 70.008
19916.833 0.333 69.97 0.94 -19.476 0.94 -19.476 0.333 69.97
19941.792 0.334 69.931 0.939 -19.516 0.939 -19.516 0.334 69.931
19966.75 0.335 69.893 0.939 -19.555 0.939 -19.555 0.335 69.893
19991.708 0.335 69.855 0.939 -19.595 0.939 -19.595 0.335 69.855
20016.667 0.336 69.817 0.939 -19.634 0.939 -19.634 0.336 69.817
20041.625 0.337 69.779 0.938 -19.673 0.938 -19.673 0.337 69.779
20066.583 0.337 69.741 0.938 -19.713 0.938 -19.713 0.337 69.741
20091.542 0.338 69.703 0.938 -19.752 0.938 -19.752 0.338 69.703
20116.5 0.339 69.665 0.938 -19.791 0.938 -19.791 0.339 69.665
20141.458 0.339 69.626 0.937 -19.83 0.937 -19.83 0.339 69.626
20166.417 0.34 69.589 0.937 -19.869 0.937 -19.869 0.34 69.589
20191.375 0.341 69.551 0.937 -19.909 0.937 -19.909 0.341 69.551
20216.333 0.341 69.513 0.937 -19.948 0.937 -19.948 0.341 69.513
20241.292 0.342 69.475 0.937 -19.987 0.937 -19.987 0.342 69.475
20266.25 0.342 69.437 0.936 -20.026 0.936 -20.026 0.342 69.437
20291.208 0.343 69.399 0.936 -20.064 0.936 -20.064 0.343 69.399
20316.167 0.344 69.361 0.936 -20.103 0.936 -20.103 0.344 69.361
20341.125 0.344 69.324 0.936 -20.142 0.936 -20.142 0.344 69.324
20366.083 0.345 69.286 0.935 -20.181 0.935 -20.181 0.345 69.286
20391.042 0.346 69.248 0.935 -20.22 0.935 -20.22 0.346 69.248
20416 0.346 69.211 0.935 -20.259 0.935 -20.259 0.346 69.211
20440.958 0.347 69.173 0.935 -20.297 0.935 -20.297 0.347 69.173
20465.917 0.348 69.136 0.934 -20.336 0.934 -20.336 0.348 69.136
20490.875 0.348 69.098 0.934 -20.375 0.934 -20.375 0.348 69.098
20515.833 0.349 69.061 0.934 -20.413 0.934 -20.413 0.349 69.061
20540.792 0.349 69.023 0.934 -20.452 0.934 -20.452 0.349 69.023
20565.75 0.35 68.986 0.934 -20.49 0.934 -20.49 0.35 68.986
20590.708 0.351 68.948 0.933 -20.529 0.933 -20.529 0.351 68.948
20615.667 0.351 68.911 0.933 -20.567 0.933 -20.567 0.351 68.911
20640.625 0.352 68.874 0.933 -20.605 0.933 -20.605 0.352 68.874
20665.583 0.353 68.836 0.933 -20.644 0.933 -20.644 0.353 68.836
20690.542 0.353 68.799 0.932 -20.682 0.932 -20.682 0.353 68.799
20715.5 0.354 68.762 0.932 -20.72 0.932 -20.72 0.354 68.762
20740.458 0.354 68.725 0.932 -20.759 0.932 -20.759 0.354 68.725
20765.417 0.355 68.687 0.932 -20.797 0.932 -20.797 0.355 68.687
20790.375 0.356 68.65 0.931 -20.835 0.931 -20.835 0.356 68.65
20815.333 0.356 68.613 0.931 -20.873 0.931 -20.873 0.356 68.613
20840.292 0.357 68.576 0.931 -20.911 0.931 -20.911 0.357 68.576
20865.25 0.358 68.539 0.931 -20.949 0.931 -20.949 0.358 68.539
20890.208 0.358 68.502 0.93 -20.987 0.93 -20.987 0.358 68.502
20915.167 0.359 68.465 0.93 -21.025 0.93 -21.025 0.359 68.465
20940.125 0.359 68.428 0.93 -21.063 0.93 -21.063 0.359 68.428
20965.083 0.36 68.391 0.93 -21.101 0.93 -21.101 0.36 68.391
20990.042 0.361 68.354 0.93 -21.139 0.93 -21.139 0.361 68.354
21015 0.361 68.318 0.929 -21.177 0.929 -21.177 0.361 68.318
21039.958 0.362 68.281 0.929 -21.215 0.929 -21.215 0.362 68.281
21064.917 0.362 68.244 0.929 -21.252 0.929 -21.252 0.362 68.244
21089.875 0.363 68.207 0.929 -21.29 0.929 -21.29 0.363 68.207
21114.833 0.364 68.171 0.928 -21.328 0.928 -21.328 0.364 68.171
21139.792 0.364 68.134 0.928 -21.365 0.928 -21.365 0.364 68.134
21164.75 0.365 68.097 0.928 -21.403 0.928 -21.403 0.365 68.097
21189.708 0.366 68.061 0.928 -21.441 0.928 -21.441 0.366 68.061
21214.667 0.366 68.024 0.927 -21.478 0.927 -21.478 0.366 68.024
21239.625 0.367 67.988 0.927 -21.516 0.927 -21.516 0.367 67.988
21264.583 0.367 67.951 0.927 -21.553 0.927 -21.553 0.367 67.951
21289.542 0.368 67.915 0.927 -21.59 0.927 -21.59 0.368 67.915
21314.5 0.369 67.878 0.926 -21.628 0.926 -21.628 0.369 67.878
21339.458 0.369 67.842 0.926 -21.665 0.926 -21.665 0.369 67.842
21364.417 0.37 67.805 0.926 -21.702 0.926 -21.702 0.37 67.805
21389.375 0.37 67.769 0.926 -21.74 0.926 -21.74 0.37 67.769
21414.333 0.371 67.733 0.925 -21.777 0.925 -21.777 0.371 67.733
21439.292 0.372 67.696 0.925 -21.814 0.925 -21.814 0.372 67.696
21464.25 0.372 67.66 0.925 -21.851 0.925 -21.851 0.372 67.66
21489.208 0.373 67.624 0.925 -21.889 0.925 -21.889 0.373 67.624
21514.167 0.373 67.588 0.924 -21.926 0.924 -21.926 0.373 67.588
21539.125 0.374 67.552 0.924 -21.963 0.924 -21.963 0.374 67.552
21564.083 0.375 67.515 0.924 -22 0.924 -22 0.375 67.515
21589.042 0.375 67.479 0.924 -22.037 0.924 -22.037 0.375 67.479
21614 0.376 67.443 0.924 -22.074 0.924 -22.074 0.376 67.443
21638.958 0.376 67.407 0.923 -22.111 0.923 -22.111 0.376 67.407
21663.917 0.377 67.371 0.923 -22.147 0.923 -22.147 0.377 67.371
21688.875 0.378 67.335 0.923 -22.184 0.923 -22.184 0.378 67.335
21713.833 0.378 67.299 0.923 -22.221 0.923 -22.221 0.378 67.299
21738.792 0.379 67.263 0.922 -22.258 0.922 -22.258 0.379 67.263
21763.75 0.379 67.228 0.922 -22.295 0.922 -22.295 0.379 67.228
21788.708 0.38 67.192 0.922 -22.331 0.922 -22.331 0.38 67.192
21813.667 0.381 67.156 0.922 -22.368 0.922 -22.368 0.381 67.156
21838.625 0.381 67.12 0.921 -22.405 0.921 -22.405 0.381 67.12
21863.583 0.382 67.084 0.921 -22.441 0.921 -22.441 0.382 67.084
21888.542 0.382 67.049 0.921 -22.478 0.921 -22.478 0.382 67.049
21913.5 0.383 67.013 0.921 -22.514 0.921 -22.514 0.383 67.013
21938.458 0.384 66.977 0.92 -22.551 0.92 -22.551 0.384 66.977
21963.417 0.384 66.942 0.92 -22.587 0.92 -22.587 0.384 66.942
21988.375 0.385 66.906 0.92 -22.624 0.92 -22.624 0.385 66.906
22013.333 0.385 66.871 0.92 -22.66 0.92 -22.66 0.385 66.871
22038.292 0.386 66.835 0.919 -22.697 0.919 -22.697 0.386 66.835
22063.25 0.386 66.8 0.919 -22.733 0.919 -22.733 0.386 66.8
22088.208 0.387 66.764 0.919 -22.769 0.919 -22.769 0.387 66.764
22113.167 0.388 66.729 0.919 -22.805 0.919 -22.805 0.388 66.729
22138.125 0.388 66.693 0.918 -22.842 0.918 -22.842 0.388 66.693
22163.083 0.389 66.658 0.918 -22.878 0.918 -22.878 0.389 66.658
22188.042 0.389 66.623 0.918 -22.914 0.918 -22.914 0.389 66.623
22213 0.39 66.587 0.918 -22.95 0.918 -22.95 0.39 66.587
22237.958 0.391 66.552 0.917 -22.986 0.917 -22.986 0.391 66.552
22262.917 0.391 66.517 0.917 -23.022 0.917 -23.022 0.391 66.517
22287.875 0.392 66.482 0.917 -23.058 0.917 -23.058 0.392 66.482
22312.833 0.392 66.446 0.917 -23.094 0.917 -23.094 0.392 66.446
22337.792 0.393 66.411 0.916 -23.13 0.916 -23.13 0.393 66.411
22362.75 0.393 66.376 0.916 -23.166 0.916 -23.166 0.393 66.376
22387.708 0.394 66.341 0.916 -23.202 0.916 -23.202 0.394 66.341
22412.667 0.395 66.306 0.916 -23.238 0.916 -23.238 0.395 66.306
22437.625 0.395 66.271 0.915 -23.274 0.915 -23.274 0.395 66.271
22462.583 0.396 66.236 0.915 -23.31 0.915 -23.31 0.396 66.236
22487.542 0.396 66.201 0.915 -23.345 0.915 -23.345 0.396 66.201
22512.5 0.397 66.166 0.915 -23.381 0.915 -23.381 0.397 66.166
22537.458 0.397 66.131 0.915 -23.417 0.915 -23.417 0.397 66.131
22562.417 0.398 66.096 0.914 -23.452 0.914 -23.452 0.398 66.096
22587.375 0.399 66.061 0.914 -23.488 0.914 -23.488 0.399 66.061
22612.333 0.399 66.026 0.914 -23.524 0.914 -23.524 0.399 66.026
22637.292 0.4 65.992 0.914 -23.559 0.914 -23.559 0.4 65.992
22662.25 0.4 65.957 0.913 -23.595 0.913 -23.595 0.4 65.957
22687.208 0.401 65.922 0.913 -23.63 0.913 -23.63 0.401 65.922
22712.167 0.401 65.887 0.913 -23.666 0.913 -23.666 0.401 65.887
22737.125 0.402 65.853 0.913 -23.701 0.913 -23.701 0.402 65.853
22762.083 0.403 65.818 0.912 -23.736 0.912 -23.736 0.403 65.818
22787.042 0.403 65.783 0.912 -23.772 0.912 -23.772 0.403 65.783
22812 0.404 65.749 0.912 -23.807 0.912 -23.807 0.404 65.749
22836.958 0.404 65.714 0.912 -23.842 0.912 -23.842 0.404 65.714
22861.917 0.405 65.68 0.911 -23.878 0.911 -23.878 0.405 65.68
22886.875 0.405 65.645 0.911 -23.913 0.911 -23.913 0.405 65.645
22911.833 0.406 65.611 0.911 -23.948 0.911 -23.948 0.406 65.611
22936.792 0.406 65.576 0.911 -23.983 0.911 -23.983 0.406 65.576
22961.75 0.407 65.542 0.91 -24.018 0.91 -24.018 0.407 65.542
22986.708 0.408 65.508 0.91 -24.054 0.91 -24.054 0.408 65.508
23011.667 0.408 65.473 0.91 -24.089 0.91 -24.089 0.408 65.473
23036.625 0.409 65.439 0.91 -24.124 0.91 -24.124 0.409 65.439
23061.583 0.409 65.405 0.909 -24.159 0.909 -24.159 0.409 65.405
23086.542 0.41 65.37 0.909 -24.194 0.909 -24.194 0.41 65.37
23111.5 0.41 65.336 0.909 -24.229 0.909 -24.229 0.41 65.336
23136.458 0.411 65.302 0.909 -24.263 0.909 -24.263 0.411 65.302
23161.417 0.411 65.268 0.908 -24.298 0.908 -24.298 0.411 65.268
23186.375 0.412 65.234 0.908 -24.333 0.908 -24.333 0.412 65.234
23211.333 0.413 65.2 0.908 -24.368 0.908 -24.368 0.413 65.2
23236.292 0.413 65.165 0.908 -24.403 0.908 -24.403 0.413 65.165
23261.25 0.414 65.131 0.907 -24.438 0.907 -24.438 0.414 65.131
23286.208 0.414 65.097 0.907 -24.472 0.907 -24.472 0.414 65.097
23311.167 0.415 65.063 0.907 -24.507 0.907 -24.507 0.415 65.063
23336.125 0.415 65.029 0.907 -24.542 0.907 -24.542 0.415 65.029
23361.083 0.416 64.995 0.906 -24.576 0.906 -24.576 0.416 64.995
23386.042 0.416 64.962 0.906 -24.611 0.906 -24.611 0.416 64.962
23411 0.417 64.928 0.906 -24.645 0.906 -24.645 0.417 64.928
23435.958 0.418 64.894 0.906 -24.68 0.906 -24.68 0.418 64.894
23460.917 0.418 64.86 0.905 -24.714 0.905 -24.714 0.418 64.86
23485.875 0.419 64.826 0.905 -24.749 0.905 -24.749 0.419 64.826
23510.833 0.419 64.792 0.905 -24.783 0.905 -24.783 0.419 64.792
23535.792 0.42 64.759 0.905 -24.818 0.905 -24.818 0.42 64.759
23560.75 0.42 64.725 0.904 -24.852 0.904 -24.852 0.42 64.725
23585.708 0.421 64.691 0.904 -24.886 0.904 -24.886 0.421 64.691
23610.667 0.421 64.658 0.904 -24.921 0.904 -24.921 0.421 64.658
23635.625 0.422 64.624 0.904 -24.955 0.904 -24.955 0.422 64.624
23660.583 0.422 64.59 0.903 -24.989 0.903 -24.989 0.422 64.59
23685.542 0.423 64.557 0.903 -25.024 0.903 -25.024 0.423 64.557
23710.5 0.424 64.523 0.903 -25.058 0.903 -25.058 0.424 64.523
23735.458 0.424 64.49 0.903 -25.092 0.903 -25.092 0.424 64.49
23760.417 0.425 64.456 0.902 -25.126 0.902 -25.126 0.425 64.456
23785.375 0.425 64.423 0.902 -25.16 0.902 -25.16 0.425 64.423
23810.333 0.426 64.389 0.902 -25.194 0.902 -25.194 0.426 64.389
23835.292 0.426 64.356 0.902 -25.228 0.902 -25.228 0.426 64.356
23860.25 0.427 64.323 0.901 -25.262 0.901 -25.262 0.427 64.323
23885.208 0.427 64.289 0.901 -25.296 0.901 -25.296 0.427 64.289
23910.167 0.428 64.256 0.901 -25.33 0.901 -25.33 0.428 64.256
23935.125 0.428 64.223 0.901 -25.364 0.901 -25.364 0.428 64.223
23960.083 0.429 64.189 0.9 -25.398 0.9 -25.398 0.429 64.189
23985.042 0.429 64.156 0.9 -25.432 0.9 -25.432 0.429 64.156
24010 0.43 64.123 0.9 -25.466 0.9 -25.466 0.43 64.123
24034.958 0.431 64.09 0.9 -25.499 0.9 -25.499 0.431 64.09
24059.917 0.431 64.057 0.899 -25.533 0.899 -25.533 0.431 64.057
24084.875 0.432 64.024 0.899 -25.567 0.899 -25.567 0.432 64.024
24109.833 0.432 63.991 0.899 -25.601 0.899 -25.601 0.432 63.991
24134.792 0.433 63.957 0.898 -25.634 0.898 -25.634 0.433 63.957
24159.75 0.433 63.924 0.898 -25.668 0.898 -25.668 0.433 63.924
24184.708 0.434 63.891 0.898 -25.702 0.898 -25.702 0.434 63.891
24209.667 0.434 63.858 0.898 -25.735 0.898 -25.735 0.434 63.858
24234.625 0.435 63.826 0.897 -25.769 0.897 -25.769 0.435 63.826
24259.583 0.435 63.793 0.897 -25.802 0.897 -25.802 0.435 63.793
24284.542 0.436 63.76 0.897 -25.836 0.897 -25.836 0.436 63.76
24309.5 0.436 63.727 0.897 -25.869 0.897 -25.869 0.436 63.727
24334.458 0.437 63.694 0.896 -25.903 0.896 -25.903 0.437 63.694
24359.417 0.437 63.661 0.896 -25.936 0.896 -25.936 0.437 63.661
24384.375 0.438 63.628 0.896 -25.969 0.896 -25.969 0.438 63.628
24409.333 0.438 63.596 0.896 -26.003 0.896 -26.003 0.438 63.596
24434.292 0.439 63.563 0.895 -26.036 0.895 -26.036 0.439 63.563
24459.25 0.439 63.53 0.895 -26.069 0.895 -26.069 0.439 63.53
24484.208 0.44 63.498 0.895 -26.103 0.895 -26.103 0.44 63.498
24509.167 0.441 63.465 0.895 -26.136 0.895 -26.136 0.441 63.465
24534.125 0.441 63.432 0.894 -26.169 0.894 -26.169 0.441 63.432
24559.083 0.442 63.4 0.894 -26.202 0.894 -26.202 0.442 63.4
24584.042 0.442 63.367 0.894 -26.235 0.894 -26.235 0.442 63.367
24609 0.443 63.335 0.894 -26.269 0.894 -26.269 0.443 63.335
24633.958 0.443 63.302 0.893 -26.302 0.893 -26.302 0.443 63.302
24658.917 0.444 63.27 0.893 -26.335 0.893 -26.335 0.444 63.27
24683.875 0.444 63.237 0.893 -26.368 0.893 -26.368 0.444 63.237
24708.833 0.445 63.205 0.893 -26.401 0.893 -26.401 0.445 63.205
24733.792 0.445 63.172 0.892 -26.434 0.892 -26.434 0.445 63.172
24758.75 0.446 63.14 0.892 -26.467 0.892 -26.467 0.446 63.14
24783.708 0.446 63.108 0.892 -26.5 0.892 -26.5 0.446 63.108
24808.667 0.447 63.075 0.892 -26.532 0.892 -26.532 0.447 63.075
24833.625 0.447 63.043 0.891 -26.565 0.891 -26.565 0.447 63.043
24858.583 0.448 63.011 0.891 -26.598 0.891 -26.598 0.448 63.011
24883.542 0.448 62.978 0.891 -26.631 0.891 -26.631 0.448 62.978
24908.5 0.449 62.946 0.891 -26.664 0.891 -26.664 0.449 62.946
24933.458 0.449 62.914 0.89 -26.696 0.89 -26.696 0.449 62.914
24958.417 0.45 62.882 0.89 -26.729 0.89 -26.729 0.45 62.882
24983.375 0.45 62.85 0.89 -26.762 0.89 -26.762 0.45 62.85
25008.333 0.451 62.818 0.89 -26.794 0.89 -26.794 0.451 62.818
25033.292 0.451 62.786 0.889 -26.827 0.889 -26.827 0.451 62.786
25058.25 0.452 62.754 0.889 -26.86 0.889 -26.86 0.452 62.754
25083.208 0.452 62.722 0.889 -26.892 0.889 -26.892 0.452 62.722
25108.167 0.453 62.69 0.889 -26.925 0.889 -26.925 0.453 62.69
25133.125 0.453 62.658 0.888 -26.957 0.888 -26.957 0.453 62.658
25158.083 0.454 62.626 0.888 -26.99 0.888 -26.99 0.454 62.626
25183.042 0.454 62.594 0.888 -27.022 0.888 -27.022 0.454 62.594
25208 0.455 62.562 0.888 -27.055 0.888 -27.055 0.455 62.562
25232.958 0.455 62.53 0.887 -27.087 0.887 -27.087 0.455 62.53
25257.917 0.456 62.498 0.887 -27.119 0.887 -27.119 0.456 62.498
25282.875 0.456 62.466 0.887 -27.152 0.887 -27.152 0.456 62.466
25307.833 0.457 62.434 0.887 -27.184 0.887 -27.184 0.457 62.434
25332.792 0.457 62.403 0.886 -27.216 0.886 -27.216 0.457 62.403
25357.75 0.458 62.371 0.886 -27.249 0.886 -27.249 0.458 62.371
25382.708 0.458 62.339 0.886 -27.281 0.886 -27.281 0.458 62.339
25407.667 0.459 62.308 0.885 -27.313 0.885 -27.313 0.459 62.308
25432.625 0.459 62.276 0.885 -27.345 0.885 -27.345 0.459 62.276
25457.583 0.46 62.244 0.885 -27.377 0.885 -27.377 0.46 62.244
25482.542 0.46 62.213 0.885 -27.41 0.885 -27.41 0.46 62.213
25507.5 0.461 62.181 0.884 -27.442 0.884 -27.442 0.461 62.181
25532.458 0.461 62.15 0.884 -27.474 0.884 -27.474 0.461 62.15
25557.417 0.462 62.118 0.884 -27.506 0.884 -27.506 0.462 62.118
25582.375 0.462 62.087 0.884 -27.538 0.884 -27.538 0.462 62.087
25607.333 0.463 62.055 0.883 -27.57 0.883 -27.57 0.463 62.055
25632.292 0.463 62.024 0.883 -27.602 0.883 -27.602 0.463 62.024
25657.25 0.464 61.992 0.883 -27.634 0.883 -27.634 0.464 61.992
25682.208 0.464 61.961 0.883 -27.666 0.883 -27.666 0.464 61.961
25707.167 0.465 61.929 0.882 -27.697 0.882 -27.697 0.465 61.929
25732.125 0.465 61.898 0.882 -27.729 0.882 -27.729 0.465 61.898
25757.083 0.466 61.867 0.882 -27.761 0.882 -27.761 0.466 61.867
25782.042 0.466 61.835 0.882 -27.793 0.882 -27.793 0.466 61.835
25807 0.467 61.804 0.881 -27.825 0.881 -27.825 0.467 61.804
25831.958 0.467 61.773 0.881 -27.856 0.881 -27.856 0.467 61.773
25856.917 0.468 61.742 0.881 -27.888 0.881 -27.888 0.468 61.742
25881.875 0.468 61.711 0.881 -27.92 0.881 -27.92 0.468 61.711
25906.833 0.469 61.679 0.88 -27.951 0.88 -27.951 0.469 61.679
25931.792 0.469 61.648 0.88 -27.983 0.88 -27.983 0.469 61.648
25956.75 0.47 61.617 0.88 -28.015 0.88 -28.015 0.47 61.617
25981.708 0.47 61.586 0.88 -28.046 0.88 -28.046 0.47 61.586
26006.667 0.471 61.555 0.879 -28.078 0.879 -28.078 0.471 61.555
26031.625 0.471 61.524 0.879 -28.109 0.879 -28.109 0.471 61.524
26056.583 0.472 61.493 0.879 -28.141 0.879 -28.141 0.472 61.493
26081.542 0.472 61.462 0.879 -28.172 0.879 -28.172 0.472 61.462
26106.5 0.473 61.431 0.878 -28.204 0.878 -28.204 0.473 61.431
26131.458 0.473 61.4 0.878 -28.235 0.878 -28.235 0.473 61.4
26156.417 0.474 61.369 0.878 -28.267 0.878 -28.267 0.474 61.369
26181.375 0.474 61.338 0.877 -28.298 0.877 -28.298 0.474 61.338
26206.333 0.475 61.307 0.877 -28.329 0.877 -28.329 0.475 61.307
26231.292 0.475 61.277 0.877 -28.361 0.877 -28.361 0.475 61.277
26256.25 0.476 61.246 0.877 -28.392 0.877 -28.392 0.476 61.246
26281.208 0.476 61.215 0.876 -28.423 0.876 -28.423 0.476 61.215
26306.167 0.476 61.184 0.876 -28.454 0.876 -28.454 0.476 61.184
26331.125 0.477 61.153 0.876 -28.485 0.876 -28.485 0.477 61.153
26356.083 0.477 61.123 0.876 -28.517 0.876 -28.517 0.477 61.123
26381.042 0.478 61.092 0.875 -28.548 0.875 -28.548 0.478 61.092
26406 0.478 61.061 0.875 -28.579 0.875 -28.579 0.478 61.061
26430.958 0.479 61.031 0.875 -28.61 0.875 -28.61 0.479 61.031
26455.917 0.479 61 0.875 -28.641 0.875 -28.641 0.479 61
26480.875 0.48 60.97 0.874 -28.672 0.874 -28.672 0.48 60.97
26505.833 0.48 60.939 0.874 -28.703 0.874 -28.703 0.48 60.939
26530.792 0.481 60.909 0.874 -28.734 0.874 -28.734 0.481 60.909
26555.75 0.481 60.878 0.874 -28.765 0.874 -28.765 0.481 60.878
26580.708 0.482 60.848 0.873 -28.796 0.873 -28.796 0.482 60.848
26605.667 0.482 60.817 0.873 -28.827 0.873 -28.827 0.482 60.817
26630.625 0.483 60.787 0.873 -28.858 0.873 -28.858 0.483 60.787
26655.583 0.483 60.756 0.873 -28.889 0.873 -28.889 0.483 60.756
26680.542 0.484 60.726 0.872 -28.92 0.872 -28.92 0.484 60.726
26705.5 0.484 60.695 0.872 -28.95 0.872 -28.95 0.484 60.695
26730.458 0.485 60.665 0.872 -28.981 0.872 -28.981 0.485 60.665
26755.417 0.485 60.635 0.872 -29.012 0.872 -29.012 0.485 60.635
26780.375 0.485 60.605 0.871 -29.043 0.871 -29.043 0.485 60.605
26805.333 0.486 60.574 0.871 -29.073 0.871 -29.073 0.486 60.574
26830.292 0.486 60.544 0.871 -29.104 0.871 -29.104 0.486 60.544
26855.25 0.487 60.514 0.87 -29.135 0.87 -29.135 0.487 60.514
26880.208 0.487 60.484 0.87 -29.165 0.87 -29.165 0.487 60.484
26905.167 0.488 60.453 0.87 -29.196 0.87 -29.196 0.488 60.453
26930.125 0.488 60.423 0.87 -29.227 0.87 -29.227 0.488 60.423
26955.083 0.489 60.393 0.869 -29.257 0.869 -29.257 0.489 60.393
26980.042 0.489 60.363 0.869 -29.288 0.869 -29.288 0.489 60.363
27005 0.49 60.333 0.869 -29.318 0.869 -29.318 0.49 60.333
27029.958 0.49 60.303 0.869 -29.349 0.869 -29.349 0.49 60.303
27054.917 0.491 60.273 0.868 -29.379 0.868 -29.379 0.491 60.273
27079.875 0.491 60.243 0.868 -29.409 0.868 -29.409 0.491 60.243
27104.833 0.492 60.213 0.868 -29.44 0.868 -29.44 0.492 60.213
27129.792 0.492 60.183 0.868 -29.47 0.868 -29.47 0.492 60.183
27154.75 0.492 60.153 0.867 -29.501 0.867 -29.501 0.492 60.153
27179.708 0.493 60.123 0.867 -29.531 0.867 -29.531 0.493 60.123
27204.667 0.493 60.093 0.867 -29.561 0.867 -29.561 0.493 60.093
27229.625 0.494 60.064 0.867 -29.591 0.867 -29.591 0.494 60.064
27254.583 0.494 60.034 0.866 -29.622 0.866 -29.622 0.494 60.034
27279.542 0.495 60.004 0.866 -29.652 0.866 -29.652 0.495 60.004
27304.5 0.495 59.974 0.866 -29.682 0.866 -29.682 0.495 59.974
27329.458 0.496 59.944 0.866 -29.712 0.866 -29.712 0.496 59.944
27354.417 0.496 59.915 0.865 -29.742 0.865 -29.742 0.496 59.915
27379.375 0.497 59.885 0.865 -29.773 0.865 -29.773 0.497 59.885
27404.333 0.497 59.855 0.865 -29.803 0.865 -29.803 0.497 59.855
27429.292 0.497 59.826 0.865 -29.833 0.865 -29.833 0.497 59.826
27454.25 0.498 59.796 0.864 -29.863 0.864 -29.863 0.498 59.796
27479.208 0.498 59.766 0.864 -29.893 0.864 -29.893 0.498 59.766
27504.167 0.499 59.737 0.864 -29.923 0.864 -29.923 0.499 59.737
27529.125 0.499 59.707 0.863 -29.953 0.863 -29.953 0.499 59.707
27554.083 0.5 59.678 0.863 -29.983 0.863 -29.983 0.5 59.678
27579.042 0.5 59.648 0.863 -30.013 0.863 -30.013 0.5 59.648
27604 0.501 59.619 0.863 -30.043 0.863 -30.043 0.501 59.619
27628.958 0.501 59.589 0.862 -30.072 0.862 -30.072 0.501 59.589
27653.917 0.502 59.56 0.862 -30.102 0.862 -30.102 0.502 59.56
27678.875 0.502 59.53 0.862 -30.132 0.862 -30.132 0.502 59.53
27703.833 0.502 59.501 0.862 -30.162 0.862 -30.162 0.502 59.501
27728.792 0.503 59.472 0.861 -30.192 0.861 -30.192 0.503 59.472
27753.75 0.503 59.442 0.861 -30.221 0.861 -30.221 0.503 59.442
27778.708 0.504 59.413 0.861 -30.251 0.861 -30.251 0.504 59.413
27803.667 0.504 59.384 0.861 -30.281 0.861 -30.281 0.504 59.384
27828.625 0.505 59.354 0.86 -30.311 0.86 -30.311 0.505 59.354
27853.583 0.505 59.325 0.86 -30.34 0.86 -30.34 0.505 59.325
27878.542 0.506 59.296 0.86 -30.37 0.86 -30.37 0.506 59.296
27903.5 0.506 59.267 0.86 -30.399 0.86 -30.399 0.506 59.267
27928.458 0.506 59.237 0.859 -30.429 0.859 -30.429 0.506 59.237
27953.417 0.507 59.208 0.859 -30.459 0.859 -30.459 0.507 59.208
27978.375 0.507 59.179 0.859 -30.488 0.859 -30.488 0.507 59.179
28003.333 0.508 59.15 0.859 -30.518 0.859 -30.518 0.508 59.15
28028.292 0.508 59.121 0.858 -30.547 0.858 -30.547 0.508 59.121
28053.25 0.509 59.092 0.858 -30.577 0.858 -30.577 0.509 59.092
28078.208 0.509 59.063 0.858 -30.606 0.858 -30.606 0.509 59.063
28103.167 0.51 59.034 0.857 -30.635 0.857 -30.635 0.51 59.034
28128.125 0.51 59.005 0.857 -30.665 0.857 -30.665 0.51 59.005
28153.083 0.51 58.976 0.857 -30.694 0.857 -30.694 0.51 58.976
28178.042 0.511 58.947 0.857 -30.723 0.857 -30.723 0.511 58.947
28203 0.511 58.918 0.856 -30.753 0.856 -30.753 0.511 58.918
28227.958 0.512 58.889 0.856 -30.782 0.856 -30.782 0.512 58.889
28252.917 0.512 58.86 0.856 -30.811 0.856 -30.811 0.512 58.86
28277.875 0.513 58.831 0.856 -30.841 0.856 -30.841 0.513 58.831
28302.833 0.513 58.802 0.855 -30.87 0.855 -30.87 0.513 58.802
28327.792 0.514 58.774 0.855 -30.899 0.855 -30.899 0.514 58.774
28352.75 0.514 58.745 0.855 -30.928 0.855 -30.928 0.514 58.745
28377.708 0.514 58.716 0.855 -30.957 0.855 -30.957 0.514 58.716
28402.667 0.515 58.687 0.854 -30.986 0.854 -30.986 0.515 58.687
28427.625 0.515 58.659 0.854 -31.016 0.854 -31.016 0.515 58.659
28452.583 0.516 58.63 0.854 -31.045 0.854 -31.045 0.516 58.63
28477.542 0.516 58.601 0.854 -31.074 0.854 -31.074 0.516 58.601
28502.5 0.517 58.573 0.853 -31.103 0.853 -31.103 0.517 58.573
28527.458 0.517 58.544 0.853 -31.132 0.853 -31.132 0.517 58.544
28552.417 0.517 58.515 0.853 -31.161 0.853 -31.161 0.517 58.515
28577.375 0.518 58.487 0.853 -31.19 0.853 -31.19 0.518 58.487
28602.333 0.518 58.458 0.852 -31.219 0.852 -31.219 0.518 58.458
28627.292 0.519 58.43 0.852 -31.247 0.852 -31.247 0.519 58.43
28652.25 0.519 58.401 0.852 -31.276 0.852 -31.276 0.519 58.401
28677.208 0.52 58.373 0.851 -31.305 0.851 -31.305 0.52 58.373
28702.167 0.52 58.344 0.851 -31.334 0.851 -31.334 0.52 58.344
28727.125 0.52 58.316 0.851 -31.363 0.851 -31.363 0.52 58.316
28752.083 0.521 58.287 0.851 -31.392 0.851 -31.392 0.521 58.287
28777.042 0.521 58.259 0.85 -31.42 0.85 -31.42 0.521 58.259
28802 0.522 58.231 0.85 -31.449 0.85 -31.449 0.522 58.231
28826.958 0.522 58.202 0.85 -31.478 0.85 -31.478 0.522 58.202
28851.917 0.523 58.174 0.85 -31.507 0.85 -31.507 0.523 58.174
28876.875 0.523 58.146 0.849 -31.535 0.849 -31.535 0.523 58.146
28901.833 0.523 58.117 0.849 -31.564 0.849 -31.564 0.523 58.117
28926.792 0.524 58.089 0.849 -31.593 0.849 -31.593 0.524 58.089
28951.75 0.524 58.061 0.849 -31.621 0.849 -31.621 0.524 58.061
28976.708 0.525 58.032 0.848 -31.65 0.848 -31.65 0.525 58.032
29001.667 0.525 58.004 0.848 -31.678 0.848 -31.678 0.525 58.004
29026.625 0.526 57.976 0.848 -31.707 0.848 -31.707 0.526 57.976
29051.583 0.526 57.948 0.848 -31.735 0.848 -31.735 0.526 57.948
29076.542 0.526 57.92 0.847 -31.764 0.847 -31.764 0.526 57.92
29101.5 0.527 57.892 0.847 -31.792 0.847 -31.792 0.527 57.892
29126.458 0.527 57.864 0.847 -31.821 0.847 -31.821 0.527 57.864
29151.417 0.528 57.836 0.847 -31.849 0.847 -31.849 0.528 57.836
29176.375 0.528 57.807 0.846 -31.878 0.846 -31.878 0.528 57.807
29201.333 0.529 57.779 0.846 -31.906 0.846 -31.906 0.529 57.779
29226.292 0.529 57.751 0.846 -31.934 0.846 -31.934 0.529 57.751
29251.25 0.529 57.723 0.845 -31.963 0.845 -31.963 0.529 57.723
29276.208 0.53 57.696 0.845 -31.991 0.845 -31.991 0.53 57.696
29301.167 0.53 57.668 0.845 -32.019 0.845 -32.019 0.53 57.668
29326.125 0.531 57.64 0.845 -32.047 0.845 -32.047 0.531 57.64
29351.083 0.531 57.612 0.844 -32.076 0.844 -32.076 0.531 57.612
29376.042 0.531 57.584 0.844 -32.104 0.844 -32.104 0.531 57.584
29401 0.532 57.556 0.844 -32.132 0.844 -32.132 0.532 57.556
29425.958 0.532 57.528 0.844 -32.16 0.844 -32.16 0.532 57.528
29450.917 0.533 57.5 0.843 -32.188 0.843 -32.188 0.533 57.5
29475.875 0.533 57.473 0.843 -32.216 0.843 -32.216 0.533 57.473
29500.833 0.534 57.445 0.843 -32.245 0.843 -32.245 0.534 57.445
29525.792 0.534 57.417 0.843 -32.273 0.843 -32.273 0.534 57.417
29550.75 0.534 57.389 0.842 -32.301 0.842 -32.301 0.534 57.389
29575.708 0.535 57.362 0.842 -32.329 0.842 -32.329 0.535 57.362
29600.667 0.535 57.334 0.842 -32.357 0.842 -32.357 0.535 57.334
29625.625 0.536 57.306 0.842 -32.385 0.842 -32.385 0.536 57.306
29650.583 0.536 57.279 0.841 -32.413 0.841 -32.413 0.536 57.279
29675.542 0.536 57.251 0.841 -32.441 0.841 -32.441 0.536 57.251
29700.5 0.537 57.224 0.841 -32.469 0.841 -32.469 0.537 57.224
29725.458 0.537 57.196 0.841 -32.496 0.841 -32.496 0.537 57.196
29750.417 0.538 57.168 0.84 -32.524 0.84 -32.524 0.538 57.168
29775.375 0.538 57.141 0.84 -32.552 0.84 -32.552 0.538 57.141
29800.333 0.538 57.113 0.84 -32.58 0.84 -32.58 0.538 57.113
29825.292 0.539 57.086 0.839 -32.608 0.839 -32.608 0.539 57.086
29850.25 0.539 57.058 0.839 -32.636 0.839 -32.636 0.539 57.058
29875.208 0.54 57.031 0.839 -32.663 0.839 -32.663 0.54 57.031
29900.167 0.54 57.004 0.839 -32.691 0.839 -32.691 0.54 57.004
29925.125 0.541 56.976 0.838 -32.719 0.838 -32.719 0.541 56.976
29950.083 0.541 56.949 0.838 -32.747 0.838 -32.747 0.541 56.949
29975.042 0.541 56.922 0.838 -32.774 0.838 -32.774 0.541 56.922
30000 0.542 56.894 0.838 -32.802 0.838 -32.802 0.542 56.894
