!	AVX Thin Film Operation 	Date: April 2014		
!	Description: Accu-P® Series, Thin Film  SMD RF Capacitor
!	Part Number: 04023K470FBSTR					
!
# MHZ S MA R 50

50 0.56 -55.925 0.828 34.052 0.828 34.052 0.56 -55.925
74.958 0.41 -65.749 0.912 24.216 0.912 24.216 0.41 -65.749
99.917 0.319 -71.365 0.948 18.589 0.948 18.589 0.319 -71.365
124.875 0.259 -74.94 0.966 15.002 0.966 15.002 0.259 -74.94
149.833 0.217 -77.402 0.976 12.528 0.976 12.528 0.217 -77.402
174.792 0.186 -79.198 0.982 10.72 0.982 10.72 0.186 -79.198
199.75 0.162 -80.565 0.986 9.341 0.986 9.341 0.162 -80.565
224.708 0.144 -81.64 0.989 8.253 0.989 8.253 0.144 -81.64
249.667 0.128 -82.509 0.991 7.371 0.991 7.371 0.128 -82.509
274.625 0.116 -83.226 0.993 6.641 0.993 6.641 0.116 -83.226
299.583 0.105 -83.829 0.994 6.024 0.994 6.024 0.105 -83.829
324.542 0.096 -84.343 0.995 5.496 0.995 5.496 0.096 -84.343
349.5 0.088 -84.787 0.996 5.037 0.996 5.037 0.088 -84.787
374.458 0.081 -85.174 0.996 4.635 0.996 4.635 0.081 -85.174
399.417 0.075 -85.516 0.997 4.277 0.997 4.277 0.075 -85.516
424.375 0.069 -85.819 0.997 3.958 0.997 3.958 0.069 -85.819
449.333 0.064 -86.089 0.998 3.67 0.998 3.67 0.064 -86.089
474.292 0.059 -86.332 0.998 3.408 0.998 3.408 0.059 -86.332
499.25 0.055 -86.552 0.998 3.168 0.998 3.168 0.055 -86.552
524.208 0.051 -86.751 0.998 2.948 0.998 2.948 0.051 -86.751
549.167 0.048 -86.932 0.999 2.745 0.999 2.745 0.048 -86.932
574.125 0.045 -87.097 0.999 2.556 0.999 2.556 0.045 -87.097
599.083 0.042 -87.248 0.999 2.38 0.999 2.38 0.042 -87.248
624.042 0.039 -87.385 0.999 2.215 0.999 2.215 0.039 -87.385
649 0.036 -87.51 0.999 2.06 0.999 2.06 0.036 -87.51
673.958 0.033 -87.623 0.999 1.914 0.999 1.914 0.033 -87.623
698.917 0.031 -87.725 0.999 1.776 0.999 1.776 0.031 -87.725
723.875 0.029 -87.817 0.999 1.645 0.999 1.645 0.029 -87.817
748.833 0.027 -87.897 0.999 1.52 0.999 1.52 0.027 -87.897
773.792 0.024 -87.967 0.999 1.401 0.999 1.401 0.024 -87.967
798.75 0.022 -88.025 0.999 1.287 0.999 1.287 0.022 -88.025
823.708 0.021 -88.07 1 1.177 1 1.177 0.021 -88.07
848.667 0.019 -88.101 1 1.073 1 1.073 0.019 -88.101
873.625 0.017 -88.116 1 0.972 1 0.972 0.017 -88.116
898.583 0.015 -88.112 1 0.874 1 0.874 0.015 -88.112
923.542 0.014 -88.084 1 0.78 1 0.78 0.014 -88.084
948.5 0.012 -88.025 1 0.689 1 0.689 0.012 -88.025
973.458 0.01 -87.925 1 0.601 1 0.601 0.01 -87.925
998.417 9.008e-3 -87.767 1 0.516 1 0.516 9.008e-3 -87.767
1023.375 7.56e-3 -87.521 1 0.433 1 0.433 7.56e-3 -87.521
1048.333 6.151e-3 -87.132 1 0.352 1 0.352 6.151e-3 -87.132
1073.292 4.779e-3 -86.488 1 0.273 1 0.273 4.779e-3 -86.488
1098.25 3.443e-3 -85.306 1 0.197 1 0.197 3.443e-3 -85.306
1123.208 2.142e-3 -82.637 1 0.122 1 0.122 2.142e-3 -82.637
1148.167 889.2e-6 -72.276 1 0.049 1 0.049 889.2e-6 -72.276
1173.125 484.7e-6 56.129 1 -0.023 1 -0.023 484.7e-6 56.129
1198.083 1.649e-3 80.481 1 -0.093 1 -0.093 1.649e-3 80.481
1223.042 2.838e-3 84.38 1 -0.162 1 -0.162 2.838e-3 84.38
1248 4.011e-3 85.911 1 -0.229 1 -0.229 4.011e-3 85.911
1272.958 5.163e-3 86.707 1 -0.295 1 -0.295 5.163e-3 86.707
1297.917 6.295e-3 87.182 1 -0.36 1 -0.36 6.295e-3 87.182
1322.875 7.409e-3 87.488 1 -0.424 1 -0.424 7.409e-3 87.488
1347.833 8.505e-3 87.694 1 -0.487 1 -0.487 8.505e-3 87.694
1372.792 9.583e-3 87.837 1 -0.549 1 -0.549 9.583e-3 87.837
1397.75 0.011 87.937 1 -0.61 1 -0.61 0.011 87.937
1422.708 0.012 88.007 1 -0.67 1 -0.67 0.012 88.007
1447.667 0.013 88.055 1 -0.729 1 -0.729 0.013 88.055
1472.625 0.014 88.087 1 -0.787 1 -0.787 0.014 88.087
1497.583 0.015 88.106 1 -0.845 1 -0.845 0.015 88.106
1522.542 0.016 88.116 1 -0.902 1 -0.902 0.016 88.116
1547.5 0.017 88.117 1 -0.958 1 -0.958 0.017 88.117
1572.458 0.018 88.112 1 -1.014 1 -1.014 0.018 88.112
1597.417 0.019 88.102 1 -1.068 1 -1.068 0.019 88.102
1622.375 0.02 88.088 1 -1.123 1 -1.123 0.02 88.088
1647.333 0.021 88.07 1 -1.177 1 -1.177 0.021 88.07
1672.292 0.021 88.05 0.999 -1.23 0.999 -1.23 0.021 88.05
1697.25 0.022 88.027 0.999 -1.282 0.999 -1.282 0.022 88.027
1722.208 0.023 88.001 0.999 -1.335 0.999 -1.335 0.023 88.001
1747.167 0.024 87.974 0.999 -1.386 0.999 -1.386 0.024 87.974
1772.125 0.025 87.946 0.999 -1.438 0.999 -1.438 0.025 87.946
1797.083 0.026 87.916 0.999 -1.488 0.999 -1.488 0.026 87.916
1822.042 0.027 87.885 0.999 -1.539 0.999 -1.539 0.027 87.885
1847 0.028 87.853 0.999 -1.589 0.999 -1.589 0.028 87.853
1871.958 0.029 87.821 0.999 -1.639 0.999 -1.639 0.029 87.821
1896.917 0.029 87.787 0.999 -1.688 0.999 -1.688 0.029 87.787
1921.875 0.03 87.753 0.999 -1.737 0.999 -1.737 0.03 87.753
1946.833 0.031 87.718 0.999 -1.785 0.999 -1.785 0.031 87.718
1971.792 0.032 87.683 0.999 -1.834 0.999 -1.834 0.032 87.683
1996.75 0.033 87.648 0.999 -1.881 0.999 -1.881 0.033 87.648
2021.708 0.034 87.612 0.999 -1.929 0.999 -1.929 0.034 87.612
2046.667 0.034 87.575 0.999 -1.976 0.999 -1.976 0.034 87.575
2071.625 0.035 87.539 0.999 -2.023 0.999 -2.023 0.035 87.539
2096.583 0.036 87.502 0.999 -2.07 0.999 -2.07 0.036 87.502
2121.542 0.037 87.465 0.999 -2.117 0.999 -2.117 0.037 87.465
2146.5 0.038 87.428 0.999 -2.163 0.999 -2.163 0.038 87.428
2171.458 0.039 87.39 0.999 -2.209 0.999 -2.209 0.039 87.39
2196.417 0.039 87.352 0.999 -2.255 0.999 -2.255 0.039 87.352
2221.375 0.04 87.315 0.999 -2.3 0.999 -2.3 0.04 87.315
2246.333 0.041 87.277 0.999 -2.345 0.999 -2.345 0.041 87.277
2271.292 0.042 87.239 0.999 -2.39 0.999 -2.39 0.042 87.239
2296.25 0.042 87.201 0.999 -2.435 0.999 -2.435 0.042 87.201
2321.208 0.043 87.163 0.999 -2.48 0.999 -2.48 0.043 87.163
2346.167 0.044 87.125 0.999 -2.524 0.999 -2.524 0.044 87.125
2371.125 0.045 87.086 0.999 -2.569 0.999 -2.569 0.045 87.086
2396.083 0.046 87.048 0.999 -2.613 0.999 -2.613 0.046 87.048
2421.042 0.046 87.01 0.999 -2.657 0.999 -2.657 0.046 87.01
2446 0.047 86.972 0.999 -2.701 0.999 -2.701 0.047 86.972
2470.958 0.048 86.933 0.999 -2.744 0.999 -2.744 0.048 86.933
2495.917 0.049 86.895 0.999 -2.788 0.999 -2.788 0.049 86.895
2520.875 0.049 86.856 0.999 -2.831 0.999 -2.831 0.049 86.856
2545.833 0.05 86.818 0.998 -2.874 0.998 -2.874 0.05 86.818
2570.792 0.051 86.78 0.998 -2.917 0.998 -2.917 0.051 86.78
2595.75 0.052 86.741 0.998 -2.96 0.998 -2.96 0.052 86.741
2620.708 0.052 86.703 0.998 -3.002 0.998 -3.002 0.052 86.703
2645.667 0.053 86.664 0.998 -3.045 0.998 -3.045 0.053 86.664
2670.625 0.054 86.626 0.998 -3.087 0.998 -3.087 0.054 86.626
2695.583 0.055 86.588 0.998 -3.13 0.998 -3.13 0.055 86.588
2720.542 0.055 86.549 0.998 -3.172 0.998 -3.172 0.055 86.549
2745.5 0.056 86.511 0.998 -3.214 0.998 -3.214 0.056 86.511
2770.458 0.057 86.472 0.998 -3.256 0.998 -3.256 0.057 86.472
2795.417 0.058 86.434 0.998 -3.297 0.998 -3.297 0.058 86.434
2820.375 0.058 86.396 0.998 -3.339 0.998 -3.339 0.058 86.396
2845.333 0.059 86.358 0.998 -3.381 0.998 -3.381 0.059 86.358
2870.292 0.06 86.319 0.998 -3.422 0.998 -3.422 0.06 86.319
2895.25 0.06 86.281 0.998 -3.463 0.998 -3.463 0.06 86.281
2920.208 0.061 86.243 0.998 -3.505 0.998 -3.505 0.061 86.243
2945.167 0.062 86.205 0.998 -3.546 0.998 -3.546 0.062 86.205
2970.125 0.063 86.166 0.998 -3.587 0.998 -3.587 0.063 86.166
2995.083 0.063 86.128 0.998 -3.628 0.998 -3.628 0.063 86.128
3020.042 0.064 86.09 0.998 -3.669 0.998 -3.669 0.064 86.09
3045 0.065 86.052 0.998 -3.709 0.998 -3.709 0.065 86.052
3069.958 0.065 86.014 0.998 -3.75 0.998 -3.75 0.065 86.014
3094.917 0.066 85.976 0.998 -3.791 0.998 -3.791 0.066 85.976
3119.875 0.067 85.938 0.997 -3.831 0.997 -3.831 0.067 85.938
3144.833 0.068 85.9 0.997 -3.872 0.997 -3.872 0.068 85.9
3169.792 0.068 85.862 0.997 -3.912 0.997 -3.912 0.068 85.862
3194.75 0.069 85.824 0.997 -3.952 0.997 -3.952 0.069 85.824
3219.708 0.07 85.786 0.997 -3.992 0.997 -3.992 0.07 85.786
3244.667 0.07 85.748 0.997 -4.032 0.997 -4.032 0.07 85.748
3269.625 0.071 85.71 0.997 -4.072 0.997 -4.072 0.071 85.71
3294.583 0.072 85.672 0.997 -4.112 0.997 -4.112 0.072 85.672
3319.542 0.072 85.635 0.997 -4.152 0.997 -4.152 0.072 85.635
3344.5 0.073 85.597 0.997 -4.192 0.997 -4.192 0.073 85.597
3369.458 0.074 85.559 0.997 -4.232 0.997 -4.232 0.074 85.559
3394.417 0.074 85.521 0.997 -4.272 0.997 -4.272 0.074 85.521
3419.375 0.075 85.484 0.997 -4.311 0.997 -4.311 0.075 85.484
3444.333 0.076 85.446 0.997 -4.351 0.997 -4.351 0.076 85.446
3469.292 0.077 85.408 0.997 -4.39 0.997 -4.39 0.077 85.408
3494.25 0.077 85.371 0.997 -4.43 0.997 -4.43 0.077 85.371
3519.208 0.078 85.333 0.997 -4.469 0.997 -4.469 0.078 85.333
3544.167 0.079 85.296 0.997 -4.508 0.997 -4.508 0.079 85.296
3569.125 0.079 85.258 0.997 -4.548 0.997 -4.548 0.079 85.258
3594.083 0.08 85.22 0.997 -4.587 0.997 -4.587 0.08 85.22
3619.042 0.081 85.183 0.996 -4.626 0.996 -4.626 0.081 85.183
3644 0.081 85.145 0.996 -4.665 0.996 -4.665 0.081 85.145
3668.958 0.082 85.108 0.996 -4.704 0.996 -4.704 0.082 85.108
3693.917 0.083 85.071 0.996 -4.743 0.996 -4.743 0.083 85.071
3718.875 0.083 85.033 0.996 -4.782 0.996 -4.782 0.083 85.033
3743.833 0.084 84.996 0.996 -4.821 0.996 -4.821 0.084 84.996
3768.792 0.085 84.958 0.996 -4.86 0.996 -4.86 0.085 84.958
3793.75 0.085 84.921 0.996 -4.898 0.996 -4.898 0.085 84.921
3818.708 0.086 84.884 0.996 -4.937 0.996 -4.937 0.086 84.884
3843.667 0.087 84.847 0.996 -4.976 0.996 -4.976 0.087 84.847
3868.625 0.087 84.809 0.996 -5.014 0.996 -5.014 0.087 84.809
3893.583 0.088 84.772 0.996 -5.053 0.996 -5.053 0.088 84.772
3918.542 0.089 84.735 0.996 -5.091 0.996 -5.091 0.089 84.735
3943.5 0.089 84.698 0.996 -5.13 0.996 -5.13 0.089 84.698
3968.458 0.09 84.661 0.996 -5.168 0.996 -5.168 0.09 84.661
3993.417 0.091 84.623 0.996 -5.207 0.996 -5.207 0.091 84.623
4018.375 0.091 84.586 0.996 -5.245 0.996 -5.245 0.091 84.586
4043.333 0.092 84.549 0.995 -5.283 0.995 -5.283 0.092 84.549
4068.292 0.093 84.512 0.995 -5.322 0.995 -5.322 0.093 84.512
4093.25 0.093 84.475 0.995 -5.36 0.995 -5.36 0.093 84.475
4118.208 0.094 84.438 0.995 -5.398 0.995 -5.398 0.094 84.438
4143.167 0.095 84.401 0.995 -5.436 0.995 -5.436 0.095 84.401
4168.125 0.095 84.364 0.995 -5.474 0.995 -5.474 0.095 84.364
4193.083 0.096 84.327 0.995 -5.513 0.995 -5.513 0.096 84.327
4218.042 0.097 84.29 0.995 -5.551 0.995 -5.551 0.097 84.29
4243 0.097 84.253 0.995 -5.589 0.995 -5.589 0.097 84.253
4267.958 0.098 84.216 0.995 -5.627 0.995 -5.627 0.098 84.216
4292.917 0.099 84.179 0.995 -5.665 0.995 -5.665 0.099 84.179
4317.875 0.099 84.143 0.995 -5.702 0.995 -5.702 0.099 84.143
4342.833 0.1 84.106 0.995 -5.74 0.995 -5.74 0.1 84.106
4367.792 0.101 84.069 0.995 -5.778 0.995 -5.778 0.101 84.069
4392.75 0.101 84.032 0.995 -5.816 0.995 -5.816 0.101 84.032
4417.708 0.102 83.995 0.995 -5.854 0.995 -5.854 0.102 83.995
4442.667 0.103 83.959 0.994 -5.891 0.994 -5.891 0.103 83.959
4467.625 0.103 83.922 0.994 -5.929 0.994 -5.929 0.103 83.922
4492.583 0.104 83.885 0.994 -5.967 0.994 -5.967 0.104 83.885
4517.542 0.105 83.848 0.994 -6.004 0.994 -6.004 0.105 83.848
4542.5 0.105 83.812 0.994 -6.042 0.994 -6.042 0.105 83.812
4567.458 0.106 83.775 0.994 -6.08 0.994 -6.08 0.106 83.775
4592.417 0.107 83.738 0.994 -6.117 0.994 -6.117 0.107 83.738
4617.375 0.107 83.702 0.994 -6.155 0.994 -6.155 0.107 83.702
4642.333 0.108 83.665 0.994 -6.192 0.994 -6.192 0.108 83.665
4667.292 0.109 83.629 0.994 -6.23 0.994 -6.23 0.109 83.629
4692.25 0.109 83.592 0.994 -6.267 0.994 -6.267 0.109 83.592
4717.208 0.11 83.555 0.994 -6.304 0.994 -6.304 0.11 83.555
4742.167 0.11 83.519 0.994 -6.342 0.994 -6.342 0.11 83.519
4767.125 0.111 83.482 0.994 -6.379 0.994 -6.379 0.111 83.482
4792.083 0.112 83.446 0.993 -6.417 0.993 -6.417 0.112 83.446
4817.042 0.112 83.409 0.993 -6.454 0.993 -6.454 0.112 83.409
4842 0.113 83.373 0.993 -6.491 0.993 -6.491 0.113 83.373
4866.958 0.114 83.336 0.993 -6.528 0.993 -6.528 0.114 83.336
4891.917 0.114 83.3 0.993 -6.566 0.993 -6.566 0.114 83.3
4916.875 0.115 83.264 0.993 -6.603 0.993 -6.603 0.115 83.264
4941.833 0.116 83.227 0.993 -6.64 0.993 -6.64 0.116 83.227
4966.792 0.116 83.191 0.993 -6.677 0.993 -6.677 0.116 83.191
4991.75 0.117 83.154 0.993 -6.714 0.993 -6.714 0.117 83.154
5016.708 0.118 83.118 0.993 -6.751 0.993 -6.751 0.118 83.118
5041.667 0.118 83.082 0.993 -6.788 0.993 -6.788 0.118 83.082
5066.625 0.119 83.045 0.993 -6.825 0.993 -6.825 0.119 83.045
5091.583 0.119 83.009 0.993 -6.862 0.993 -6.862 0.119 83.009
5116.542 0.12 82.973 0.992 -6.899 0.992 -6.899 0.12 82.973
5141.5 0.121 82.937 0.992 -6.936 0.992 -6.936 0.121 82.937
5166.458 0.121 82.9 0.992 -6.973 0.992 -6.973 0.121 82.9
5191.417 0.122 82.864 0.992 -7.01 0.992 -7.01 0.122 82.864
5216.375 0.123 82.828 0.992 -7.047 0.992 -7.047 0.123 82.828
5241.333 0.123 82.792 0.992 -7.084 0.992 -7.084 0.123 82.792
5266.292 0.124 82.755 0.992 -7.121 0.992 -7.121 0.124 82.755
5291.25 0.125 82.719 0.992 -7.158 0.992 -7.158 0.125 82.719
5316.208 0.125 82.683 0.992 -7.194 0.992 -7.194 0.125 82.683
5341.167 0.126 82.647 0.992 -7.231 0.992 -7.231 0.126 82.647
5366.125 0.127 82.611 0.992 -7.268 0.992 -7.268 0.127 82.611
5391.083 0.127 82.575 0.992 -7.305 0.992 -7.305 0.127 82.575
5416.042 0.128 82.539 0.992 -7.341 0.992 -7.341 0.128 82.539
5441 0.128 82.502 0.991 -7.378 0.991 -7.378 0.128 82.502
5465.958 0.129 82.466 0.991 -7.415 0.991 -7.415 0.129 82.466
5490.917 0.13 82.43 0.991 -7.451 0.991 -7.451 0.13 82.43
5515.875 0.13 82.394 0.991 -7.488 0.991 -7.488 0.13 82.394
5540.833 0.131 82.358 0.991 -7.525 0.991 -7.525 0.131 82.358
5565.792 0.132 82.322 0.991 -7.561 0.991 -7.561 0.132 82.322
5590.75 0.132 82.286 0.991 -7.598 0.991 -7.598 0.132 82.286
5615.708 0.133 82.25 0.991 -7.634 0.991 -7.634 0.133 82.25
5640.667 0.133 82.214 0.991 -7.671 0.991 -7.671 0.133 82.214
5665.625 0.134 82.178 0.991 -7.707 0.991 -7.707 0.134 82.178
5690.583 0.135 82.142 0.991 -7.744 0.991 -7.744 0.135 82.142
5715.542 0.135 82.106 0.991 -7.78 0.991 -7.78 0.135 82.106
5740.5 0.136 82.07 0.99 -7.817 0.99 -7.817 0.136 82.07
5765.458 0.137 82.035 0.99 -7.853 0.99 -7.853 0.137 82.035
5790.417 0.137 81.999 0.99 -7.89 0.99 -7.89 0.137 81.999
5815.375 0.138 81.963 0.99 -7.926 0.99 -7.926 0.138 81.963
5840.333 0.139 81.927 0.99 -7.963 0.99 -7.963 0.139 81.927
5865.292 0.139 81.891 0.99 -7.999 0.99 -7.999 0.139 81.891
5890.25 0.14 81.855 0.99 -8.035 0.99 -8.035 0.14 81.855
5915.208 0.14 81.819 0.99 -8.072 0.99 -8.072 0.14 81.819
5940.167 0.141 81.784 0.99 -8.108 0.99 -8.108 0.141 81.784
5965.125 0.142 81.748 0.99 -8.144 0.99 -8.144 0.142 81.748
5990.083 0.142 81.712 0.99 -8.18 0.99 -8.18 0.142 81.712
6015.042 0.143 81.676 0.989 -8.217 0.989 -8.217 0.143 81.676
6040 0.144 81.64 0.989 -8.253 0.989 -8.253 0.144 81.64
6064.958 0.144 81.605 0.989 -8.289 0.989 -8.289 0.144 81.605
6089.917 0.145 81.569 0.989 -8.325 0.989 -8.325 0.145 81.569
6114.875 0.145 81.533 0.989 -8.362 0.989 -8.362 0.145 81.533
6139.833 0.146 81.497 0.989 -8.398 0.989 -8.398 0.146 81.497
6164.792 0.147 81.462 0.989 -8.434 0.989 -8.434 0.147 81.462
6189.75 0.147 81.426 0.989 -8.47 0.989 -8.47 0.147 81.426
6214.708 0.148 81.39 0.989 -8.506 0.989 -8.506 0.148 81.39
6239.667 0.149 81.355 0.989 -8.542 0.989 -8.542 0.149 81.355
6264.625 0.149 81.319 0.989 -8.578 0.989 -8.578 0.149 81.319
6289.583 0.15 81.283 0.988 -8.614 0.988 -8.614 0.15 81.283
6314.542 0.15 81.248 0.988 -8.65 0.988 -8.65 0.15 81.248
6339.5 0.151 81.212 0.988 -8.686 0.988 -8.686 0.151 81.212
6364.458 0.152 81.177 0.988 -8.723 0.988 -8.723 0.152 81.177
6389.417 0.152 81.141 0.988 -8.759 0.988 -8.759 0.152 81.141
6414.375 0.153 81.105 0.988 -8.795 0.988 -8.795 0.153 81.105
6439.333 0.154 81.07 0.988 -8.83 0.988 -8.83 0.154 81.07
6464.292 0.154 81.034 0.988 -8.866 0.988 -8.866 0.154 81.034
6489.25 0.155 80.999 0.988 -8.902 0.988 -8.902 0.155 80.999
6514.208 0.155 80.963 0.988 -8.938 0.988 -8.938 0.155 80.963
6539.167 0.156 80.928 0.987 -8.974 0.987 -8.974 0.156 80.928
6564.125 0.157 80.892 0.987 -9.01 0.987 -9.01 0.157 80.892
6589.083 0.157 80.857 0.987 -9.046 0.987 -9.046 0.157 80.857
6614.042 0.158 80.821 0.987 -9.082 0.987 -9.082 0.158 80.821
6639 0.158 80.786 0.987 -9.118 0.987 -9.118 0.158 80.786
6663.958 0.159 80.75 0.987 -9.154 0.987 -9.154 0.159 80.75
6688.917 0.16 80.715 0.987 -9.189 0.987 -9.189 0.16 80.715
6713.875 0.16 80.68 0.987 -9.225 0.987 -9.225 0.16 80.68
6738.833 0.161 80.644 0.987 -9.261 0.987 -9.261 0.161 80.644
6763.792 0.162 80.609 0.987 -9.297 0.987 -9.297 0.162 80.609
6788.75 0.162 80.573 0.986 -9.333 0.986 -9.333 0.162 80.573
6813.708 0.163 80.538 0.986 -9.368 0.986 -9.368 0.163 80.538
6838.667 0.163 80.503 0.986 -9.404 0.986 -9.404 0.163 80.503
6863.625 0.164 80.467 0.986 -9.44 0.986 -9.44 0.164 80.467
6888.583 0.165 80.432 0.986 -9.475 0.986 -9.475 0.165 80.432
6913.542 0.165 80.397 0.986 -9.511 0.986 -9.511 0.165 80.397
6938.5 0.166 80.361 0.986 -9.547 0.986 -9.547 0.166 80.361
6963.458 0.166 80.326 0.986 -9.582 0.986 -9.582 0.166 80.326
6988.417 0.167 80.291 0.986 -9.618 0.986 -9.618 0.167 80.291
7013.375 0.168 80.255 0.986 -9.654 0.986 -9.654 0.168 80.255
7038.333 0.168 80.22 0.985 -9.689 0.985 -9.689 0.168 80.22
7063.292 0.169 80.185 0.985 -9.725 0.985 -9.725 0.169 80.185
7088.25 0.17 80.15 0.985 -9.76 0.985 -9.76 0.17 80.15
7113.208 0.17 80.114 0.985 -9.796 0.985 -9.796 0.17 80.114
7138.167 0.171 80.079 0.985 -9.832 0.985 -9.832 0.171 80.079
7163.125 0.171 80.044 0.985 -9.867 0.985 -9.867 0.171 80.044
7188.083 0.172 80.009 0.985 -9.903 0.985 -9.903 0.172 80.009
7213.042 0.173 79.973 0.985 -9.938 0.985 -9.938 0.173 79.973
7238 0.173 79.938 0.985 -9.974 0.985 -9.974 0.173 79.938
7262.958 0.174 79.903 0.985 -10.009 0.985 -10.009 0.174 79.903
7287.917 0.174 79.868 0.984 -10.045 0.984 -10.045 0.174 79.868
7312.875 0.175 79.833 0.984 -10.08 0.984 -10.08 0.175 79.833
7337.833 0.176 79.798 0.984 -10.116 0.984 -10.116 0.176 79.798
7362.792 0.176 79.763 0.984 -10.151 0.984 -10.151 0.176 79.763
7387.75 0.177 79.727 0.984 -10.186 0.984 -10.186 0.177 79.727
7412.708 0.177 79.692 0.984 -10.222 0.984 -10.222 0.177 79.692
7437.667 0.178 79.657 0.984 -10.257 0.984 -10.257 0.178 79.657
7462.625 0.179 79.622 0.984 -10.293 0.984 -10.293 0.179 79.622
7487.583 0.179 79.587 0.984 -10.328 0.984 -10.328 0.179 79.587
7512.542 0.18 79.552 0.983 -10.363 0.983 -10.363 0.18 79.552
7537.5 0.18 79.517 0.983 -10.399 0.983 -10.399 0.18 79.517
7562.458 0.181 79.482 0.983 -10.434 0.983 -10.434 0.181 79.482
7587.417 0.182 79.447 0.983 -10.469 0.983 -10.469 0.182 79.447
7612.375 0.182 79.412 0.983 -10.505 0.983 -10.505 0.182 79.412
7637.333 0.183 79.377 0.983 -10.54 0.983 -10.54 0.183 79.377
7662.292 0.184 79.342 0.983 -10.575 0.983 -10.575 0.184 79.342
7687.25 0.184 79.307 0.983 -10.61 0.983 -10.61 0.184 79.307
7712.208 0.185 79.272 0.983 -10.646 0.983 -10.646 0.185 79.272
7737.167 0.185 79.237 0.982 -10.681 0.982 -10.681 0.185 79.237
7762.125 0.186 79.202 0.982 -10.716 0.982 -10.716 0.186 79.202
7787.083 0.187 79.167 0.982 -10.751 0.982 -10.751 0.187 79.167
7812.042 0.187 79.132 0.982 -10.786 0.982 -10.786 0.187 79.132
7837 0.188 79.097 0.982 -10.822 0.982 -10.822 0.188 79.097
7861.958 0.188 79.063 0.982 -10.857 0.982 -10.857 0.188 79.063
7886.917 0.189 79.028 0.982 -10.892 0.982 -10.892 0.189 79.028
7911.875 0.19 78.993 0.982 -10.927 0.982 -10.927 0.19 78.993
7936.833 0.19 78.958 0.981 -10.962 0.981 -10.962 0.19 78.958
7961.792 0.191 78.923 0.981 -10.997 0.981 -10.997 0.191 78.923
7986.75 0.191 78.888 0.981 -11.032 0.981 -11.032 0.191 78.888
8011.708 0.192 78.853 0.981 -11.068 0.981 -11.068 0.192 78.853
8036.667 0.193 78.819 0.981 -11.103 0.981 -11.103 0.193 78.819
8061.625 0.193 78.784 0.981 -11.138 0.981 -11.138 0.193 78.784
8086.583 0.194 78.749 0.981 -11.173 0.981 -11.173 0.194 78.749
8111.542 0.194 78.714 0.981 -11.208 0.981 -11.208 0.194 78.714
8136.5 0.195 78.679 0.981 -11.243 0.981 -11.243 0.195 78.679
8161.458 0.196 78.645 0.98 -11.278 0.98 -11.278 0.196 78.645
8186.417 0.196 78.61 0.98 -11.313 0.98 -11.313 0.196 78.61
8211.375 0.197 78.575 0.98 -11.348 0.98 -11.348 0.197 78.575
8236.333 0.197 78.54 0.98 -11.383 0.98 -11.383 0.197 78.54
8261.292 0.198 78.506 0.98 -11.418 0.98 -11.418 0.198 78.506
8286.25 0.199 78.471 0.98 -11.453 0.98 -11.453 0.199 78.471
8311.208 0.199 78.436 0.98 -11.488 0.98 -11.488 0.199 78.436
8336.167 0.2 78.402 0.98 -11.522 0.98 -11.522 0.2 78.402
8361.125 0.2 78.367 0.979 -11.557 0.979 -11.557 0.2 78.367
8386.083 0.201 78.332 0.979 -11.592 0.979 -11.592 0.201 78.332
8411.042 0.202 78.298 0.979 -11.627 0.979 -11.627 0.202 78.298
8436 0.202 78.263 0.979 -11.662 0.979 -11.662 0.202 78.263
8460.958 0.203 78.228 0.979 -11.697 0.979 -11.697 0.203 78.228
8485.917 0.203 78.194 0.979 -11.732 0.979 -11.732 0.203 78.194
8510.875 0.204 78.159 0.979 -11.767 0.979 -11.767 0.204 78.159
8535.833 0.205 78.125 0.979 -11.801 0.979 -11.801 0.205 78.125
8560.792 0.205 78.09 0.978 -11.836 0.978 -11.836 0.205 78.09
8585.75 0.206 78.055 0.978 -11.871 0.978 -11.871 0.206 78.055
8610.708 0.206 78.021 0.978 -11.906 0.978 -11.906 0.206 78.021
8635.667 0.207 77.986 0.978 -11.941 0.978 -11.941 0.207 77.986
8660.625 0.207 77.952 0.978 -11.975 0.978 -11.975 0.207 77.952
8685.583 0.208 77.917 0.978 -12.01 0.978 -12.01 0.208 77.917
8710.542 0.209 77.883 0.978 -12.045 0.978 -12.045 0.209 77.883
8735.5 0.209 77.848 0.978 -12.079 0.978 -12.079 0.209 77.848
8760.458 0.21 77.814 0.977 -12.114 0.977 -12.114 0.21 77.814
8785.417 0.21 77.779 0.977 -12.149 0.977 -12.149 0.21 77.779
8810.375 0.211 77.745 0.977 -12.184 0.977 -12.184 0.211 77.745
8835.333 0.212 77.71 0.977 -12.218 0.977 -12.218 0.212 77.71
8860.292 0.212 77.676 0.977 -12.253 0.977 -12.253 0.212 77.676
8885.25 0.213 77.641 0.977 -12.287 0.977 -12.287 0.213 77.641
8910.208 0.213 77.607 0.977 -12.322 0.977 -12.322 0.213 77.607
8935.167 0.214 77.573 0.977 -12.357 0.977 -12.357 0.214 77.573
8960.125 0.215 77.538 0.976 -12.391 0.976 -12.391 0.215 77.538
8985.083 0.215 77.504 0.976 -12.426 0.976 -12.426 0.215 77.504
9010.042 0.216 77.469 0.976 -12.461 0.976 -12.461 0.216 77.469
9035 0.216 77.435 0.976 -12.495 0.976 -12.495 0.216 77.435
9059.958 0.217 77.401 0.976 -12.53 0.976 -12.53 0.217 77.401
9084.917 0.218 77.366 0.976 -12.564 0.976 -12.564 0.218 77.366
9109.875 0.218 77.332 0.976 -12.599 0.976 -12.599 0.218 77.332
9134.833 0.219 77.298 0.976 -12.633 0.976 -12.633 0.219 77.298
9159.792 0.219 77.263 0.975 -12.668 0.975 -12.668 0.219 77.263
9184.75 0.22 77.229 0.975 -12.702 0.975 -12.702 0.22 77.229
9209.708 0.22 77.195 0.975 -12.737 0.975 -12.737 0.22 77.195
9234.667 0.221 77.16 0.975 -12.771 0.975 -12.771 0.221 77.16
9259.625 0.222 77.126 0.975 -12.806 0.975 -12.806 0.222 77.126
9284.583 0.222 77.092 0.975 -12.84 0.975 -12.84 0.222 77.092
9309.542 0.223 77.058 0.975 -12.875 0.975 -12.875 0.223 77.058
9334.5 0.223 77.023 0.974 -12.909 0.974 -12.909 0.223 77.023
9359.458 0.224 76.989 0.974 -12.943 0.974 -12.943 0.224 76.989
9384.417 0.225 76.955 0.974 -12.978 0.974 -12.978 0.225 76.955
9409.375 0.225 76.921 0.974 -13.012 0.974 -13.012 0.225 76.921
9434.333 0.226 76.887 0.974 -13.047 0.974 -13.047 0.226 76.887
9459.292 0.226 76.852 0.974 -13.081 0.974 -13.081 0.226 76.852
9484.25 0.227 76.818 0.974 -13.115 0.974 -13.115 0.227 76.818
9509.208 0.227 76.784 0.974 -13.15 0.974 -13.15 0.227 76.784
9534.167 0.228 76.75 0.973 -13.184 0.973 -13.184 0.228 76.75
9559.125 0.229 76.716 0.973 -13.218 0.973 -13.218 0.229 76.716
9584.083 0.229 76.682 0.973 -13.253 0.973 -13.253 0.229 76.682
9609.042 0.23 76.648 0.973 -13.287 0.973 -13.287 0.23 76.648
9634 0.23 76.614 0.973 -13.321 0.973 -13.321 0.23 76.614
9658.958 0.231 76.579 0.973 -13.355 0.973 -13.355 0.231 76.579
9683.917 0.232 76.545 0.973 -13.39 0.973 -13.39 0.232 76.545
9708.875 0.232 76.511 0.972 -13.424 0.972 -13.424 0.232 76.511
9733.833 0.233 76.477 0.972 -13.458 0.972 -13.458 0.233 76.477
9758.792 0.233 76.443 0.972 -13.492 0.972 -13.492 0.233 76.443
9783.75 0.234 76.409 0.972 -13.526 0.972 -13.526 0.234 76.409
9808.708 0.234 76.375 0.972 -13.561 0.972 -13.561 0.234 76.375
9833.667 0.235 76.341 0.972 -13.595 0.972 -13.595 0.235 76.341
9858.625 0.236 76.307 0.972 -13.629 0.972 -13.629 0.236 76.307
9883.583 0.236 76.273 0.971 -13.663 0.971 -13.663 0.236 76.273
9908.542 0.237 76.239 0.971 -13.697 0.971 -13.697 0.237 76.239
9933.5 0.237 76.205 0.971 -13.731 0.971 -13.731 0.237 76.205
9958.458 0.238 76.171 0.971 -13.766 0.971 -13.766 0.238 76.171
9983.417 0.239 76.137 0.971 -13.8 0.971 -13.8 0.239 76.137
10008.375 0.239 76.103 0.971 -13.834 0.971 -13.834 0.239 76.103
10033.333 0.24 76.07 0.971 -13.868 0.971 -13.868 0.24 76.07
10058.292 0.24 76.036 0.97 -13.902 0.97 -13.902 0.24 76.036
10083.25 0.241 76.002 0.97 -13.936 0.97 -13.936 0.241 76.002
10108.208 0.241 75.968 0.97 -13.97 0.97 -13.97 0.241 75.968
10133.167 0.242 75.934 0.97 -14.004 0.97 -14.004 0.242 75.934
10158.125 0.243 75.9 0.97 -14.038 0.97 -14.038 0.243 75.9
10183.083 0.243 75.866 0.97 -14.072 0.97 -14.072 0.243 75.866
10208.042 0.244 75.832 0.97 -14.106 0.97 -14.106 0.244 75.832
10233 0.244 75.799 0.969 -14.14 0.969 -14.14 0.244 75.799
10257.958 0.245 75.765 0.969 -14.174 0.969 -14.174 0.245 75.765
10282.917 0.245 75.731 0.969 -14.208 0.969 -14.208 0.245 75.731
10307.875 0.246 75.697 0.969 -14.242 0.969 -14.242 0.246 75.697
10332.833 0.247 75.663 0.969 -14.276 0.969 -14.276 0.247 75.663
10357.792 0.247 75.63 0.969 -14.31 0.969 -14.31 0.247 75.63
10382.75 0.248 75.596 0.969 -14.344 0.969 -14.344 0.248 75.596
10407.708 0.248 75.562 0.968 -14.377 0.968 -14.377 0.248 75.562
10432.667 0.249 75.528 0.968 -14.411 0.968 -14.411 0.249 75.528
10457.625 0.249 75.495 0.968 -14.445 0.968 -14.445 0.249 75.495
10482.583 0.25 75.461 0.968 -14.479 0.968 -14.479 0.25 75.461
10507.542 0.251 75.427 0.968 -14.513 0.968 -14.513 0.251 75.427
10532.5 0.251 75.394 0.968 -14.547 0.968 -14.547 0.251 75.394
10557.458 0.252 75.36 0.968 -14.581 0.968 -14.581 0.252 75.36
10582.417 0.252 75.326 0.967 -14.614 0.967 -14.614 0.252 75.326
10607.375 0.253 75.293 0.967 -14.648 0.967 -14.648 0.253 75.293
10632.333 0.253 75.259 0.967 -14.682 0.967 -14.682 0.253 75.259
10657.292 0.254 75.225 0.967 -14.716 0.967 -14.716 0.254 75.225
10682.25 0.255 75.192 0.967 -14.749 0.967 -14.749 0.255 75.192
10707.208 0.255 75.158 0.967 -14.783 0.967 -14.783 0.255 75.158
10732.167 0.256 75.125 0.966 -14.817 0.966 -14.817 0.256 75.125
10757.125 0.256 75.091 0.966 -14.851 0.966 -14.851 0.256 75.091
10782.083 0.257 75.057 0.966 -14.884 0.966 -14.884 0.257 75.057
10807.042 0.257 75.024 0.966 -14.918 0.966 -14.918 0.257 75.024
10832 0.258 74.99 0.966 -14.952 0.966 -14.952 0.258 74.99
10856.958 0.259 74.957 0.966 -14.985 0.966 -14.985 0.259 74.957
10881.917 0.259 74.923 0.966 -15.019 0.966 -15.019 0.259 74.923
10906.875 0.26 74.89 0.965 -15.053 0.965 -15.053 0.26 74.89
10931.833 0.26 74.856 0.965 -15.086 0.965 -15.086 0.26 74.856
10956.792 0.261 74.823 0.965 -15.12 0.965 -15.12 0.261 74.823
10981.75 0.261 74.789 0.965 -15.154 0.965 -15.154 0.261 74.789
11006.708 0.262 74.756 0.965 -15.187 0.965 -15.187 0.262 74.756
11031.667 0.263 74.722 0.965 -15.221 0.965 -15.221 0.263 74.722
11056.625 0.263 74.689 0.965 -15.254 0.965 -15.254 0.263 74.689
11081.583 0.264 74.655 0.964 -15.288 0.964 -15.288 0.264 74.655
11106.542 0.264 74.622 0.964 -15.322 0.964 -15.322 0.264 74.622
11131.5 0.265 74.589 0.964 -15.355 0.964 -15.355 0.265 74.589
11156.458 0.265 74.555 0.964 -15.389 0.964 -15.389 0.265 74.555
11181.417 0.266 74.522 0.964 -15.422 0.964 -15.422 0.266 74.522
11206.375 0.266 74.488 0.964 -15.456 0.964 -15.456 0.266 74.488
11231.333 0.267 74.455 0.963 -15.489 0.963 -15.489 0.267 74.455
11256.292 0.268 74.422 0.963 -15.523 0.963 -15.523 0.268 74.422
11281.25 0.268 74.388 0.963 -15.556 0.963 -15.556 0.268 74.388
11306.208 0.269 74.355 0.963 -15.589 0.963 -15.589 0.269 74.355
11331.167 0.269 74.322 0.963 -15.623 0.963 -15.623 0.269 74.322
11356.125 0.27 74.288 0.963 -15.656 0.963 -15.656 0.27 74.288
11381.083 0.27 74.255 0.962 -15.69 0.962 -15.69 0.27 74.255
11406.042 0.271 74.222 0.962 -15.723 0.962 -15.723 0.271 74.222
11431 0.272 74.189 0.962 -15.756 0.962 -15.756 0.272 74.189
11455.958 0.272 74.155 0.962 -15.79 0.962 -15.79 0.272 74.155
11480.917 0.273 74.122 0.962 -15.823 0.962 -15.823 0.273 74.122
11505.875 0.273 74.089 0.962 -15.857 0.962 -15.857 0.273 74.089
11530.833 0.274 74.056 0.962 -15.89 0.962 -15.89 0.274 74.056
11555.792 0.274 74.022 0.961 -15.923 0.961 -15.923 0.274 74.022
11580.75 0.275 73.989 0.961 -15.957 0.961 -15.957 0.275 73.989
11605.708 0.275 73.956 0.961 -15.99 0.961 -15.99 0.275 73.956
11630.667 0.276 73.923 0.961 -16.023 0.961 -16.023 0.276 73.923
11655.625 0.277 73.89 0.961 -16.056 0.961 -16.056 0.277 73.89
11680.583 0.277 73.857 0.961 -16.09 0.961 -16.09 0.277 73.857
11705.542 0.278 73.824 0.96 -16.123 0.96 -16.123 0.278 73.824
11730.5 0.278 73.79 0.96 -16.156 0.96 -16.156 0.278 73.79
11755.458 0.279 73.757 0.96 -16.189 0.96 -16.189 0.279 73.757
11780.417 0.279 73.724 0.96 -16.223 0.96 -16.223 0.279 73.724
11805.375 0.28 73.691 0.96 -16.256 0.96 -16.256 0.28 73.691
11830.333 0.28 73.658 0.96 -16.289 0.96 -16.289 0.28 73.658
11855.292 0.281 73.625 0.959 -16.322 0.959 -16.322 0.281 73.625
11880.25 0.282 73.592 0.959 -16.355 0.959 -16.355 0.282 73.592
11905.208 0.282 73.559 0.959 -16.388 0.959 -16.388 0.282 73.559
11930.167 0.283 73.526 0.959 -16.422 0.959 -16.422 0.283 73.526
11955.125 0.283 73.493 0.959 -16.455 0.959 -16.455 0.283 73.493
11980.083 0.284 73.46 0.959 -16.488 0.959 -16.488 0.284 73.46
12005.042 0.284 73.427 0.958 -16.521 0.958 -16.521 0.284 73.427
12030 0.285 73.394 0.958 -16.554 0.958 -16.554 0.285 73.394
12054.958 0.285 73.361 0.958 -16.587 0.958 -16.587 0.285 73.361
12079.917 0.286 73.328 0.958 -16.62 0.958 -16.62 0.286 73.328
12104.875 0.287 73.295 0.958 -16.653 0.958 -16.653 0.287 73.295
12129.833 0.287 73.262 0.958 -16.686 0.958 -16.686 0.287 73.262
12154.792 0.288 73.229 0.957 -16.719 0.957 -16.719 0.288 73.229
12179.75 0.288 73.196 0.957 -16.752 0.957 -16.752 0.288 73.196
12204.708 0.289 73.163 0.957 -16.785 0.957 -16.785 0.289 73.163
12229.667 0.289 73.131 0.957 -16.818 0.957 -16.818 0.289 73.131
12254.625 0.29 73.098 0.957 -16.851 0.957 -16.851 0.29 73.098
12279.583 0.29 73.065 0.957 -16.884 0.957 -16.884 0.29 73.065
12304.542 0.291 73.032 0.956 -16.917 0.956 -16.917 0.291 73.032
12329.5 0.292 72.999 0.956 -16.95 0.956 -16.95 0.292 72.999
12354.458 0.292 72.966 0.956 -16.983 0.956 -16.983 0.292 72.966
12379.417 0.293 72.934 0.956 -17.016 0.956 -17.016 0.293 72.934
12404.375 0.293 72.901 0.956 -17.049 0.956 -17.049 0.293 72.901
12429.333 0.294 72.868 0.956 -17.082 0.956 -17.082 0.294 72.868
12454.292 0.294 72.835 0.955 -17.115 0.955 -17.115 0.294 72.835
12479.25 0.295 72.802 0.955 -17.147 0.955 -17.147 0.295 72.802
12504.208 0.295 72.77 0.955 -17.18 0.955 -17.18 0.295 72.77
12529.167 0.296 72.737 0.955 -17.213 0.955 -17.213 0.296 72.737
12554.125 0.296 72.704 0.955 -17.246 0.955 -17.246 0.296 72.704
12579.083 0.297 72.672 0.955 -17.279 0.955 -17.279 0.297 72.672
12604.042 0.298 72.639 0.954 -17.311 0.954 -17.311 0.298 72.639
12629 0.298 72.606 0.954 -17.344 0.954 -17.344 0.298 72.606
12653.958 0.299 72.573 0.954 -17.377 0.954 -17.377 0.299 72.573
12678.917 0.299 72.541 0.954 -17.41 0.954 -17.41 0.299 72.541
12703.875 0.3 72.508 0.954 -17.443 0.954 -17.443 0.3 72.508
12728.833 0.3 72.476 0.954 -17.475 0.954 -17.475 0.3 72.476
12753.792 0.301 72.443 0.953 -17.508 0.953 -17.508 0.301 72.443
12778.75 0.301 72.41 0.953 -17.541 0.953 -17.541 0.301 72.41
12803.708 0.302 72.378 0.953 -17.573 0.953 -17.573 0.302 72.378
12828.667 0.302 72.345 0.953 -17.606 0.953 -17.606 0.302 72.345
12853.625 0.303 72.313 0.953 -17.639 0.953 -17.639 0.303 72.313
12878.583 0.304 72.28 0.953 -17.671 0.953 -17.671 0.304 72.28
12903.542 0.304 72.247 0.952 -17.704 0.952 -17.704 0.304 72.247
12928.5 0.305 72.215 0.952 -17.737 0.952 -17.737 0.305 72.215
12953.458 0.305 72.182 0.952 -17.769 0.952 -17.769 0.305 72.182
12978.417 0.306 72.15 0.952 -17.802 0.952 -17.802 0.306 72.15
13003.375 0.306 72.117 0.952 -17.834 0.952 -17.834 0.306 72.117
13028.333 0.307 72.085 0.952 -17.867 0.952 -17.867 0.307 72.085
13053.292 0.307 72.052 0.951 -17.9 0.951 -17.9 0.307 72.052
13078.25 0.308 72.02 0.951 -17.932 0.951 -17.932 0.308 72.02
13103.208 0.308 71.988 0.951 -17.965 0.951 -17.965 0.308 71.988
13128.167 0.309 71.955 0.951 -17.997 0.951 -17.997 0.309 71.955
13153.125 0.31 71.923 0.951 -18.03 0.951 -18.03 0.31 71.923
13178.083 0.31 71.89 0.95 -18.062 0.95 -18.062 0.31 71.89
13203.042 0.311 71.858 0.95 -18.095 0.95 -18.095 0.311 71.858
13228 0.311 71.826 0.95 -18.127 0.95 -18.127 0.311 71.826
13252.958 0.312 71.793 0.95 -18.16 0.95 -18.16 0.312 71.793
13277.917 0.312 71.761 0.95 -18.192 0.95 -18.192 0.312 71.761
13302.875 0.313 71.728 0.95 -18.224 0.95 -18.224 0.313 71.728
13327.833 0.313 71.696 0.949 -18.257 0.949 -18.257 0.313 71.696
13352.792 0.314 71.664 0.949 -18.289 0.949 -18.289 0.314 71.664
13377.75 0.314 71.632 0.949 -18.322 0.949 -18.322 0.314 71.632
13402.708 0.315 71.599 0.949 -18.354 0.949 -18.354 0.315 71.599
13427.667 0.315 71.567 0.949 -18.386 0.949 -18.386 0.315 71.567
13452.625 0.316 71.535 0.949 -18.419 0.949 -18.419 0.316 71.535
13477.583 0.316 71.502 0.948 -18.451 0.948 -18.451 0.316 71.502
13502.542 0.317 71.47 0.948 -18.483 0.948 -18.483 0.317 71.47
13527.5 0.318 71.438 0.948 -18.516 0.948 -18.516 0.318 71.438
13552.458 0.318 71.406 0.948 -18.548 0.948 -18.548 0.318 71.406
13577.417 0.319 71.374 0.948 -18.58 0.948 -18.58 0.319 71.374
13602.375 0.319 71.341 0.947 -18.613 0.947 -18.613 0.319 71.341
13627.333 0.32 71.309 0.947 -18.645 0.947 -18.645 0.32 71.309
13652.292 0.32 71.277 0.947 -18.677 0.947 -18.677 0.32 71.277
13677.25 0.321 71.245 0.947 -18.709 0.947 -18.709 0.321 71.245
13702.208 0.321 71.213 0.947 -18.742 0.947 -18.742 0.321 71.213
13727.167 0.322 71.181 0.947 -18.774 0.947 -18.774 0.322 71.181
13752.125 0.322 71.148 0.946 -18.806 0.946 -18.806 0.322 71.148
13777.083 0.323 71.116 0.946 -18.838 0.946 -18.838 0.323 71.116
13802.042 0.323 71.084 0.946 -18.87 0.946 -18.87 0.323 71.084
13827 0.324 71.052 0.946 -18.903 0.946 -18.903 0.324 71.052
13851.958 0.324 71.02 0.946 -18.935 0.946 -18.935 0.324 71.02
13876.917 0.325 70.988 0.945 -18.967 0.945 -18.967 0.325 70.988
13901.875 0.326 70.956 0.945 -18.999 0.945 -18.999 0.326 70.956
13926.833 0.326 70.924 0.945 -19.031 0.945 -19.031 0.326 70.924
13951.792 0.327 70.892 0.945 -19.063 0.945 -19.063 0.327 70.892
13976.75 0.327 70.86 0.945 -19.095 0.945 -19.095 0.327 70.86
14001.708 0.328 70.828 0.945 -19.127 0.945 -19.127 0.328 70.828
14026.667 0.328 70.796 0.944 -19.159 0.944 -19.159 0.328 70.796
14051.625 0.329 70.764 0.944 -19.191 0.944 -19.191 0.329 70.764
14076.583 0.329 70.732 0.944 -19.223 0.944 -19.223 0.329 70.732
14101.542 0.33 70.7 0.944 -19.255 0.944 -19.255 0.33 70.7
14126.5 0.33 70.668 0.944 -19.287 0.944 -19.287 0.33 70.668
14151.458 0.331 70.636 0.943 -19.319 0.943 -19.319 0.331 70.636
14176.417 0.331 70.605 0.943 -19.351 0.943 -19.351 0.331 70.605
14201.375 0.332 70.573 0.943 -19.383 0.943 -19.383 0.332 70.573
14226.333 0.332 70.541 0.943 -19.415 0.943 -19.415 0.332 70.541
14251.292 0.333 70.509 0.943 -19.447 0.943 -19.447 0.333 70.509
14276.25 0.333 70.477 0.943 -19.479 0.943 -19.479 0.333 70.477
14301.208 0.334 70.445 0.942 -19.511 0.942 -19.511 0.334 70.445
14326.167 0.335 70.413 0.942 -19.543 0.942 -19.543 0.335 70.413
14351.125 0.335 70.382 0.942 -19.575 0.942 -19.575 0.335 70.382
14376.083 0.336 70.35 0.942 -19.607 0.942 -19.607 0.336 70.35
14401.042 0.336 70.318 0.942 -19.639 0.942 -19.639 0.336 70.318
14426 0.337 70.286 0.941 -19.67 0.941 -19.67 0.337 70.286
14450.958 0.337 70.255 0.941 -19.702 0.941 -19.702 0.337 70.255
14475.917 0.338 70.223 0.941 -19.734 0.941 -19.734 0.338 70.223
14500.875 0.338 70.191 0.941 -19.766 0.941 -19.766 0.338 70.191
14525.833 0.339 70.159 0.941 -19.798 0.941 -19.798 0.339 70.159
14550.792 0.339 70.128 0.94 -19.829 0.94 -19.829 0.339 70.128
14575.75 0.34 70.096 0.94 -19.861 0.94 -19.861 0.34 70.096
14600.708 0.34 70.064 0.94 -19.893 0.94 -19.893 0.34 70.064
14625.667 0.341 70.033 0.94 -19.925 0.94 -19.925 0.341 70.033
14650.625 0.341 70.001 0.94 -19.956 0.94 -19.956 0.341 70.001
14675.583 0.342 69.969 0.94 -19.988 0.94 -19.988 0.342 69.969
14700.542 0.342 69.938 0.939 -20.02 0.939 -20.02 0.342 69.938
14725.5 0.343 69.906 0.939 -20.051 0.939 -20.051 0.343 69.906
14750.458 0.343 69.875 0.939 -20.083 0.939 -20.083 0.343 69.875
14775.417 0.344 69.843 0.939 -20.115 0.939 -20.115 0.344 69.843
14800.375 0.344 69.811 0.939 -20.146 0.939 -20.146 0.344 69.811
14825.333 0.345 69.78 0.938 -20.178 0.938 -20.178 0.345 69.78
14850.292 0.345 69.748 0.938 -20.21 0.938 -20.21 0.345 69.748
14875.25 0.346 69.717 0.938 -20.241 0.938 -20.241 0.346 69.717
14900.208 0.346 69.685 0.938 -20.273 0.938 -20.273 0.346 69.685
14925.167 0.347 69.654 0.938 -20.304 0.938 -20.304 0.347 69.654
14950.125 0.348 69.622 0.937 -20.336 0.937 -20.336 0.348 69.622
14975.083 0.348 69.591 0.937 -20.367 0.937 -20.367 0.348 69.591
15000.042 0.349 69.559 0.937 -20.399 0.937 -20.399 0.349 69.559
15025 0.349 69.528 0.937 -20.43 0.937 -20.43 0.349 69.528
15049.958 0.35 69.497 0.937 -20.462 0.937 -20.462 0.35 69.497
15074.917 0.35 69.465 0.936 -20.493 0.936 -20.493 0.35 69.465
15099.875 0.351 69.434 0.936 -20.525 0.936 -20.525 0.351 69.434
15124.833 0.351 69.402 0.936 -20.556 0.936 -20.556 0.351 69.402
15149.792 0.352 69.371 0.936 -20.588 0.936 -20.588 0.352 69.371
15174.75 0.352 69.34 0.936 -20.619 0.936 -20.619 0.352 69.34
15199.708 0.353 69.308 0.935 -20.651 0.935 -20.651 0.353 69.308
15224.667 0.353 69.277 0.935 -20.682 0.935 -20.682 0.353 69.277
15249.625 0.354 69.246 0.935 -20.713 0.935 -20.713 0.354 69.246
15274.583 0.354 69.214 0.935 -20.745 0.935 -20.745 0.354 69.214
15299.542 0.355 69.183 0.935 -20.776 0.935 -20.776 0.355 69.183
15324.5 0.355 69.152 0.935 -20.808 0.935 -20.808 0.355 69.152
15349.458 0.356 69.12 0.934 -20.839 0.934 -20.839 0.356 69.12
15374.417 0.356 69.089 0.934 -20.87 0.934 -20.87 0.356 69.089
15399.375 0.357 69.058 0.934 -20.902 0.934 -20.902 0.357 69.058
15424.333 0.357 69.027 0.934 -20.933 0.934 -20.933 0.357 69.027
15449.292 0.358 68.995 0.934 -20.964 0.934 -20.964 0.358 68.995
15474.25 0.358 68.964 0.933 -20.995 0.933 -20.995 0.358 68.964
15499.208 0.359 68.933 0.933 -21.027 0.933 -21.027 0.359 68.933
15524.167 0.359 68.902 0.933 -21.058 0.933 -21.058 0.359 68.902
15549.125 0.36 68.871 0.933 -21.089 0.933 -21.089 0.36 68.871
15574.083 0.36 68.84 0.933 -21.12 0.933 -21.12 0.36 68.84
15599.042 0.361 68.808 0.932 -21.152 0.932 -21.152 0.361 68.808
15624 0.361 68.777 0.932 -21.183 0.932 -21.183 0.361 68.777
15648.958 0.362 68.746 0.932 -21.214 0.932 -21.214 0.362 68.746
15673.917 0.362 68.715 0.932 -21.245 0.932 -21.245 0.362 68.715
15698.875 0.363 68.684 0.932 -21.276 0.932 -21.276 0.363 68.684
15723.833 0.363 68.653 0.931 -21.307 0.931 -21.307 0.363 68.653
15748.792 0.364 68.622 0.931 -21.339 0.931 -21.339 0.364 68.622
15773.75 0.364 68.591 0.931 -21.37 0.931 -21.37 0.364 68.591
15798.708 0.365 68.56 0.931 -21.401 0.931 -21.401 0.365 68.56
15823.667 0.365 68.529 0.931 -21.432 0.931 -21.432 0.365 68.529
15848.625 0.366 68.498 0.93 -21.463 0.93 -21.463 0.366 68.498
15873.583 0.366 68.467 0.93 -21.494 0.93 -21.494 0.366 68.467
15898.542 0.367 68.436 0.93 -21.525 0.93 -21.525 0.367 68.436
15923.5 0.367 68.405 0.93 -21.556 0.93 -21.556 0.367 68.405
15948.458 0.368 68.374 0.93 -21.587 0.93 -21.587 0.368 68.374
15973.417 0.368 68.343 0.929 -21.618 0.929 -21.618 0.368 68.343
15998.375 0.369 68.312 0.929 -21.649 0.929 -21.649 0.369 68.312
16023.333 0.369 68.281 0.929 -21.68 0.929 -21.68 0.369 68.281
16048.292 0.37 68.25 0.929 -21.711 0.929 -21.711 0.37 68.25
16073.25 0.37 68.219 0.929 -21.742 0.929 -21.742 0.37 68.219
16098.208 0.371 68.188 0.928 -21.773 0.928 -21.773 0.371 68.188
16123.167 0.371 68.158 0.928 -21.804 0.928 -21.804 0.371 68.158
16148.125 0.372 68.127 0.928 -21.835 0.928 -21.835 0.372 68.127
16173.083 0.372 68.096 0.928 -21.865 0.928 -21.865 0.372 68.096
16198.042 0.373 68.065 0.928 -21.896 0.928 -21.896 0.373 68.065
16223 0.373 68.034 0.927 -21.927 0.927 -21.927 0.373 68.034
16247.958 0.374 68.004 0.927 -21.958 0.927 -21.958 0.374 68.004
16272.917 0.374 67.973 0.927 -21.989 0.927 -21.989 0.374 67.973
16297.875 0.375 67.942 0.927 -22.02 0.927 -22.02 0.375 67.942
16322.833 0.375 67.911 0.927 -22.05 0.927 -22.05 0.375 67.911
16347.792 0.376 67.881 0.926 -22.081 0.926 -22.081 0.376 67.881
16372.75 0.376 67.85 0.926 -22.112 0.926 -22.112 0.376 67.85
16397.708 0.377 67.819 0.926 -22.143 0.926 -22.143 0.377 67.819
16422.667 0.377 67.788 0.926 -22.174 0.926 -22.174 0.377 67.788
16447.625 0.378 67.758 0.926 -22.204 0.926 -22.204 0.378 67.758
16472.583 0.378 67.727 0.925 -22.235 0.925 -22.235 0.378 67.727
16497.542 0.379 67.696 0.925 -22.266 0.925 -22.266 0.379 67.696
16522.5 0.379 67.666 0.925 -22.296 0.925 -22.296 0.379 67.666
16547.458 0.38 67.635 0.925 -22.327 0.925 -22.327 0.38 67.635
16572.417 0.38 67.605 0.925 -22.358 0.925 -22.358 0.38 67.605
16597.375 0.381 67.574 0.924 -22.388 0.924 -22.388 0.381 67.574
16622.333 0.381 67.543 0.924 -22.419 0.924 -22.419 0.381 67.543
16647.292 0.382 67.513 0.924 -22.45 0.924 -22.45 0.382 67.513
16672.25 0.382 67.482 0.924 -22.48 0.924 -22.48 0.382 67.482
16697.208 0.383 67.452 0.924 -22.511 0.924 -22.511 0.383 67.452
16722.167 0.383 67.421 0.923 -22.541 0.923 -22.541 0.383 67.421
16747.125 0.384 67.391 0.923 -22.572 0.923 -22.572 0.384 67.391
16772.083 0.384 67.36 0.923 -22.603 0.923 -22.603 0.384 67.36
16797.042 0.385 67.33 0.923 -22.633 0.923 -22.633 0.385 67.33
16822 0.385 67.299 0.923 -22.664 0.923 -22.664 0.385 67.299
16846.958 0.386 67.269 0.922 -22.694 0.922 -22.694 0.386 67.269
16871.917 0.386 67.238 0.922 -22.725 0.922 -22.725 0.386 67.238
16896.875 0.387 67.208 0.922 -22.755 0.922 -22.755 0.387 67.208
16921.833 0.387 67.178 0.922 -22.786 0.922 -22.786 0.387 67.178
16946.792 0.388 67.147 0.922 -22.816 0.922 -22.816 0.388 67.147
16971.75 0.388 67.117 0.921 -22.846 0.921 -22.846 0.388 67.117
16996.708 0.389 67.086 0.921 -22.877 0.921 -22.877 0.389 67.086
17021.667 0.389 67.056 0.921 -22.907 0.921 -22.907 0.389 67.056
17046.625 0.39 67.026 0.921 -22.938 0.921 -22.938 0.39 67.026
17071.583 0.39 66.995 0.92 -22.968 0.92 -22.968 0.39 66.995
17096.542 0.391 66.965 0.92 -22.998 0.92 -22.998 0.391 66.965
17121.5 0.391 66.935 0.92 -23.029 0.92 -23.029 0.391 66.935
17146.458 0.392 66.904 0.92 -23.059 0.92 -23.059 0.392 66.904
17171.417 0.392 66.874 0.92 -23.09 0.92 -23.09 0.392 66.874
17196.375 0.393 66.844 0.919 -23.12 0.919 -23.12 0.393 66.844
17221.333 0.393 66.814 0.919 -23.15 0.919 -23.15 0.393 66.814
17246.292 0.394 66.783 0.919 -23.18 0.919 -23.18 0.394 66.783
17271.25 0.394 66.753 0.919 -23.211 0.919 -23.211 0.394 66.753
17296.208 0.395 66.723 0.919 -23.241 0.919 -23.241 0.395 66.723
17321.167 0.395 66.693 0.918 -23.271 0.918 -23.271 0.395 66.693
17346.125 0.396 66.663 0.918 -23.301 0.918 -23.301 0.396 66.663
17371.083 0.396 66.632 0.918 -23.332 0.918 -23.332 0.396 66.632
17396.042 0.397 66.602 0.918 -23.362 0.918 -23.362 0.397 66.602
17421 0.397 66.572 0.918 -23.392 0.918 -23.392 0.397 66.572
17445.958 0.398 66.542 0.917 -23.422 0.917 -23.422 0.398 66.542
17470.917 0.398 66.512 0.917 -23.452 0.917 -23.452 0.398 66.512
17495.875 0.398 66.482 0.917 -23.482 0.917 -23.482 0.398 66.482
17520.833 0.399 66.452 0.917 -23.513 0.917 -23.513 0.399 66.452
17545.792 0.399 66.422 0.917 -23.543 0.917 -23.543 0.399 66.422
17570.75 0.4 66.392 0.916 -23.573 0.916 -23.573 0.4 66.392
17595.708 0.4 66.362 0.916 -23.603 0.916 -23.603 0.4 66.362
17620.667 0.401 66.332 0.916 -23.633 0.916 -23.633 0.401 66.332
17645.625 0.401 66.302 0.916 -23.663 0.916 -23.663 0.401 66.302
17670.583 0.402 66.272 0.915 -23.693 0.915 -23.693 0.402 66.272
17695.542 0.402 66.242 0.915 -23.723 0.915 -23.723 0.402 66.242
17720.5 0.403 66.212 0.915 -23.753 0.915 -23.753 0.403 66.212
17745.458 0.403 66.182 0.915 -23.783 0.915 -23.783 0.403 66.182
17770.417 0.404 66.152 0.915 -23.813 0.915 -23.813 0.404 66.152
17795.375 0.404 66.122 0.914 -23.843 0.914 -23.843 0.404 66.122
17820.333 0.405 66.092 0.914 -23.873 0.914 -23.873 0.405 66.092
17845.292 0.405 66.062 0.914 -23.903 0.914 -23.903 0.405 66.062
17870.25 0.406 66.032 0.914 -23.933 0.914 -23.933 0.406 66.032
17895.208 0.406 66.002 0.914 -23.963 0.914 -23.963 0.406 66.002
17920.167 0.407 65.972 0.913 -23.993 0.913 -23.993 0.407 65.972
17945.125 0.407 65.943 0.913 -24.023 0.913 -24.023 0.407 65.943
17970.083 0.408 65.913 0.913 -24.053 0.913 -24.053 0.408 65.913
17995.042 0.408 65.883 0.913 -24.082 0.913 -24.082 0.408 65.883
18020 0.409 65.853 0.913 -24.112 0.913 -24.112 0.409 65.853
18044.958 0.409 65.823 0.912 -24.142 0.912 -24.142 0.409 65.823
18069.917 0.409 65.794 0.912 -24.172 0.912 -24.172 0.409 65.794
18094.875 0.41 65.764 0.912 -24.202 0.912 -24.202 0.41 65.764
18119.833 0.41 65.734 0.912 -24.231 0.912 -24.231 0.41 65.734
18144.792 0.411 65.704 0.911 -24.261 0.911 -24.261 0.411 65.704
18169.75 0.411 65.675 0.911 -24.291 0.911 -24.291 0.411 65.675
18194.708 0.412 65.645 0.911 -24.321 0.911 -24.321 0.412 65.645
18219.667 0.412 65.615 0.911 -24.35 0.911 -24.35 0.412 65.615
18244.625 0.413 65.586 0.911 -24.38 0.911 -24.38 0.413 65.586
18269.583 0.413 65.556 0.91 -24.41 0.91 -24.41 0.413 65.556
18294.542 0.414 65.526 0.91 -24.44 0.91 -24.44 0.414 65.526
18319.5 0.414 65.497 0.91 -24.469 0.91 -24.469 0.414 65.497
18344.458 0.415 65.467 0.91 -24.499 0.91 -24.499 0.415 65.467
18369.417 0.415 65.437 0.91 -24.529 0.91 -24.529 0.415 65.437
18394.375 0.416 65.408 0.909 -24.558 0.909 -24.558 0.416 65.408
18419.333 0.416 65.378 0.909 -24.588 0.909 -24.588 0.416 65.378
18444.292 0.417 65.349 0.909 -24.617 0.909 -24.617 0.417 65.349
18469.25 0.417 65.319 0.909 -24.647 0.909 -24.647 0.417 65.319
18494.208 0.417 65.29 0.908 -24.677 0.908 -24.677 0.417 65.29
18519.167 0.418 65.26 0.908 -24.706 0.908 -24.706 0.418 65.26
18544.125 0.418 65.231 0.908 -24.736 0.908 -24.736 0.418 65.231
18569.083 0.419 65.201 0.908 -24.765 0.908 -24.765 0.419 65.201
18594.042 0.419 65.172 0.908 -24.795 0.908 -24.795 0.419 65.172
18619 0.42 65.142 0.907 -24.824 0.907 -24.824 0.42 65.142
18643.958 0.42 65.113 0.907 -24.854 0.907 -24.854 0.42 65.113
18668.917 0.421 65.083 0.907 -24.883 0.907 -24.883 0.421 65.083
18693.875 0.421 65.054 0.907 -24.913 0.907 -24.913 0.421 65.054
18718.833 0.422 65.025 0.906 -24.942 0.906 -24.942 0.422 65.025
18743.792 0.422 64.995 0.906 -24.972 0.906 -24.972 0.422 64.995
18768.75 0.423 64.966 0.906 -25.001 0.906 -25.001 0.423 64.966
18793.708 0.423 64.936 0.906 -25.03 0.906 -25.03 0.423 64.936
18818.667 0.424 64.907 0.906 -25.06 0.906 -25.06 0.424 64.907
18843.625 0.424 64.878 0.905 -25.089 0.905 -25.089 0.424 64.878
18868.583 0.424 64.848 0.905 -25.118 0.905 -25.118 0.424 64.848
18893.542 0.425 64.819 0.905 -25.148 0.905 -25.148 0.425 64.819
18918.5 0.425 64.79 0.905 -25.177 0.905 -25.177 0.425 64.79
18943.458 0.426 64.761 0.905 -25.206 0.905 -25.206 0.426 64.761
18968.417 0.426 64.731 0.904 -25.236 0.904 -25.236 0.426 64.731
18993.375 0.427 64.702 0.904 -25.265 0.904 -25.265 0.427 64.702
19018.333 0.427 64.673 0.904 -25.294 0.904 -25.294 0.427 64.673
19043.292 0.428 64.644 0.904 -25.324 0.904 -25.324 0.428 64.644
19068.25 0.428 64.614 0.903 -25.353 0.903 -25.353 0.428 64.614
19093.208 0.429 64.585 0.903 -25.382 0.903 -25.382 0.429 64.585
19118.167 0.429 64.556 0.903 -25.411 0.903 -25.411 0.429 64.556
19143.125 0.43 64.527 0.903 -25.44 0.903 -25.44 0.43 64.527
19168.083 0.43 64.498 0.903 -25.47 0.903 -25.47 0.43 64.498
19193.042 0.43 64.469 0.902 -25.499 0.902 -25.499 0.43 64.469
19218 0.431 64.44 0.902 -25.528 0.902 -25.528 0.431 64.44
19242.958 0.431 64.41 0.902 -25.557 0.902 -25.557 0.431 64.41
19267.917 0.432 64.381 0.902 -25.586 0.902 -25.586 0.432 64.381
19292.875 0.432 64.352 0.901 -25.615 0.901 -25.615 0.432 64.352
19317.833 0.433 64.323 0.901 -25.644 0.901 -25.644 0.433 64.323
19342.792 0.433 64.294 0.901 -25.674 0.901 -25.674 0.433 64.294
19367.75 0.434 64.265 0.901 -25.703 0.901 -25.703 0.434 64.265
19392.708 0.434 64.236 0.901 -25.732 0.901 -25.732 0.434 64.236
19417.667 0.435 64.207 0.9 -25.761 0.9 -25.761 0.435 64.207
19442.625 0.435 64.178 0.9 -25.79 0.9 -25.79 0.435 64.178
19467.583 0.436 64.149 0.9 -25.819 0.9 -25.819 0.436 64.149
19492.542 0.436 64.12 0.9 -25.848 0.9 -25.848 0.436 64.12
19517.5 0.436 64.091 0.899 -25.877 0.899 -25.877 0.436 64.091
19542.458 0.437 64.062 0.899 -25.906 0.899 -25.906 0.437 64.062
19567.417 0.437 64.033 0.899 -25.935 0.899 -25.935 0.437 64.033
19592.375 0.438 64.005 0.899 -25.964 0.899 -25.964 0.438 64.005
19617.333 0.438 63.976 0.899 -25.993 0.899 -25.993 0.438 63.976
19642.292 0.439 63.947 0.898 -26.021 0.898 -26.021 0.439 63.947
19667.25 0.439 63.918 0.898 -26.05 0.898 -26.05 0.439 63.918
19692.208 0.44 63.889 0.898 -26.079 0.898 -26.079 0.44 63.889
19717.167 0.44 63.86 0.898 -26.108 0.898 -26.108 0.44 63.86
19742.125 0.441 63.831 0.898 -26.137 0.898 -26.137 0.441 63.831
19767.083 0.441 63.803 0.897 -26.166 0.897 -26.166 0.441 63.803
19792.042 0.441 63.774 0.897 -26.195 0.897 -26.195 0.441 63.774
19817 0.442 63.745 0.897 -26.223 0.897 -26.223 0.442 63.745
19841.958 0.442 63.716 0.897 -26.252 0.897 -26.252 0.442 63.716
19866.917 0.443 63.688 0.896 -26.281 0.896 -26.281 0.443 63.688
19891.875 0.443 63.659 0.896 -26.31 0.896 -26.31 0.443 63.659
19916.833 0.444 63.63 0.896 -26.339 0.896 -26.339 0.444 63.63
19941.792 0.444 63.601 0.896 -26.367 0.896 -26.367 0.444 63.601
19966.75 0.445 63.573 0.896 -26.396 0.896 -26.396 0.445 63.573
19991.708 0.445 63.544 0.895 -26.425 0.895 -26.425 0.445 63.544
20016.667 0.445 63.515 0.895 -26.453 0.895 -26.453 0.445 63.515
20041.625 0.446 63.487 0.895 -26.482 0.895 -26.482 0.446 63.487
20066.583 0.446 63.458 0.895 -26.511 0.895 -26.511 0.446 63.458
20091.542 0.447 63.43 0.894 -26.539 0.894 -26.539 0.447 63.43
20116.5 0.447 63.401 0.894 -26.568 0.894 -26.568 0.447 63.401
20141.458 0.448 63.372 0.894 -26.597 0.894 -26.597 0.448 63.372
20166.417 0.448 63.344 0.894 -26.625 0.894 -26.625 0.448 63.344
20191.375 0.449 63.315 0.893 -26.654 0.893 -26.654 0.449 63.315
20216.333 0.449 63.287 0.893 -26.682 0.893 -26.682 0.449 63.287
20241.292 0.449 63.258 0.893 -26.711 0.893 -26.711 0.449 63.258
20266.25 0.45 63.23 0.893 -26.74 0.893 -26.74 0.45 63.23
20291.208 0.45 63.201 0.893 -26.768 0.893 -26.768 0.45 63.201
20316.167 0.451 63.173 0.892 -26.797 0.892 -26.797 0.451 63.173
20341.125 0.451 63.144 0.892 -26.825 0.892 -26.825 0.451 63.144
20366.083 0.452 63.116 0.892 -26.854 0.892 -26.854 0.452 63.116
20391.042 0.452 63.087 0.892 -26.882 0.892 -26.882 0.452 63.087
20416 0.453 63.059 0.891 -26.911 0.891 -26.911 0.453 63.059
20440.958 0.453 63.031 0.891 -26.939 0.891 -26.939 0.453 63.031
20465.917 0.453 63.002 0.891 -26.967 0.891 -26.967 0.453 63.002
20490.875 0.454 62.974 0.891 -26.996 0.891 -26.996 0.454 62.974
20515.833 0.454 62.945 0.891 -27.024 0.891 -27.024 0.454 62.945
20540.792 0.455 62.917 0.89 -27.053 0.89 -27.053 0.455 62.917
20565.75 0.455 62.889 0.89 -27.081 0.89 -27.081 0.455 62.889
20590.708 0.456 62.86 0.89 -27.109 0.89 -27.109 0.456 62.86
20615.667 0.456 62.832 0.89 -27.138 0.89 -27.138 0.456 62.832
20640.625 0.457 62.804 0.889 -27.166 0.889 -27.166 0.457 62.804
20665.583 0.457 62.776 0.889 -27.194 0.889 -27.194 0.457 62.776
20690.542 0.457 62.747 0.889 -27.223 0.889 -27.223 0.457 62.747
20715.5 0.458 62.719 0.889 -27.251 0.889 -27.251 0.458 62.719
20740.458 0.458 62.691 0.889 -27.279 0.889 -27.279 0.458 62.691
20765.417 0.459 62.663 0.888 -27.307 0.888 -27.307 0.459 62.663
20790.375 0.459 62.634 0.888 -27.336 0.888 -27.336 0.459 62.634
20815.333 0.46 62.606 0.888 -27.364 0.888 -27.364 0.46 62.606
20840.292 0.46 62.578 0.888 -27.392 0.888 -27.392 0.46 62.578
20865.25 0.461 62.55 0.887 -27.42 0.887 -27.42 0.461 62.55
20890.208 0.461 62.522 0.887 -27.448 0.887 -27.448 0.461 62.522
20915.167 0.461 62.494 0.887 -27.477 0.887 -27.477 0.461 62.494
20940.125 0.462 62.465 0.887 -27.505 0.887 -27.505 0.462 62.465
20965.083 0.462 62.437 0.887 -27.533 0.887 -27.533 0.462 62.437
20990.042 0.463 62.409 0.886 -27.561 0.886 -27.561 0.463 62.409
21015 0.463 62.381 0.886 -27.589 0.886 -27.589 0.463 62.381
21039.958 0.464 62.353 0.886 -27.617 0.886 -27.617 0.464 62.353
21064.917 0.464 62.325 0.886 -27.645 0.886 -27.645 0.464 62.325
21089.875 0.464 62.297 0.885 -27.673 0.885 -27.673 0.464 62.297
21114.833 0.465 62.269 0.885 -27.701 0.885 -27.701 0.465 62.269
21139.792 0.465 62.241 0.885 -27.73 0.885 -27.73 0.465 62.241
21164.75 0.466 62.213 0.885 -27.758 0.885 -27.758 0.466 62.213
21189.708 0.466 62.185 0.884 -27.786 0.884 -27.786 0.466 62.185
21214.667 0.467 62.157 0.884 -27.814 0.884 -27.814 0.467 62.157
21239.625 0.467 62.129 0.884 -27.842 0.884 -27.842 0.467 62.129
21264.583 0.467 62.101 0.884 -27.869 0.884 -27.869 0.467 62.101
21289.542 0.468 62.073 0.884 -27.897 0.884 -27.897 0.468 62.073
21314.5 0.468 62.045 0.883 -27.925 0.883 -27.925 0.468 62.045
21339.458 0.469 62.017 0.883 -27.953 0.883 -27.953 0.469 62.017
21364.417 0.469 61.99 0.883 -27.981 0.883 -27.981 0.469 61.99
21389.375 0.47 61.962 0.883 -28.009 0.883 -28.009 0.47 61.962
21414.333 0.47 61.934 0.882 -28.037 0.882 -28.037 0.47 61.934
21439.292 0.47 61.906 0.882 -28.065 0.882 -28.065 0.47 61.906
21464.25 0.471 61.878 0.882 -28.093 0.882 -28.093 0.471 61.878
21489.208 0.471 61.85 0.882 -28.121 0.882 -28.121 0.471 61.85
21514.167 0.472 61.823 0.881 -28.148 0.881 -28.148 0.472 61.823
21539.125 0.472 61.795 0.881 -28.176 0.881 -28.176 0.472 61.795
21564.083 0.473 61.767 0.881 -28.204 0.881 -28.204 0.473 61.767
21589.042 0.473 61.739 0.881 -28.232 0.881 -28.232 0.473 61.739
21614 0.473 61.712 0.881 -28.259 0.881 -28.259 0.473 61.712
21638.958 0.474 61.684 0.88 -28.287 0.88 -28.287 0.474 61.684
21663.917 0.474 61.656 0.88 -28.315 0.88 -28.315 0.474 61.656
21688.875 0.475 61.629 0.88 -28.343 0.88 -28.343 0.475 61.629
21713.833 0.475 61.601 0.88 -28.37 0.88 -28.37 0.475 61.601
21738.792 0.476 61.573 0.879 -28.398 0.879 -28.398 0.476 61.573
21763.75 0.476 61.546 0.879 -28.426 0.879 -28.426 0.476 61.546
21788.708 0.476 61.518 0.879 -28.453 0.879 -28.453 0.476 61.518
21813.667 0.477 61.49 0.879 -28.481 0.879 -28.481 0.477 61.49
21838.625 0.477 61.463 0.879 -28.509 0.879 -28.509 0.477 61.463
21863.583 0.478 61.435 0.878 -28.536 0.878 -28.536 0.478 61.435
21888.542 0.478 61.408 0.878 -28.564 0.878 -28.564 0.478 61.408
21913.5 0.479 61.38 0.878 -28.591 0.878 -28.591 0.479 61.38
21938.458 0.479 61.353 0.878 -28.619 0.878 -28.619 0.479 61.353
21963.417 0.479 61.325 0.877 -28.647 0.877 -28.647 0.479 61.325
21988.375 0.48 61.298 0.877 -28.674 0.877 -28.674 0.48 61.298
22013.333 0.48 61.27 0.877 -28.702 0.877 -28.702 0.48 61.27
22038.292 0.481 61.243 0.877 -28.729 0.877 -28.729 0.481 61.243
22063.25 0.481 61.215 0.876 -28.757 0.876 -28.757 0.481 61.215
22088.208 0.482 61.188 0.876 -28.784 0.876 -28.784 0.482 61.188
22113.167 0.482 61.16 0.876 -28.812 0.876 -28.812 0.482 61.16
22138.125 0.482 61.133 0.876 -28.839 0.876 -28.839 0.482 61.133
22163.083 0.483 61.105 0.876 -28.866 0.876 -28.866 0.483 61.105
22188.042 0.483 61.078 0.875 -28.894 0.875 -28.894 0.483 61.078
22213 0.484 61.051 0.875 -28.921 0.875 -28.921 0.484 61.051
22237.958 0.484 61.023 0.875 -28.949 0.875 -28.949 0.484 61.023
22262.917 0.484 60.996 0.875 -28.976 0.875 -28.976 0.484 60.996
22287.875 0.485 60.969 0.874 -29.003 0.874 -29.003 0.485 60.969
22312.833 0.485 60.941 0.874 -29.031 0.874 -29.031 0.485 60.941
22337.792 0.486 60.914 0.874 -29.058 0.874 -29.058 0.486 60.914
22362.75 0.486 60.887 0.874 -29.085 0.874 -29.085 0.486 60.887
22387.708 0.487 60.859 0.873 -29.113 0.873 -29.113 0.487 60.859
22412.667 0.487 60.832 0.873 -29.14 0.873 -29.14 0.487 60.832
22437.625 0.487 60.805 0.873 -29.167 0.873 -29.167 0.487 60.805
22462.583 0.488 60.778 0.873 -29.195 0.873 -29.195 0.488 60.778
22487.542 0.488 60.75 0.873 -29.222 0.873 -29.222 0.488 60.75
22512.5 0.489 60.723 0.872 -29.249 0.872 -29.249 0.489 60.723
22537.458 0.489 60.696 0.872 -29.276 0.872 -29.276 0.489 60.696
22562.417 0.489 60.669 0.872 -29.303 0.872 -29.303 0.489 60.669
22587.375 0.49 60.642 0.872 -29.331 0.872 -29.331 0.49 60.642
22612.333 0.49 60.615 0.871 -29.358 0.871 -29.358 0.49 60.615
22637.292 0.491 60.587 0.871 -29.385 0.871 -29.385 0.491 60.587
22662.25 0.491 60.56 0.871 -29.412 0.871 -29.412 0.491 60.56
22687.208 0.492 60.533 0.871 -29.439 0.871 -29.439 0.492 60.533
22712.167 0.492 60.506 0.87 -29.466 0.87 -29.466 0.492 60.506
22737.125 0.492 60.479 0.87 -29.493 0.87 -29.493 0.492 60.479
22762.083 0.493 60.452 0.87 -29.521 0.87 -29.521 0.493 60.452
22787.042 0.493 60.425 0.87 -29.548 0.87 -29.548 0.493 60.425
22812 0.494 60.398 0.869 -29.575 0.869 -29.575 0.494 60.398
22836.958 0.494 60.371 0.869 -29.602 0.869 -29.602 0.494 60.371
22861.917 0.494 60.344 0.869 -29.629 0.869 -29.629 0.494 60.344
22886.875 0.495 60.317 0.869 -29.656 0.869 -29.656 0.495 60.317
22911.833 0.495 60.29 0.869 -29.683 0.869 -29.683 0.495 60.29
22936.792 0.496 60.263 0.868 -29.71 0.868 -29.71 0.496 60.263
22961.75 0.496 60.236 0.868 -29.737 0.868 -29.737 0.496 60.236
22986.708 0.496 60.209 0.868 -29.764 0.868 -29.764 0.496 60.209
23011.667 0.497 60.182 0.868 -29.791 0.868 -29.791 0.497 60.182
23036.625 0.497 60.155 0.867 -29.818 0.867 -29.818 0.497 60.155
23061.583 0.498 60.129 0.867 -29.844 0.867 -29.844 0.498 60.129
23086.542 0.498 60.102 0.867 -29.871 0.867 -29.871 0.498 60.102
23111.5 0.498 60.075 0.867 -29.898 0.867 -29.898 0.498 60.075
23136.458 0.499 60.048 0.866 -29.925 0.866 -29.925 0.499 60.048
23161.417 0.499 60.021 0.866 -29.952 0.866 -29.952 0.499 60.021
23186.375 0.5 59.994 0.866 -29.979 0.866 -29.979 0.5 59.994
23211.333 0.5 59.968 0.866 -30.006 0.866 -30.006 0.5 59.968
23236.292 0.5 59.941 0.866 -30.032 0.866 -30.032 0.5 59.941
23261.25 0.501 59.914 0.865 -30.059 0.865 -30.059 0.501 59.914
23286.208 0.501 59.887 0.865 -30.086 0.865 -30.086 0.501 59.887
23311.167 0.502 59.861 0.865 -30.113 0.865 -30.113 0.502 59.861
23336.125 0.502 59.834 0.865 -30.139 0.865 -30.139 0.502 59.834
23361.083 0.503 59.807 0.864 -30.166 0.864 -30.166 0.503 59.807
23386.042 0.503 59.78 0.864 -30.193 0.864 -30.193 0.503 59.78
23411 0.503 59.754 0.864 -30.22 0.864 -30.22 0.503 59.754
23435.958 0.504 59.727 0.864 -30.246 0.864 -30.246 0.504 59.727
23460.917 0.504 59.7 0.863 -30.273 0.863 -30.273 0.504 59.7
23485.875 0.505 59.674 0.863 -30.3 0.863 -30.3 0.505 59.674
23510.833 0.505 59.647 0.863 -30.326 0.863 -30.326 0.505 59.647
23535.792 0.505 59.621 0.863 -30.353 0.863 -30.353 0.505 59.621
23560.75 0.506 59.594 0.862 -30.38 0.862 -30.38 0.506 59.594
23585.708 0.506 59.567 0.862 -30.406 0.862 -30.406 0.506 59.567
23610.667 0.507 59.541 0.862 -30.433 0.862 -30.433 0.507 59.541
23635.625 0.507 59.514 0.862 -30.459 0.862 -30.459 0.507 59.514
23660.583 0.507 59.488 0.862 -30.486 0.862 -30.486 0.507 59.488
23685.542 0.508 59.461 0.861 -30.512 0.861 -30.512 0.508 59.461
23710.5 0.508 59.435 0.861 -30.539 0.861 -30.539 0.508 59.435
23735.458 0.509 59.408 0.861 -30.565 0.861 -30.565 0.509 59.408
23760.417 0.509 59.382 0.861 -30.592 0.861 -30.592 0.509 59.382
23785.375 0.509 59.355 0.86 -30.618 0.86 -30.618 0.509 59.355
23810.333 0.51 59.329 0.86 -30.645 0.86 -30.645 0.51 59.329
23835.292 0.51 59.302 0.86 -30.671 0.86 -30.671 0.51 59.302
23860.25 0.511 59.276 0.86 -30.698 0.86 -30.698 0.511 59.276
23885.208 0.511 59.25 0.859 -30.724 0.859 -30.724 0.511 59.25
23910.167 0.511 59.223 0.859 -30.751 0.859 -30.751 0.511 59.223
23935.125 0.512 59.197 0.859 -30.777 0.859 -30.777 0.512 59.197
23960.083 0.512 59.171 0.859 -30.803 0.859 -30.803 0.512 59.171
23985.042 0.512 59.144 0.858 -30.83 0.858 -30.83 0.512 59.144
24010 0.513 59.118 0.858 -30.856 0.858 -30.856 0.513 59.118
24034.958 0.513 59.092 0.858 -30.883 0.858 -30.883 0.513 59.092
24059.917 0.514 59.065 0.858 -30.909 0.858 -30.909 0.514 59.065
24084.875 0.514 59.039 0.858 -30.935 0.858 -30.935 0.514 59.039
24109.833 0.514 59.013 0.857 -30.961 0.857 -30.961 0.514 59.013
24134.792 0.515 58.986 0.857 -30.988 0.857 -30.988 0.515 58.986
24159.75 0.515 58.96 0.857 -31.014 0.857 -31.014 0.515 58.96
24184.708 0.516 58.934 0.857 -31.04 0.857 -31.04 0.516 58.934
24209.667 0.516 58.908 0.856 -31.067 0.856 -31.067 0.516 58.908
24234.625 0.516 58.882 0.856 -31.093 0.856 -31.093 0.516 58.882
24259.583 0.517 58.855 0.856 -31.119 0.856 -31.119 0.517 58.855
24284.542 0.517 58.829 0.856 -31.145 0.856 -31.145 0.517 58.829
24309.5 0.518 58.803 0.855 -31.171 0.855 -31.171 0.518 58.803
24334.458 0.518 58.777 0.855 -31.197 0.855 -31.197 0.518 58.777
24359.417 0.518 58.751 0.855 -31.224 0.855 -31.224 0.518 58.751
24384.375 0.519 58.725 0.855 -31.25 0.855 -31.25 0.519 58.725
24409.333 0.519 58.699 0.854 -31.276 0.854 -31.276 0.519 58.699
24434.292 0.52 58.673 0.854 -31.302 0.854 -31.302 0.52 58.673
24459.25 0.52 58.646 0.854 -31.328 0.854 -31.328 0.52 58.646
24484.208 0.52 58.62 0.854 -31.354 0.854 -31.354 0.52 58.62
24509.167 0.521 58.594 0.853 -31.38 0.853 -31.38 0.521 58.594
24534.125 0.521 58.568 0.853 -31.406 0.853 -31.406 0.521 58.568
24559.083 0.521 58.542 0.853 -31.432 0.853 -31.432 0.521 58.542
24584.042 0.522 58.516 0.853 -31.458 0.853 -31.458 0.522 58.516
24609 0.522 58.49 0.853 -31.484 0.853 -31.484 0.522 58.49
24633.958 0.523 58.464 0.852 -31.51 0.852 -31.51 0.523 58.464
24658.917 0.523 58.438 0.852 -31.536 0.852 -31.536 0.523 58.438
24683.875 0.523 58.413 0.852 -31.562 0.852 -31.562 0.523 58.413
24708.833 0.524 58.387 0.852 -31.588 0.852 -31.588 0.524 58.387
24733.792 0.524 58.361 0.851 -31.614 0.851 -31.614 0.524 58.361
24758.75 0.525 58.335 0.851 -31.64 0.851 -31.64 0.525 58.335
24783.708 0.525 58.309 0.851 -31.666 0.851 -31.666 0.525 58.309
24808.667 0.525 58.283 0.851 -31.692 0.851 -31.692 0.525 58.283
24833.625 0.526 58.257 0.85 -31.718 0.85 -31.718 0.526 58.257
24858.583 0.526 58.231 0.85 -31.744 0.85 -31.744 0.526 58.231
24883.542 0.527 58.206 0.85 -31.769 0.85 -31.769 0.527 58.206
24908.5 0.527 58.18 0.85 -31.795 0.85 -31.795 0.527 58.18
24933.458 0.527 58.154 0.849 -31.821 0.849 -31.821 0.527 58.154
24958.417 0.528 58.128 0.849 -31.847 0.849 -31.847 0.528 58.128
24983.375 0.528 58.102 0.849 -31.873 0.849 -31.873 0.528 58.102
25008.333 0.528 58.077 0.849 -31.898 0.849 -31.898 0.528 58.077
25033.292 0.529 58.051 0.849 -31.924 0.849 -31.924 0.529 58.051
25058.25 0.529 58.025 0.848 -31.95 0.848 -31.95 0.529 58.025
25083.208 0.53 58 0.848 -31.976 0.848 -31.976 0.53 58
25108.167 0.53 57.974 0.848 -32.001 0.848 -32.001 0.53 57.974
25133.125 0.53 57.948 0.848 -32.027 0.848 -32.027 0.53 57.948
25158.083 0.531 57.923 0.847 -32.053 0.847 -32.053 0.531 57.923
25183.042 0.531 57.897 0.847 -32.078 0.847 -32.078 0.531 57.897
25208 0.531 57.871 0.847 -32.104 0.847 -32.104 0.531 57.871
25232.958 0.532 57.846 0.847 -32.13 0.847 -32.13 0.532 57.846
25257.917 0.532 57.82 0.846 -32.155 0.846 -32.155 0.532 57.82
25282.875 0.533 57.794 0.846 -32.181 0.846 -32.181 0.533 57.794
25307.833 0.533 57.769 0.846 -32.207 0.846 -32.207 0.533 57.769
25332.792 0.533 57.743 0.846 -32.232 0.846 -32.232 0.533 57.743
25357.75 0.534 57.718 0.845 -32.258 0.845 -32.258 0.534 57.718
25382.708 0.534 57.692 0.845 -32.283 0.845 -32.283 0.534 57.692
25407.667 0.534 57.667 0.845 -32.309 0.845 -32.309 0.534 57.667
25432.625 0.535 57.641 0.845 -32.334 0.845 -32.334 0.535 57.641
25457.583 0.535 57.616 0.844 -32.36 0.844 -32.36 0.535 57.616
25482.542 0.536 57.59 0.844 -32.385 0.844 -32.385 0.536 57.59
25507.5 0.536 57.565 0.844 -32.411 0.844 -32.411 0.536 57.565
25532.458 0.536 57.539 0.844 -32.436 0.844 -32.436 0.536 57.539
25557.417 0.537 57.514 0.844 -32.462 0.844 -32.462 0.537 57.514
25582.375 0.537 57.489 0.843 -32.487 0.843 -32.487 0.537 57.489
25607.333 0.537 57.463 0.843 -32.513 0.843 -32.513 0.537 57.463
25632.292 0.538 57.438 0.843 -32.538 0.843 -32.538 0.538 57.438
25657.25 0.538 57.412 0.843 -32.563 0.843 -32.563 0.538 57.412
25682.208 0.539 57.387 0.842 -32.589 0.842 -32.589 0.539 57.387
25707.167 0.539 57.362 0.842 -32.614 0.842 -32.614 0.539 57.362
25732.125 0.539 57.336 0.842 -32.639 0.842 -32.639 0.539 57.336
25757.083 0.54 57.311 0.842 -32.665 0.842 -32.665 0.54 57.311
25782.042 0.54 57.286 0.841 -32.69 0.841 -32.69 0.54 57.286
25807 0.54 57.26 0.841 -32.715 0.841 -32.715 0.54 57.26
25831.958 0.541 57.235 0.841 -32.741 0.841 -32.741 0.541 57.235
25856.917 0.541 57.21 0.841 -32.766 0.841 -32.766 0.541 57.21
25881.875 0.542 57.185 0.84 -32.791 0.84 -32.791 0.542 57.185
25906.833 0.542 57.159 0.84 -32.817 0.84 -32.817 0.542 57.159
25931.792 0.542 57.134 0.84 -32.842 0.84 -32.842 0.542 57.134
25956.75 0.543 57.109 0.84 -32.867 0.84 -32.867 0.543 57.109
25981.708 0.543 57.084 0.839 -32.892 0.839 -32.892 0.543 57.084
26006.667 0.543 57.059 0.839 -32.917 0.839 -32.917 0.543 57.059
26031.625 0.544 57.034 0.839 -32.943 0.839 -32.943 0.544 57.034
26056.583 0.544 57.008 0.839 -32.968 0.839 -32.968 0.544 57.008
26081.542 0.545 56.983 0.839 -32.993 0.839 -32.993 0.545 56.983
26106.5 0.545 56.958 0.838 -33.018 0.838 -33.018 0.545 56.958
26131.458 0.545 56.933 0.838 -33.043 0.838 -33.043 0.545 56.933
26156.417 0.546 56.908 0.838 -33.068 0.838 -33.068 0.546 56.908
26181.375 0.546 56.883 0.838 -33.093 0.838 -33.093 0.546 56.883
26206.333 0.546 56.858 0.837 -33.118 0.837 -33.118 0.546 56.858
26231.292 0.547 56.833 0.837 -33.143 0.837 -33.143 0.547 56.833
26256.25 0.547 56.808 0.837 -33.168 0.837 -33.168 0.547 56.808
26281.208 0.547 56.783 0.837 -33.194 0.837 -33.194 0.547 56.783
26306.167 0.548 56.758 0.836 -33.219 0.836 -33.219 0.548 56.758
26331.125 0.548 56.733 0.836 -33.244 0.836 -33.244 0.548 56.733
26356.083 0.549 56.708 0.836 -33.269 0.836 -33.269 0.549 56.708
26381.042 0.549 56.683 0.836 -33.294 0.836 -33.294 0.549 56.683
26406 0.549 56.658 0.835 -33.318 0.835 -33.318 0.549 56.658
26430.958 0.55 56.633 0.835 -33.343 0.835 -33.343 0.55 56.633
26455.917 0.55 56.608 0.835 -33.368 0.835 -33.368 0.55 56.608
26480.875 0.55 56.583 0.835 -33.393 0.835 -33.393 0.55 56.583
26505.833 0.551 56.558 0.834 -33.418 0.834 -33.418 0.551 56.558
26530.792 0.551 56.533 0.834 -33.443 0.834 -33.443 0.551 56.533
26555.75 0.551 56.509 0.834 -33.468 0.834 -33.468 0.551 56.509
26580.708 0.552 56.484 0.834 -33.493 0.834 -33.493 0.552 56.484
26605.667 0.552 56.459 0.833 -33.518 0.833 -33.518 0.552 56.459
26630.625 0.553 56.434 0.833 -33.542 0.833 -33.542 0.553 56.434
26655.583 0.553 56.409 0.833 -33.567 0.833 -33.567 0.553 56.409
26680.542 0.553 56.385 0.833 -33.592 0.833 -33.592 0.553 56.385
26705.5 0.554 56.36 0.833 -33.617 0.833 -33.617 0.554 56.36
26730.458 0.554 56.335 0.832 -33.642 0.832 -33.642 0.554 56.335
26755.417 0.554 56.31 0.832 -33.666 0.832 -33.666 0.554 56.31
26780.375 0.555 56.286 0.832 -33.691 0.832 -33.691 0.555 56.286
26805.333 0.555 56.261 0.832 -33.716 0.832 -33.716 0.555 56.261
26830.292 0.555 56.236 0.831 -33.741 0.831 -33.741 0.555 56.236
26855.25 0.556 56.211 0.831 -33.765 0.831 -33.765 0.556 56.211
26880.208 0.556 56.187 0.831 -33.79 0.831 -33.79 0.556 56.187
26905.167 0.557 56.162 0.831 -33.815 0.831 -33.815 0.557 56.162
26930.125 0.557 56.138 0.83 -33.839 0.83 -33.839 0.557 56.138
26955.083 0.557 56.113 0.83 -33.864 0.83 -33.864 0.557 56.113
26980.042 0.558 56.088 0.83 -33.889 0.83 -33.889 0.558 56.088
27005 0.558 56.064 0.83 -33.913 0.83 -33.913 0.558 56.064
27029.958 0.558 56.039 0.829 -33.938 0.829 -33.938 0.558 56.039
27054.917 0.559 56.015 0.829 -33.962 0.829 -33.962 0.559 56.015
27079.875 0.559 55.99 0.829 -33.987 0.829 -33.987 0.559 55.99
27104.833 0.559 55.965 0.829 -34.012 0.829 -34.012 0.559 55.965
27129.792 0.56 55.941 0.828 -34.036 0.828 -34.036 0.56 55.941
27154.75 0.56 55.916 0.828 -34.061 0.828 -34.061 0.56 55.916
27179.708 0.56 55.892 0.828 -34.085 0.828 -34.085 0.56 55.892
27204.667 0.561 55.867 0.828 -34.11 0.828 -34.11 0.561 55.867
27229.625 0.561 55.843 0.828 -34.134 0.828 -34.134 0.561 55.843
27254.583 0.561 55.819 0.827 -34.159 0.827 -34.159 0.561 55.819
27279.542 0.562 55.794 0.827 -34.183 0.827 -34.183 0.562 55.794
27304.5 0.562 55.77 0.827 -34.208 0.827 -34.208 0.562 55.77
27329.458 0.563 55.745 0.827 -34.232 0.827 -34.232 0.563 55.745
27354.417 0.563 55.721 0.826 -34.256 0.826 -34.256 0.563 55.721
27379.375 0.563 55.696 0.826 -34.281 0.826 -34.281 0.563 55.696
27404.333 0.564 55.672 0.826 -34.305 0.826 -34.305 0.564 55.672
27429.292 0.564 55.648 0.826 -34.33 0.826 -34.33 0.564 55.648
27454.25 0.564 55.623 0.825 -34.354 0.825 -34.354 0.564 55.623
27479.208 0.565 55.599 0.825 -34.378 0.825 -34.378 0.565 55.599
27504.167 0.565 55.575 0.825 -34.403 0.825 -34.403 0.565 55.575
27529.125 0.565 55.55 0.825 -34.427 0.825 -34.427 0.565 55.55
27554.083 0.566 55.526 0.824 -34.451 0.824 -34.451 0.566 55.526
27579.042 0.566 55.502 0.824 -34.475 0.824 -34.475 0.566 55.502
27604 0.566 55.478 0.824 -34.5 0.824 -34.5 0.566 55.478
27628.958 0.567 55.453 0.824 -34.524 0.824 -34.524 0.567 55.453
27653.917 0.567 55.429 0.823 -34.548 0.823 -34.548 0.567 55.429
27678.875 0.567 55.405 0.823 -34.573 0.823 -34.573 0.567 55.405
27703.833 0.568 55.381 0.823 -34.597 0.823 -34.597 0.568 55.381
27728.792 0.568 55.357 0.823 -34.621 0.823 -34.621 0.568 55.357
27753.75 0.568 55.332 0.822 -34.645 0.822 -34.645 0.568 55.332
27778.708 0.569 55.308 0.822 -34.669 0.822 -34.669 0.569 55.308
27803.667 0.569 55.284 0.822 -34.693 0.822 -34.693 0.569 55.284
27828.625 0.57 55.26 0.822 -34.718 0.822 -34.718 0.57 55.26
27853.583 0.57 55.236 0.822 -34.742 0.822 -34.742 0.57 55.236
27878.542 0.57 55.212 0.821 -34.766 0.821 -34.766 0.57 55.212
27903.5 0.571 55.188 0.821 -34.79 0.821 -34.79 0.571 55.188
27928.458 0.571 55.164 0.821 -34.814 0.821 -34.814 0.571 55.164
27953.417 0.571 55.14 0.821 -34.838 0.821 -34.838 0.571 55.14
27978.375 0.572 55.116 0.82 -34.862 0.82 -34.862 0.572 55.116
28003.333 0.572 55.092 0.82 -34.886 0.82 -34.886 0.572 55.092
28028.292 0.572 55.068 0.82 -34.91 0.82 -34.91 0.572 55.068
28053.25 0.573 55.044 0.82 -34.934 0.82 -34.934 0.573 55.044
28078.208 0.573 55.02 0.819 -34.958 0.819 -34.958 0.573 55.02
28103.167 0.573 54.996 0.819 -34.982 0.819 -34.982 0.573 54.996
28128.125 0.574 54.972 0.819 -35.006 0.819 -35.006 0.574 54.972
28153.083 0.574 54.948 0.819 -35.03 0.819 -35.03 0.574 54.948
28178.042 0.574 54.924 0.818 -35.054 0.818 -35.054 0.574 54.924
28203 0.575 54.9 0.818 -35.078 0.818 -35.078 0.575 54.9
28227.958 0.575 54.876 0.818 -35.102 0.818 -35.102 0.575 54.876
28252.917 0.575 54.852 0.818 -35.126 0.818 -35.126 0.575 54.852
28277.875 0.576 54.828 0.817 -35.15 0.817 -35.15 0.576 54.828
28302.833 0.576 54.804 0.817 -35.174 0.817 -35.174 0.576 54.804
28327.792 0.576 54.78 0.817 -35.198 0.817 -35.198 0.576 54.78
28352.75 0.577 54.757 0.817 -35.221 0.817 -35.221 0.577 54.757
28377.708 0.577 54.733 0.816 -35.245 0.816 -35.245 0.577 54.733
28402.667 0.577 54.709 0.816 -35.269 0.816 -35.269 0.577 54.709
28427.625 0.578 54.685 0.816 -35.293 0.816 -35.293 0.578 54.685
28452.583 0.578 54.661 0.816 -35.317 0.816 -35.317 0.578 54.661
28477.542 0.578 54.638 0.816 -35.34 0.816 -35.34 0.578 54.638
28502.5 0.579 54.614 0.815 -35.364 0.815 -35.364 0.579 54.614
28527.458 0.579 54.59 0.815 -35.388 0.815 -35.388 0.579 54.59
28552.417 0.579 54.566 0.815 -35.412 0.815 -35.412 0.579 54.566
28577.375 0.58 54.543 0.815 -35.435 0.815 -35.435 0.58 54.543
28602.333 0.58 54.519 0.814 -35.459 0.814 -35.459 0.58 54.519
28627.292 0.58 54.495 0.814 -35.483 0.814 -35.483 0.58 54.495
28652.25 0.581 54.472 0.814 -35.507 0.814 -35.507 0.581 54.472
28677.208 0.581 54.448 0.814 -35.53 0.814 -35.53 0.581 54.448
28702.167 0.581 54.424 0.813 -35.554 0.813 -35.554 0.581 54.424
28727.125 0.582 54.401 0.813 -35.578 0.813 -35.578 0.582 54.401
28752.083 0.582 54.377 0.813 -35.601 0.813 -35.601 0.582 54.377
28777.042 0.582 54.354 0.813 -35.625 0.813 -35.625 0.582 54.354
28802 0.583 54.33 0.812 -35.648 0.812 -35.648 0.583 54.33
28826.958 0.583 54.306 0.812 -35.672 0.812 -35.672 0.583 54.306
28851.917 0.583 54.283 0.812 -35.695 0.812 -35.695 0.583 54.283
28876.875 0.584 54.259 0.812 -35.719 0.812 -35.719 0.584 54.259
28901.833 0.584 54.236 0.811 -35.743 0.811 -35.743 0.584 54.236
28926.792 0.584 54.212 0.811 -35.766 0.811 -35.766 0.584 54.212
28951.75 0.585 54.189 0.811 -35.79 0.811 -35.79 0.585 54.189
28976.708 0.585 54.165 0.811 -35.813 0.811 -35.813 0.585 54.165
29001.667 0.585 54.142 0.81 -35.837 0.81 -35.837 0.585 54.142
29026.625 0.586 54.118 0.81 -35.86 0.81 -35.86 0.586 54.118
29051.583 0.586 54.095 0.81 -35.884 0.81 -35.884 0.586 54.095
29076.542 0.586 54.072 0.81 -35.907 0.81 -35.907 0.586 54.072
29101.5 0.587 54.048 0.81 -35.93 0.81 -35.93 0.587 54.048
29126.458 0.587 54.025 0.809 -35.954 0.809 -35.954 0.587 54.025
29151.417 0.587 54.001 0.809 -35.977 0.809 -35.977 0.587 54.001
29176.375 0.588 53.978 0.809 -36.001 0.809 -36.001 0.588 53.978
29201.333 0.588 53.955 0.809 -36.024 0.809 -36.024 0.588 53.955
29226.292 0.588 53.931 0.808 -36.047 0.808 -36.047 0.588 53.931
29251.25 0.589 53.908 0.808 -36.071 0.808 -36.071 0.589 53.908
29276.208 0.589 53.885 0.808 -36.094 0.808 -36.094 0.589 53.885
29301.167 0.589 53.861 0.808 -36.117 0.808 -36.117 0.589 53.861
29326.125 0.59 53.838 0.807 -36.141 0.807 -36.141 0.59 53.838
29351.083 0.59 53.815 0.807 -36.164 0.807 -36.164 0.59 53.815
29376.042 0.59 53.792 0.807 -36.187 0.807 -36.187 0.59 53.792
29401 0.591 53.768 0.807 -36.211 0.807 -36.211 0.591 53.768
29425.958 0.591 53.745 0.806 -36.234 0.806 -36.234 0.591 53.745
29450.917 0.591 53.722 0.806 -36.257 0.806 -36.257 0.591 53.722
29475.875 0.592 53.699 0.806 -36.28 0.806 -36.28 0.592 53.699
29500.833 0.592 53.675 0.806 -36.303 0.806 -36.303 0.592 53.675
29525.792 0.592 53.652 0.805 -36.327 0.805 -36.327 0.592 53.652
29550.75 0.593 53.629 0.805 -36.35 0.805 -36.35 0.593 53.629
29575.708 0.593 53.606 0.805 -36.373 0.805 -36.373 0.593 53.606
29600.667 0.593 53.583 0.805 -36.396 0.805 -36.396 0.593 53.583
29625.625 0.594 53.56 0.804 -36.419 0.804 -36.419 0.594 53.56
29650.583 0.594 53.537 0.804 -36.442 0.804 -36.442 0.594 53.537
29675.542 0.594 53.514 0.804 -36.465 0.804 -36.465 0.594 53.514
29700.5 0.595 53.49 0.804 -36.489 0.804 -36.489 0.595 53.49
29725.458 0.595 53.467 0.804 -36.512 0.804 -36.512 0.595 53.467
29750.417 0.595 53.444 0.803 -36.535 0.803 -36.535 0.595 53.444
29775.375 0.596 53.421 0.803 -36.558 0.803 -36.558 0.596 53.421
29800.333 0.596 53.398 0.803 -36.581 0.803 -36.581 0.596 53.398
29825.292 0.596 53.375 0.803 -36.604 0.803 -36.604 0.596 53.375
29850.25 0.597 53.352 0.802 -36.627 0.802 -36.627 0.597 53.352
29875.208 0.597 53.329 0.802 -36.65 0.802 -36.65 0.597 53.329
29900.167 0.597 53.306 0.802 -36.673 0.802 -36.673 0.597 53.306
29925.125 0.598 53.283 0.802 -36.696 0.802 -36.696 0.598 53.283
29950.083 0.598 53.26 0.801 -36.719 0.801 -36.719 0.598 53.26
29975.042 0.598 53.237 0.801 -36.742 0.801 -36.742 0.598 53.237
30000 0.599 53.215 0.801 -36.765 0.801 -36.765 0.599 53.215
