!	AVX Thin Film Operation 	Date: April 2014		
!	Description: Accu-P® Series, Thin Film  SMD RF Capacitor
!	Part Number: 04023K680FBSTR					
!
# MHZ S MA R 50

50 0.423 -64.965 0.906 25.002 0.906 25.002 0.423 -64.965
74.958 0.296 -72.742 0.955 17.208 0.955 17.208 0.296 -72.742
99.917 0.225 -76.931 0.974 13.002 0.974 13.002 0.225 -76.931
124.875 0.18 -79.529 0.983 10.387 0.983 10.387 0.18 -79.529
149.833 0.15 -81.296 0.988 8.601 0.988 8.601 0.15 -81.296
174.792 0.127 -82.577 0.992 7.302 0.992 7.302 0.127 -82.577
199.75 0.11 -83.549 0.994 6.311 0.994 6.311 0.11 -83.549
224.708 0.096 -84.312 0.995 5.528 0.995 5.528 0.096 -84.312
249.667 0.085 -84.929 0.996 4.89 0.996 4.89 0.085 -84.929
274.625 0.076 -85.439 0.997 4.358 0.997 4.358 0.076 -85.439
299.583 0.068 -85.866 0.997 3.907 0.997 3.907 0.068 -85.866
324.542 0.061 -86.23 0.998 3.518 0.998 3.518 0.061 -86.23
349.5 0.055 -86.544 0.998 3.177 0.998 3.177 0.055 -86.544
374.458 0.05 -86.816 0.998 2.876 0.998 2.876 0.05 -86.816
399.417 0.045 -87.054 0.999 2.606 0.999 2.606 0.045 -87.054
424.375 0.041 -87.263 0.999 2.362 0.999 2.362 0.041 -87.263
449.333 0.037 -87.446 0.999 2.14 0.999 2.14 0.037 -87.446
474.292 0.034 -87.606 0.999 1.937 0.999 1.937 0.034 -87.606
499.25 0.031 -87.745 0.999 1.749 0.999 1.749 0.031 -87.745
524.208 0.027 -87.863 0.999 1.574 0.999 1.574 0.027 -87.863
549.167 0.025 -87.961 0.999 1.411 0.999 1.411 0.025 -87.961
574.125 0.022 -88.037 0.999 1.258 0.999 1.258 0.022 -88.037
599.083 0.019 -88.09 1 1.114 1 1.114 0.019 -88.09
624.042 0.017 -88.116 1 0.978 1 0.978 0.017 -88.116
649 0.015 -88.107 1 0.849 1 0.849 0.015 -88.107
673.958 0.013 -88.053 1 0.725 1 0.725 0.013 -88.053
698.917 0.011 -87.934 1 0.608 1 0.608 0.011 -87.934
723.875 8.639e-3 -87.714 1 0.495 1 0.495 8.639e-3 -87.714
748.833 6.746e-3 -87.32 1 0.386 1 0.386 6.746e-3 -87.32
773.792 4.923e-3 -86.575 1 0.282 1 0.282 4.923e-3 -86.575
798.75 3.166e-3 -84.927 1 0.181 1 0.181 3.166e-3 -84.927
823.708 1.475e-3 -79.368 1 0.083 1 0.083 1.475e-3 -79.368
848.667 337.4e-6 36.842 1 -0.012 1 -0.012 337.4e-6 36.842
873.625 1.827e-3 81.398 1 -0.104 1 -0.104 1.827e-3 81.398
898.583 3.378e-3 85.223 1 -0.193 1 -0.193 3.378e-3 85.223
923.542 4.895e-3 86.559 1 -0.28 1 -0.28 4.895e-3 86.559
948.5 6.377e-3 87.209 1 -0.365 1 -0.365 6.377e-3 87.209
973.458 7.825e-3 87.575 1 -0.448 1 -0.448 7.825e-3 87.575
998.417 9.242e-3 87.797 1 -0.529 1 -0.529 9.242e-3 87.797
1023.375 0.011 87.936 1 -0.609 1 -0.609 0.011 87.936
1048.333 0.012 88.023 1 -0.687 1 -0.687 0.012 88.023
1073.292 0.013 88.076 1 -0.763 1 -0.763 0.013 88.076
1098.25 0.015 88.105 1 -0.839 1 -0.839 0.015 88.105
1123.208 0.016 88.116 1 -0.912 1 -0.912 0.016 88.116
1148.167 0.017 88.115 1 -0.985 1 -0.985 0.017 88.115
1173.125 0.018 88.105 1 -1.057 1 -1.057 0.018 88.105
1198.083 0.02 88.087 1 -1.127 1 -1.127 0.02 88.087
1223.042 0.021 88.063 1 -1.197 1 -1.197 0.021 88.063
1248 0.022 88.034 0.999 -1.266 0.999 -1.266 0.022 88.034
1272.958 0.023 88.002 0.999 -1.333 0.999 -1.333 0.023 88.002
1297.917 0.024 87.967 0.999 -1.4 0.999 -1.4 0.024 87.967
1322.875 0.026 87.929 0.999 -1.467 0.999 -1.467 0.026 87.929
1347.833 0.027 87.889 0.999 -1.532 0.999 -1.532 0.027 87.889
1372.792 0.028 87.848 0.999 -1.597 0.999 -1.597 0.028 87.848
1397.75 0.029 87.805 0.999 -1.661 0.999 -1.661 0.029 87.805
1422.708 0.03 87.761 0.999 -1.725 0.999 -1.725 0.03 87.761
1447.667 0.031 87.717 0.999 -1.788 0.999 -1.788 0.031 87.717
1472.625 0.032 87.671 0.999 -1.85 0.999 -1.85 0.032 87.671
1497.583 0.033 87.625 0.999 -1.912 0.999 -1.912 0.033 87.625
1522.542 0.034 87.578 0.999 -1.974 0.999 -1.974 0.034 87.578
1547.5 0.036 87.53 0.999 -2.034 0.999 -2.034 0.036 87.53
1572.458 0.037 87.482 0.999 -2.095 0.999 -2.095 0.037 87.482
1597.417 0.038 87.434 0.999 -2.155 0.999 -2.155 0.038 87.434
1622.375 0.039 87.385 0.999 -2.215 0.999 -2.215 0.039 87.385
1647.333 0.04 87.337 0.999 -2.274 0.999 -2.274 0.04 87.337
1672.292 0.041 87.288 0.999 -2.333 0.999 -2.333 0.041 87.288
1697.25 0.042 87.238 0.999 -2.391 0.999 -2.391 0.042 87.238
1722.208 0.043 87.189 0.999 -2.449 0.999 -2.449 0.043 87.189
1747.167 0.044 87.14 0.999 -2.507 0.999 -2.507 0.044 87.14
1772.125 0.045 87.09 0.999 -2.565 0.999 -2.565 0.045 87.09
1797.083 0.046 87.04 0.999 -2.622 0.999 -2.622 0.046 87.04
1822.042 0.047 86.991 0.999 -2.679 0.999 -2.679 0.047 86.991
1847 0.048 86.941 0.999 -2.735 0.999 -2.735 0.048 86.941
1871.958 0.049 86.891 0.999 -2.792 0.999 -2.792 0.049 86.891
1896.917 0.05 86.841 0.998 -2.848 0.998 -2.848 0.05 86.841
1921.875 0.051 86.791 0.998 -2.904 0.998 -2.904 0.051 86.791
1946.833 0.052 86.742 0.998 -2.959 0.998 -2.959 0.052 86.742
1971.792 0.053 86.692 0.998 -3.015 0.998 -3.015 0.053 86.692
1996.75 0.054 86.642 0.998 -3.07 0.998 -3.07 0.054 86.642
2021.708 0.055 86.592 0.998 -3.125 0.998 -3.125 0.055 86.592
2046.667 0.055 86.542 0.998 -3.179 0.998 -3.179 0.055 86.542
2071.625 0.056 86.492 0.998 -3.234 0.998 -3.234 0.056 86.492
2096.583 0.057 86.443 0.998 -3.288 0.998 -3.288 0.057 86.443
2121.542 0.058 86.393 0.998 -3.342 0.998 -3.342 0.058 86.393
2146.5 0.059 86.343 0.998 -3.396 0.998 -3.396 0.059 86.343
2171.458 0.06 86.293 0.998 -3.45 0.998 -3.45 0.06 86.293
2196.417 0.061 86.244 0.998 -3.504 0.998 -3.504 0.061 86.244
2221.375 0.062 86.194 0.998 -3.557 0.998 -3.557 0.062 86.194
2246.333 0.063 86.144 0.998 -3.61 0.998 -3.61 0.063 86.144
2271.292 0.064 86.095 0.998 -3.664 0.998 -3.664 0.064 86.095
2296.25 0.065 86.045 0.998 -3.717 0.998 -3.717 0.065 86.045
2321.208 0.066 85.996 0.998 -3.769 0.998 -3.769 0.066 85.996
2346.167 0.067 85.946 0.998 -3.822 0.998 -3.822 0.067 85.946
2371.125 0.068 85.897 0.997 -3.875 0.997 -3.875 0.068 85.897
2396.083 0.068 85.847 0.997 -3.927 0.997 -3.927 0.068 85.847
2421.042 0.069 85.798 0.997 -3.979 0.997 -3.979 0.069 85.798
2446 0.07 85.749 0.997 -4.032 0.997 -4.032 0.07 85.749
2470.958 0.071 85.7 0.997 -4.084 0.997 -4.084 0.071 85.7
2495.917 0.072 85.65 0.997 -4.136 0.997 -4.136 0.072 85.65
2520.875 0.073 85.601 0.997 -4.188 0.997 -4.188 0.073 85.601
2545.833 0.074 85.552 0.997 -4.239 0.997 -4.239 0.074 85.552
2570.792 0.075 85.503 0.997 -4.291 0.997 -4.291 0.075 85.503
2595.75 0.076 85.454 0.997 -4.342 0.997 -4.342 0.076 85.454
2620.708 0.077 85.405 0.997 -4.394 0.997 -4.394 0.077 85.405
2645.667 0.078 85.356 0.997 -4.445 0.997 -4.445 0.078 85.356
2670.625 0.078 85.307 0.997 -4.496 0.997 -4.496 0.078 85.307
2695.583 0.079 85.258 0.997 -4.547 0.997 -4.547 0.079 85.258
2720.542 0.08 85.209 0.997 -4.599 0.997 -4.599 0.08 85.209
2745.5 0.081 85.16 0.996 -4.649 0.996 -4.649 0.081 85.16
2770.458 0.082 85.112 0.996 -4.7 0.996 -4.7 0.082 85.112
2795.417 0.083 85.063 0.996 -4.751 0.996 -4.751 0.083 85.063
2820.375 0.084 85.014 0.996 -4.802 0.996 -4.802 0.084 85.014
2845.333 0.085 84.965 0.996 -4.852 0.996 -4.852 0.085 84.965
2870.292 0.085 84.917 0.996 -4.903 0.996 -4.903 0.085 84.917
2895.25 0.086 84.868 0.996 -4.953 0.996 -4.953 0.086 84.868
2920.208 0.087 84.82 0.996 -5.004 0.996 -5.004 0.087 84.82
2945.167 0.088 84.771 0.996 -5.054 0.996 -5.054 0.088 84.771
2970.125 0.089 84.723 0.996 -5.104 0.996 -5.104 0.089 84.723
2995.083 0.09 84.674 0.996 -5.154 0.996 -5.154 0.09 84.674
3020.042 0.091 84.626 0.996 -5.205 0.996 -5.205 0.091 84.626
3045 0.092 84.577 0.996 -5.255 0.996 -5.255 0.092 84.577
3069.958 0.092 84.529 0.995 -5.304 0.995 -5.304 0.092 84.529
3094.917 0.093 84.481 0.995 -5.354 0.995 -5.354 0.093 84.481
3119.875 0.094 84.432 0.995 -5.404 0.995 -5.404 0.094 84.432
3144.833 0.095 84.384 0.995 -5.454 0.995 -5.454 0.095 84.384
3169.792 0.096 84.336 0.995 -5.504 0.995 -5.504 0.096 84.336
3194.75 0.097 84.288 0.995 -5.553 0.995 -5.553 0.097 84.288
3219.708 0.098 84.239 0.995 -5.603 0.995 -5.603 0.098 84.239
3244.667 0.098 84.191 0.995 -5.652 0.995 -5.652 0.098 84.191
3269.625 0.099 84.143 0.995 -5.702 0.995 -5.702 0.099 84.143
3294.583 0.1 84.095 0.995 -5.751 0.995 -5.751 0.1 84.095
3319.542 0.101 84.047 0.995 -5.801 0.995 -5.801 0.101 84.047
3344.5 0.102 83.999 0.995 -5.85 0.995 -5.85 0.102 83.999
3369.458 0.103 83.951 0.994 -5.899 0.994 -5.899 0.103 83.951
3394.417 0.104 83.903 0.994 -5.948 0.994 -5.948 0.104 83.903
3419.375 0.104 83.855 0.994 -5.998 0.994 -5.998 0.104 83.855
3444.333 0.105 83.807 0.994 -6.047 0.994 -6.047 0.105 83.807
3469.292 0.106 83.759 0.994 -6.096 0.994 -6.096 0.106 83.759
3494.25 0.107 83.712 0.994 -6.145 0.994 -6.145 0.107 83.712
3519.208 0.108 83.664 0.994 -6.194 0.994 -6.194 0.108 83.664
3544.167 0.109 83.616 0.994 -6.242 0.994 -6.242 0.109 83.616
3569.125 0.11 83.568 0.994 -6.291 0.994 -6.291 0.11 83.568
3594.083 0.11 83.521 0.994 -6.34 0.994 -6.34 0.11 83.521
3619.042 0.111 83.473 0.994 -6.389 0.994 -6.389 0.111 83.473
3644 0.112 83.425 0.993 -6.438 0.993 -6.438 0.112 83.425
3668.958 0.113 83.378 0.993 -6.486 0.993 -6.486 0.113 83.378
3693.917 0.114 83.33 0.993 -6.535 0.993 -6.535 0.114 83.33
3718.875 0.115 83.282 0.993 -6.584 0.993 -6.584 0.115 83.282
3743.833 0.115 83.235 0.993 -6.632 0.993 -6.632 0.115 83.235
3768.792 0.116 83.187 0.993 -6.681 0.993 -6.681 0.116 83.187
3793.75 0.117 83.14 0.993 -6.729 0.993 -6.729 0.117 83.14
3818.708 0.118 83.092 0.993 -6.777 0.993 -6.777 0.118 83.092
3843.667 0.119 83.045 0.993 -6.826 0.993 -6.826 0.119 83.045
3868.625 0.12 82.997 0.993 -6.874 0.993 -6.874 0.12 82.997
3893.583 0.121 82.95 0.992 -6.923 0.992 -6.923 0.121 82.95
3918.542 0.121 82.903 0.992 -6.971 0.992 -6.971 0.121 82.903
3943.5 0.122 82.855 0.992 -7.019 0.992 -7.019 0.122 82.855
3968.458 0.123 82.808 0.992 -7.067 0.992 -7.067 0.123 82.808
3993.417 0.124 82.761 0.992 -7.115 0.992 -7.115 0.124 82.761
4018.375 0.125 82.713 0.992 -7.164 0.992 -7.164 0.125 82.713
4043.333 0.126 82.666 0.992 -7.212 0.992 -7.212 0.126 82.666
4068.292 0.126 82.619 0.992 -7.26 0.992 -7.26 0.126 82.619
4093.25 0.127 82.572 0.992 -7.308 0.992 -7.308 0.127 82.572
4118.208 0.128 82.524 0.992 -7.356 0.992 -7.356 0.128 82.524
4143.167 0.129 82.477 0.991 -7.404 0.991 -7.404 0.129 82.477
4168.125 0.13 82.43 0.991 -7.452 0.991 -7.452 0.13 82.43
4193.083 0.131 82.383 0.991 -7.499 0.991 -7.499 0.131 82.383
4218.042 0.131 82.336 0.991 -7.547 0.991 -7.547 0.131 82.336
4243 0.132 82.289 0.991 -7.595 0.991 -7.595 0.132 82.289
4267.958 0.133 82.242 0.991 -7.643 0.991 -7.643 0.133 82.242
4292.917 0.134 82.195 0.991 -7.691 0.991 -7.691 0.134 82.195
4317.875 0.135 82.148 0.991 -7.738 0.991 -7.738 0.135 82.148
4342.833 0.135 82.101 0.991 -7.786 0.991 -7.786 0.135 82.101
4367.792 0.136 82.054 0.99 -7.834 0.99 -7.834 0.136 82.054
4392.75 0.137 82.007 0.99 -7.881 0.99 -7.881 0.137 82.007
4417.708 0.138 81.96 0.99 -7.929 0.99 -7.929 0.138 81.96
4442.667 0.139 81.913 0.99 -7.977 0.99 -7.977 0.139 81.913
4467.625 0.14 81.866 0.99 -8.024 0.99 -8.024 0.14 81.866
4492.583 0.14 81.819 0.99 -8.072 0.99 -8.072 0.14 81.819
4517.542 0.141 81.772 0.99 -8.119 0.99 -8.119 0.141 81.772
4542.5 0.142 81.726 0.99 -8.167 0.99 -8.167 0.142 81.726
4567.458 0.143 81.679 0.989 -8.214 0.989 -8.214 0.143 81.679
4592.417 0.144 81.632 0.989 -8.261 0.989 -8.261 0.144 81.632
4617.375 0.145 81.585 0.989 -8.309 0.989 -8.309 0.145 81.585
4642.333 0.145 81.538 0.989 -8.356 0.989 -8.356 0.145 81.538
4667.292 0.146 81.492 0.989 -8.403 0.989 -8.403 0.146 81.492
4692.25 0.147 81.445 0.989 -8.451 0.989 -8.451 0.147 81.445
4717.208 0.148 81.398 0.989 -8.498 0.989 -8.498 0.148 81.398
4742.167 0.149 81.352 0.989 -8.545 0.989 -8.545 0.149 81.352
4767.125 0.149 81.305 0.989 -8.592 0.989 -8.592 0.149 81.305
4792.083 0.15 81.258 0.988 -8.64 0.988 -8.64 0.15 81.258
4817.042 0.151 81.212 0.988 -8.687 0.988 -8.687 0.151 81.212
4842 0.152 81.165 0.988 -8.734 0.988 -8.734 0.152 81.165
4866.958 0.153 81.119 0.988 -8.781 0.988 -8.781 0.153 81.119
4891.917 0.153 81.072 0.988 -8.828 0.988 -8.828 0.153 81.072
4916.875 0.154 81.026 0.988 -8.875 0.988 -8.875 0.154 81.026
4941.833 0.155 80.979 0.988 -8.922 0.988 -8.922 0.155 80.979
4966.792 0.156 80.933 0.988 -8.969 0.988 -8.969 0.156 80.933
4991.75 0.157 80.886 0.987 -9.016 0.987 -9.016 0.157 80.886
5016.708 0.158 80.84 0.987 -9.063 0.987 -9.063 0.158 80.84
5041.667 0.158 80.793 0.987 -9.11 0.987 -9.11 0.158 80.793
5066.625 0.159 80.747 0.987 -9.157 0.987 -9.157 0.159 80.747
5091.583 0.16 80.701 0.987 -9.204 0.987 -9.204 0.16 80.701
5116.542 0.161 80.654 0.987 -9.251 0.987 -9.251 0.161 80.654
5141.5 0.162 80.608 0.987 -9.297 0.987 -9.297 0.162 80.608
5166.458 0.162 80.562 0.986 -9.344 0.986 -9.344 0.162 80.562
5191.417 0.163 80.515 0.986 -9.391 0.986 -9.391 0.163 80.515
5216.375 0.164 80.469 0.986 -9.438 0.986 -9.438 0.164 80.469
5241.333 0.165 80.423 0.986 -9.485 0.986 -9.485 0.165 80.423
5266.292 0.166 80.377 0.986 -9.531 0.986 -9.531 0.166 80.377
5291.25 0.166 80.33 0.986 -9.578 0.986 -9.578 0.166 80.33
5316.208 0.167 80.284 0.986 -9.625 0.986 -9.625 0.167 80.284
5341.167 0.168 80.238 0.986 -9.671 0.986 -9.671 0.168 80.238
5366.125 0.169 80.192 0.985 -9.718 0.985 -9.718 0.169 80.192
5391.083 0.17 80.146 0.985 -9.764 0.985 -9.764 0.17 80.146
5416.042 0.17 80.1 0.985 -9.811 0.985 -9.811 0.17 80.1
5441 0.171 80.053 0.985 -9.857 0.985 -9.857 0.171 80.053
5465.958 0.172 80.007 0.985 -9.904 0.985 -9.904 0.172 80.007
5490.917 0.173 79.961 0.985 -9.95 0.985 -9.95 0.173 79.961
5515.875 0.174 79.915 0.985 -9.997 0.985 -9.997 0.174 79.915
5540.833 0.174 79.869 0.984 -10.043 0.984 -10.043 0.174 79.869
5565.792 0.175 79.823 0.984 -10.09 0.984 -10.09 0.175 79.823
5590.75 0.176 79.777 0.984 -10.136 0.984 -10.136 0.176 79.777
5615.708 0.177 79.731 0.984 -10.183 0.984 -10.183 0.177 79.731
5640.667 0.178 79.685 0.984 -10.229 0.984 -10.229 0.178 79.685
5665.625 0.178 79.639 0.984 -10.275 0.984 -10.275 0.178 79.639
5690.583 0.179 79.593 0.984 -10.322 0.984 -10.322 0.179 79.593
5715.542 0.18 79.548 0.983 -10.368 0.983 -10.368 0.18 79.548
5740.5 0.181 79.502 0.983 -10.414 0.983 -10.414 0.181 79.502
5765.458 0.182 79.456 0.983 -10.46 0.983 -10.46 0.182 79.456
5790.417 0.182 79.41 0.983 -10.507 0.983 -10.507 0.182 79.41
5815.375 0.183 79.364 0.983 -10.553 0.983 -10.553 0.183 79.364
5840.333 0.184 79.318 0.983 -10.599 0.983 -10.599 0.184 79.318
5865.292 0.185 79.273 0.983 -10.645 0.983 -10.645 0.185 79.273
5890.25 0.186 79.227 0.982 -10.691 0.982 -10.691 0.186 79.227
5915.208 0.186 79.181 0.982 -10.737 0.982 -10.737 0.186 79.181
5940.167 0.187 79.135 0.982 -10.783 0.982 -10.783 0.187 79.135
5965.125 0.188 79.09 0.982 -10.829 0.982 -10.829 0.188 79.09
5990.083 0.189 79.044 0.982 -10.876 0.982 -10.876 0.189 79.044
6015.042 0.189 78.998 0.982 -10.922 0.982 -10.922 0.189 78.998
6040 0.19 78.953 0.981 -10.968 0.981 -10.968 0.19 78.953
6064.958 0.191 78.907 0.981 -11.014 0.981 -11.014 0.191 78.907
6089.917 0.192 78.861 0.981 -11.059 0.981 -11.059 0.192 78.861
6114.875 0.193 78.816 0.981 -11.105 0.981 -11.105 0.193 78.816
6139.833 0.193 78.77 0.981 -11.151 0.981 -11.151 0.193 78.77
6164.792 0.194 78.725 0.981 -11.197 0.981 -11.197 0.194 78.725
6189.75 0.195 78.679 0.981 -11.243 0.981 -11.243 0.195 78.679
6214.708 0.196 78.634 0.98 -11.289 0.98 -11.289 0.196 78.634
6239.667 0.197 78.588 0.98 -11.335 0.98 -11.335 0.197 78.588
6264.625 0.197 78.543 0.98 -11.381 0.98 -11.381 0.197 78.543
6289.583 0.198 78.497 0.98 -11.426 0.98 -11.426 0.198 78.497
6314.542 0.199 78.452 0.98 -11.472 0.98 -11.472 0.199 78.452
6339.5 0.2 78.406 0.98 -11.518 0.98 -11.518 0.2 78.406
6364.458 0.2 78.361 0.979 -11.564 0.979 -11.564 0.2 78.361
6389.417 0.201 78.315 0.979 -11.609 0.979 -11.609 0.201 78.315
6414.375 0.202 78.27 0.979 -11.655 0.979 -11.655 0.202 78.27
6439.333 0.203 78.225 0.979 -11.701 0.979 -11.701 0.203 78.225
6464.292 0.204 78.179 0.979 -11.746 0.979 -11.746 0.204 78.179
6489.25 0.204 78.134 0.979 -11.792 0.979 -11.792 0.204 78.134
6514.208 0.205 78.089 0.978 -11.837 0.978 -11.837 0.205 78.089
6539.167 0.206 78.043 0.978 -11.883 0.978 -11.883 0.206 78.043
6564.125 0.207 77.998 0.978 -11.929 0.978 -11.929 0.207 77.998
6589.083 0.207 77.953 0.978 -11.974 0.978 -11.974 0.207 77.953
6614.042 0.208 77.908 0.978 -12.02 0.978 -12.02 0.208 77.908
6639 0.209 77.862 0.978 -12.065 0.978 -12.065 0.209 77.862
6663.958 0.21 77.817 0.977 -12.111 0.977 -12.111 0.21 77.817
6688.917 0.211 77.772 0.977 -12.156 0.977 -12.156 0.211 77.772
6713.875 0.211 77.727 0.977 -12.201 0.977 -12.201 0.211 77.727
6738.833 0.212 77.682 0.977 -12.247 0.977 -12.247 0.212 77.682
6763.792 0.213 77.637 0.977 -12.292 0.977 -12.292 0.213 77.637
6788.75 0.214 77.592 0.977 -12.338 0.977 -12.338 0.214 77.592
6813.708 0.214 77.547 0.976 -12.383 0.976 -12.383 0.214 77.547
6838.667 0.215 77.501 0.976 -12.428 0.976 -12.428 0.215 77.501
6863.625 0.216 77.456 0.976 -12.474 0.976 -12.474 0.216 77.456
6888.583 0.217 77.411 0.976 -12.519 0.976 -12.519 0.217 77.411
6913.542 0.218 77.366 0.976 -12.564 0.976 -12.564 0.218 77.366
6938.5 0.218 77.321 0.976 -12.609 0.976 -12.609 0.218 77.321
6963.458 0.219 77.276 0.975 -12.655 0.975 -12.655 0.219 77.276
6988.417 0.22 77.232 0.975 -12.7 0.975 -12.7 0.22 77.232
7013.375 0.221 77.187 0.975 -12.745 0.975 -12.745 0.221 77.187
7038.333 0.221 77.142 0.975 -12.79 0.975 -12.79 0.221 77.142
7063.292 0.222 77.097 0.975 -12.835 0.975 -12.835 0.222 77.097
7088.25 0.223 77.052 0.975 -12.88 0.975 -12.88 0.223 77.052
7113.208 0.224 77.007 0.974 -12.925 0.974 -12.925 0.224 77.007
7138.167 0.224 76.962 0.974 -12.971 0.974 -12.971 0.224 76.962
7163.125 0.225 76.917 0.974 -13.016 0.974 -13.016 0.225 76.917
7188.083 0.226 76.873 0.974 -13.061 0.974 -13.061 0.226 76.873
7213.042 0.227 76.828 0.974 -13.106 0.974 -13.106 0.227 76.828
7238 0.228 76.783 0.974 -13.151 0.974 -13.151 0.228 76.783
7262.958 0.228 76.738 0.973 -13.196 0.973 -13.196 0.228 76.738
7287.917 0.229 76.694 0.973 -13.241 0.973 -13.241 0.229 76.694
7312.875 0.23 76.649 0.973 -13.286 0.973 -13.286 0.23 76.649
7337.833 0.231 76.604 0.973 -13.33 0.973 -13.33 0.231 76.604
7362.792 0.231 76.56 0.973 -13.375 0.973 -13.375 0.231 76.56
7387.75 0.232 76.515 0.972 -13.42 0.972 -13.42 0.232 76.515
7412.708 0.233 76.47 0.972 -13.465 0.972 -13.465 0.233 76.47
7437.667 0.234 76.426 0.972 -13.51 0.972 -13.51 0.234 76.426
7462.625 0.234 76.381 0.972 -13.555 0.972 -13.555 0.234 76.381
7487.583 0.235 76.337 0.972 -13.599 0.972 -13.599 0.235 76.337
7512.542 0.236 76.292 0.972 -13.644 0.972 -13.644 0.236 76.292
7537.5 0.237 76.247 0.971 -13.689 0.971 -13.689 0.237 76.247
7562.458 0.237 76.203 0.971 -13.734 0.971 -13.734 0.237 76.203
7587.417 0.238 76.158 0.971 -13.778 0.971 -13.778 0.238 76.158
7612.375 0.239 76.114 0.971 -13.823 0.971 -13.823 0.239 76.114
7637.333 0.24 76.07 0.971 -13.868 0.971 -13.868 0.24 76.07
7662.292 0.24 76.025 0.97 -13.912 0.97 -13.912 0.24 76.025
7687.25 0.241 75.981 0.97 -13.957 0.97 -13.957 0.241 75.981
7712.208 0.242 75.936 0.97 -14.002 0.97 -14.002 0.242 75.936
7737.167 0.243 75.892 0.97 -14.046 0.97 -14.046 0.243 75.892
7762.125 0.243 75.848 0.97 -14.091 0.97 -14.091 0.243 75.848
7787.083 0.244 75.803 0.969 -14.135 0.969 -14.135 0.244 75.803
7812.042 0.245 75.759 0.969 -14.18 0.969 -14.18 0.245 75.759
7837 0.246 75.715 0.969 -14.224 0.969 -14.224 0.246 75.715
7861.958 0.246 75.67 0.969 -14.269 0.969 -14.269 0.246 75.67
7886.917 0.247 75.626 0.969 -14.313 0.969 -14.313 0.247 75.626
7911.875 0.248 75.582 0.969 -14.358 0.969 -14.358 0.248 75.582
7936.833 0.249 75.538 0.968 -14.402 0.968 -14.402 0.249 75.538
7961.792 0.249 75.493 0.968 -14.446 0.968 -14.446 0.249 75.493
7986.75 0.25 75.449 0.968 -14.491 0.968 -14.491 0.25 75.449
8011.708 0.251 75.405 0.968 -14.535 0.968 -14.535 0.251 75.405
8036.667 0.252 75.361 0.968 -14.579 0.968 -14.579 0.252 75.361
8061.625 0.252 75.317 0.967 -14.624 0.967 -14.624 0.252 75.317
8086.583 0.253 75.273 0.967 -14.668 0.967 -14.668 0.253 75.273
8111.542 0.254 75.229 0.967 -14.712 0.967 -14.712 0.254 75.229
8136.5 0.255 75.185 0.967 -14.757 0.967 -14.757 0.255 75.185
8161.458 0.255 75.141 0.967 -14.801 0.967 -14.801 0.255 75.141
8186.417 0.256 75.097 0.966 -14.845 0.966 -14.845 0.256 75.097
8211.375 0.257 75.053 0.966 -14.889 0.966 -14.889 0.257 75.053
8236.333 0.258 75.009 0.966 -14.933 0.966 -14.933 0.258 75.009
8261.292 0.258 74.965 0.966 -14.977 0.966 -14.977 0.258 74.965
8286.25 0.259 74.921 0.966 -15.022 0.966 -15.022 0.259 74.921
8311.208 0.26 74.877 0.965 -15.066 0.965 -15.066 0.26 74.877
8336.167 0.261 74.833 0.965 -15.11 0.965 -15.11 0.261 74.833
8361.125 0.261 74.789 0.965 -15.154 0.965 -15.154 0.261 74.789
8386.083 0.262 74.745 0.965 -15.198 0.965 -15.198 0.262 74.745
8411.042 0.263 74.701 0.965 -15.242 0.965 -15.242 0.263 74.701
8436 0.264 74.657 0.964 -15.286 0.964 -15.286 0.264 74.657
8460.958 0.264 74.614 0.964 -15.33 0.964 -15.33 0.264 74.614
8485.917 0.265 74.57 0.964 -15.374 0.964 -15.374 0.265 74.57
8510.875 0.266 74.526 0.964 -15.418 0.964 -15.418 0.266 74.526
8535.833 0.267 74.482 0.964 -15.462 0.964 -15.462 0.267 74.482
8560.792 0.267 74.439 0.963 -15.506 0.963 -15.506 0.267 74.439
8585.75 0.268 74.395 0.963 -15.549 0.963 -15.549 0.268 74.395
8610.708 0.269 74.351 0.963 -15.593 0.963 -15.593 0.269 74.351
8635.667 0.27 74.308 0.963 -15.637 0.963 -15.637 0.27 74.308
8660.625 0.27 74.264 0.963 -15.681 0.963 -15.681 0.27 74.264
8685.583 0.271 74.22 0.962 -15.725 0.962 -15.725 0.271 74.22
8710.542 0.272 74.177 0.962 -15.768 0.962 -15.768 0.272 74.177
8735.5 0.272 74.133 0.962 -15.812 0.962 -15.812 0.272 74.133
8760.458 0.273 74.09 0.962 -15.856 0.962 -15.856 0.273 74.09
8785.417 0.274 74.046 0.961 -15.9 0.961 -15.9 0.274 74.046
8810.375 0.275 74.003 0.961 -15.943 0.961 -15.943 0.275 74.003
8835.333 0.275 73.959 0.961 -15.987 0.961 -15.987 0.275 73.959
8860.292 0.276 73.916 0.961 -16.031 0.961 -16.031 0.276 73.916
8885.25 0.277 73.872 0.961 -16.074 0.961 -16.074 0.277 73.872
8910.208 0.278 73.829 0.96 -16.118 0.96 -16.118 0.278 73.829
8935.167 0.278 73.785 0.96 -16.161 0.96 -16.161 0.278 73.785
8960.125 0.279 73.742 0.96 -16.205 0.96 -16.205 0.279 73.742
8985.083 0.28 73.698 0.96 -16.248 0.96 -16.248 0.28 73.698
9010.042 0.281 73.655 0.96 -16.292 0.96 -16.292 0.281 73.655
9035 0.281 73.612 0.959 -16.335 0.959 -16.335 0.281 73.612
9059.958 0.282 73.568 0.959 -16.379 0.959 -16.379 0.282 73.568
9084.917 0.283 73.525 0.959 -16.422 0.959 -16.422 0.283 73.525
9109.875 0.283 73.482 0.959 -16.466 0.959 -16.466 0.283 73.482
9134.833 0.284 73.439 0.959 -16.509 0.959 -16.509 0.284 73.439
9159.792 0.285 73.395 0.958 -16.553 0.958 -16.553 0.285 73.395
9184.75 0.286 73.352 0.958 -16.596 0.958 -16.596 0.286 73.352
9209.708 0.286 73.309 0.958 -16.639 0.958 -16.639 0.286 73.309
9234.667 0.287 73.266 0.958 -16.683 0.958 -16.683 0.287 73.266
9259.625 0.288 73.223 0.957 -16.726 0.957 -16.726 0.288 73.223
9284.583 0.289 73.18 0.957 -16.769 0.957 -16.769 0.289 73.18
9309.542 0.289 73.136 0.957 -16.812 0.957 -16.812 0.289 73.136
9334.5 0.29 73.093 0.957 -16.856 0.957 -16.856 0.29 73.093
9359.458 0.291 73.05 0.957 -16.899 0.957 -16.899 0.291 73.05
9384.417 0.291 73.007 0.956 -16.942 0.956 -16.942 0.291 73.007
9409.375 0.292 72.964 0.956 -16.985 0.956 -16.985 0.292 72.964
9434.333 0.293 72.921 0.956 -17.028 0.956 -17.028 0.293 72.921
9459.292 0.294 72.878 0.956 -17.071 0.956 -17.071 0.294 72.878
9484.25 0.294 72.835 0.955 -17.114 0.955 -17.114 0.294 72.835
9509.208 0.295 72.792 0.955 -17.158 0.955 -17.158 0.295 72.792
9534.167 0.296 72.749 0.955 -17.201 0.955 -17.201 0.296 72.749
9559.125 0.296 72.707 0.955 -17.244 0.955 -17.244 0.296 72.707
9584.083 0.297 72.664 0.955 -17.287 0.955 -17.287 0.297 72.664
9609.042 0.298 72.621 0.954 -17.33 0.954 -17.33 0.298 72.621
9634 0.299 72.578 0.954 -17.373 0.954 -17.373 0.299 72.578
9658.958 0.299 72.535 0.954 -17.416 0.954 -17.416 0.299 72.535
9683.917 0.3 72.492 0.954 -17.458 0.954 -17.458 0.3 72.492
9708.875 0.301 72.45 0.953 -17.501 0.953 -17.501 0.301 72.45
9733.833 0.301 72.407 0.953 -17.544 0.953 -17.544 0.301 72.407
9758.792 0.302 72.364 0.953 -17.587 0.953 -17.587 0.302 72.364
9783.75 0.303 72.321 0.953 -17.63 0.953 -17.63 0.303 72.321
9808.708 0.304 72.279 0.953 -17.673 0.953 -17.673 0.304 72.279
9833.667 0.304 72.236 0.952 -17.716 0.952 -17.716 0.304 72.236
9858.625 0.305 72.193 0.952 -17.758 0.952 -17.758 0.305 72.193
9883.583 0.306 72.151 0.952 -17.801 0.952 -17.801 0.306 72.151
9908.542 0.306 72.108 0.952 -17.844 0.952 -17.844 0.306 72.108
9933.5 0.307 72.066 0.951 -17.886 0.951 -17.886 0.307 72.066
9958.458 0.308 72.023 0.951 -17.929 0.951 -17.929 0.308 72.023
9983.417 0.309 71.98 0.951 -17.972 0.951 -17.972 0.309 71.98
10008.375 0.309 71.938 0.951 -18.014 0.951 -18.014 0.309 71.938
10033.333 0.31 71.895 0.95 -18.057 0.95 -18.057 0.31 71.895
10058.292 0.311 71.853 0.95 -18.1 0.95 -18.1 0.311 71.853
10083.25 0.311 71.811 0.95 -18.142 0.95 -18.142 0.311 71.811
10108.208 0.312 71.768 0.95 -18.185 0.95 -18.185 0.312 71.768
10133.167 0.313 71.726 0.95 -18.227 0.95 -18.227 0.313 71.726
10158.125 0.313 71.683 0.949 -18.27 0.949 -18.27 0.313 71.683
10183.083 0.314 71.641 0.949 -18.312 0.949 -18.312 0.314 71.641
10208.042 0.315 71.599 0.949 -18.355 0.949 -18.355 0.315 71.599
10233 0.316 71.556 0.949 -18.397 0.949 -18.397 0.316 71.556
10257.958 0.316 71.514 0.948 -18.44 0.948 -18.44 0.316 71.514
10282.917 0.317 71.472 0.948 -18.482 0.948 -18.482 0.317 71.472
10307.875 0.318 71.429 0.948 -18.524 0.948 -18.524 0.318 71.429
10332.833 0.318 71.387 0.948 -18.567 0.948 -18.567 0.318 71.387
10357.792 0.319 71.345 0.947 -18.609 0.947 -18.609 0.319 71.345
10382.75 0.32 71.303 0.947 -18.651 0.947 -18.651 0.32 71.303
10407.708 0.321 71.261 0.947 -18.694 0.947 -18.694 0.321 71.261
10432.667 0.321 71.219 0.947 -18.736 0.947 -18.736 0.321 71.219
10457.625 0.322 71.176 0.947 -18.778 0.947 -18.778 0.322 71.176
10482.583 0.323 71.134 0.946 -18.82 0.946 -18.82 0.323 71.134
10507.542 0.323 71.092 0.946 -18.862 0.946 -18.862 0.323 71.092
10532.5 0.324 71.05 0.946 -18.905 0.946 -18.905 0.324 71.05
10557.458 0.325 71.008 0.946 -18.947 0.946 -18.947 0.325 71.008
10582.417 0.325 70.966 0.945 -18.989 0.945 -18.989 0.325 70.966
10607.375 0.326 70.924 0.945 -19.031 0.945 -19.031 0.326 70.924
10632.333 0.327 70.882 0.945 -19.073 0.945 -19.073 0.327 70.882
10657.292 0.327 70.84 0.945 -19.115 0.945 -19.115 0.327 70.84
10682.25 0.328 70.798 0.944 -19.157 0.944 -19.157 0.328 70.798
10707.208 0.329 70.756 0.944 -19.199 0.944 -19.199 0.329 70.756
10732.167 0.33 70.714 0.944 -19.241 0.944 -19.241 0.33 70.714
10757.125 0.33 70.673 0.944 -19.283 0.944 -19.283 0.33 70.673
10782.083 0.331 70.631 0.943 -19.325 0.943 -19.325 0.331 70.631
10807.042 0.332 70.589 0.943 -19.367 0.943 -19.367 0.332 70.589
10832 0.332 70.547 0.943 -19.409 0.943 -19.409 0.332 70.547
10856.958 0.333 70.505 0.943 -19.451 0.943 -19.451 0.333 70.505
10881.917 0.334 70.464 0.942 -19.493 0.942 -19.493 0.334 70.464
10906.875 0.334 70.422 0.942 -19.534 0.942 -19.534 0.334 70.422
10931.833 0.335 70.38 0.942 -19.576 0.942 -19.576 0.335 70.38
10956.792 0.336 70.339 0.942 -19.618 0.942 -19.618 0.336 70.339
10981.75 0.336 70.297 0.941 -19.66 0.941 -19.66 0.336 70.297
11006.708 0.337 70.255 0.941 -19.702 0.941 -19.702 0.337 70.255
11031.667 0.338 70.214 0.941 -19.743 0.941 -19.743 0.338 70.214
11056.625 0.338 70.172 0.941 -19.785 0.941 -19.785 0.338 70.172
11081.583 0.339 70.13 0.94 -19.827 0.94 -19.827 0.339 70.13
11106.542 0.34 70.089 0.94 -19.868 0.94 -19.868 0.34 70.089
11131.5 0.341 70.047 0.94 -19.91 0.94 -19.91 0.341 70.047
11156.458 0.341 70.006 0.94 -19.951 0.94 -19.951 0.341 70.006
11181.417 0.342 69.964 0.939 -19.993 0.939 -19.993 0.342 69.964
11206.375 0.343 69.923 0.939 -20.035 0.939 -20.035 0.343 69.923
11231.333 0.343 69.882 0.939 -20.076 0.939 -20.076 0.343 69.882
11256.292 0.344 69.84 0.939 -20.118 0.939 -20.118 0.344 69.84
11281.25 0.345 69.799 0.938 -20.159 0.938 -20.159 0.345 69.799
11306.208 0.345 69.757 0.938 -20.201 0.938 -20.201 0.345 69.757
11331.167 0.346 69.716 0.938 -20.242 0.938 -20.242 0.346 69.716
11356.125 0.347 69.675 0.938 -20.283 0.938 -20.283 0.347 69.675
11381.083 0.347 69.633 0.937 -20.325 0.937 -20.325 0.347 69.633
11406.042 0.348 69.592 0.937 -20.366 0.937 -20.366 0.348 69.592
11431 0.349 69.551 0.937 -20.408 0.937 -20.408 0.349 69.551
11455.958 0.349 69.51 0.937 -20.449 0.937 -20.449 0.349 69.51
11480.917 0.35 69.468 0.936 -20.49 0.936 -20.49 0.35 69.468
11505.875 0.351 69.427 0.936 -20.531 0.936 -20.531 0.351 69.427
11530.833 0.351 69.386 0.936 -20.573 0.936 -20.573 0.351 69.386
11555.792 0.352 69.345 0.936 -20.614 0.936 -20.614 0.352 69.345
11580.75 0.353 69.304 0.935 -20.655 0.935 -20.655 0.353 69.304
11605.708 0.353 69.263 0.935 -20.696 0.935 -20.696 0.353 69.263
11630.667 0.354 69.222 0.935 -20.737 0.935 -20.737 0.354 69.222
11655.625 0.355 69.181 0.935 -20.779 0.935 -20.779 0.355 69.181
11680.583 0.355 69.14 0.934 -20.82 0.934 -20.82 0.355 69.14
11705.542 0.356 69.099 0.934 -20.861 0.934 -20.861 0.356 69.099
11730.5 0.357 69.058 0.934 -20.902 0.934 -20.902 0.357 69.058
11755.458 0.357 69.017 0.934 -20.943 0.934 -20.943 0.357 69.017
11780.417 0.358 68.976 0.933 -20.984 0.933 -20.984 0.358 68.976
11805.375 0.359 68.935 0.933 -21.025 0.933 -21.025 0.359 68.935
11830.333 0.359 68.894 0.933 -21.066 0.933 -21.066 0.359 68.894
11855.292 0.36 68.853 0.933 -21.107 0.933 -21.107 0.36 68.853
11880.25 0.361 68.812 0.932 -21.148 0.932 -21.148 0.361 68.812
11905.208 0.361 68.771 0.932 -21.189 0.932 -21.189 0.361 68.771
11930.167 0.362 68.731 0.932 -21.23 0.932 -21.23 0.362 68.731
11955.125 0.363 68.69 0.932 -21.27 0.932 -21.27 0.363 68.69
11980.083 0.363 68.649 0.931 -21.311 0.931 -21.311 0.363 68.649
12005.042 0.364 68.608 0.931 -21.352 0.931 -21.352 0.364 68.608
12030 0.365 68.568 0.931 -21.393 0.931 -21.393 0.365 68.568
12054.958 0.365 68.527 0.931 -21.434 0.931 -21.434 0.365 68.527
12079.917 0.366 68.486 0.93 -21.474 0.93 -21.474 0.366 68.486
12104.875 0.367 68.446 0.93 -21.515 0.93 -21.515 0.367 68.446
12129.833 0.367 68.405 0.93 -21.556 0.93 -21.556 0.367 68.405
12154.792 0.368 68.364 0.93 -21.596 0.93 -21.596 0.368 68.364
12179.75 0.369 68.324 0.929 -21.637 0.929 -21.637 0.369 68.324
12204.708 0.369 68.283 0.929 -21.678 0.929 -21.678 0.369 68.283
12229.667 0.37 68.243 0.929 -21.718 0.929 -21.718 0.37 68.243
12254.625 0.371 68.202 0.929 -21.759 0.929 -21.759 0.371 68.202
12279.583 0.371 68.162 0.928 -21.799 0.928 -21.799 0.371 68.162
12304.542 0.372 68.121 0.928 -21.84 0.928 -21.84 0.372 68.121
12329.5 0.373 68.081 0.928 -21.88 0.928 -21.88 0.373 68.081
12354.458 0.373 68.041 0.927 -21.921 0.927 -21.921 0.373 68.041
12379.417 0.374 68 0.927 -21.961 0.927 -21.961 0.374 68
12404.375 0.375 67.96 0.927 -22.002 0.927 -22.002 0.375 67.96
12429.333 0.375 67.92 0.927 -22.042 0.927 -22.042 0.375 67.92
12454.292 0.376 67.879 0.926 -22.083 0.926 -22.083 0.376 67.879
12479.25 0.377 67.839 0.926 -22.123 0.926 -22.123 0.377 67.839
12504.208 0.377 67.799 0.926 -22.163 0.926 -22.163 0.377 67.799
12529.167 0.378 67.759 0.926 -22.204 0.926 -22.204 0.378 67.759
12554.125 0.379 67.718 0.925 -22.244 0.925 -22.244 0.379 67.718
12579.083 0.379 67.678 0.925 -22.284 0.925 -22.284 0.379 67.678
12604.042 0.38 67.638 0.925 -22.324 0.925 -22.324 0.38 67.638
12629 0.38 67.598 0.925 -22.365 0.925 -22.365 0.38 67.598
12653.958 0.381 67.558 0.924 -22.405 0.924 -22.405 0.381 67.558
12678.917 0.382 67.518 0.924 -22.445 0.924 -22.445 0.382 67.518
12703.875 0.382 67.478 0.924 -22.485 0.924 -22.485 0.382 67.478
12728.833 0.383 67.437 0.923 -22.525 0.923 -22.525 0.383 67.437
12753.792 0.384 67.397 0.923 -22.565 0.923 -22.565 0.384 67.397
12778.75 0.384 67.357 0.923 -22.605 0.923 -22.605 0.384 67.357
12803.708 0.385 67.318 0.923 -22.645 0.923 -22.645 0.385 67.318
12828.667 0.386 67.278 0.922 -22.685 0.922 -22.685 0.386 67.278
12853.625 0.386 67.238 0.922 -22.725 0.922 -22.725 0.386 67.238
12878.583 0.387 67.198 0.922 -22.765 0.922 -22.765 0.387 67.198
12903.542 0.388 67.158 0.922 -22.805 0.922 -22.805 0.388 67.158
12928.5 0.388 67.118 0.921 -22.845 0.921 -22.845 0.388 67.118
12953.458 0.389 67.078 0.921 -22.885 0.921 -22.885 0.389 67.078
12978.417 0.39 67.038 0.921 -22.925 0.921 -22.925 0.39 67.038
13003.375 0.39 66.999 0.92 -22.965 0.92 -22.965 0.39 66.999
13028.333 0.391 66.959 0.92 -23.005 0.92 -23.005 0.391 66.959
13053.292 0.391 66.919 0.92 -23.045 0.92 -23.045 0.391 66.919
13078.25 0.392 66.879 0.92 -23.084 0.92 -23.084 0.392 66.879
13103.208 0.393 66.84 0.919 -23.124 0.919 -23.124 0.393 66.84
13128.167 0.393 66.8 0.919 -23.164 0.919 -23.164 0.393 66.8
13153.125 0.394 66.76 0.919 -23.203 0.919 -23.203 0.394 66.76
13178.083 0.395 66.721 0.919 -23.243 0.919 -23.243 0.395 66.721
13203.042 0.395 66.681 0.918 -23.283 0.918 -23.283 0.395 66.681
13228 0.396 66.642 0.918 -23.322 0.918 -23.322 0.396 66.642
13252.958 0.397 66.602 0.918 -23.362 0.918 -23.362 0.397 66.602
13277.917 0.397 66.563 0.917 -23.402 0.917 -23.402 0.397 66.563
13302.875 0.398 66.523 0.917 -23.441 0.917 -23.441 0.398 66.523
13327.833 0.398 66.484 0.917 -23.481 0.917 -23.481 0.398 66.484
13352.792 0.399 66.444 0.917 -23.52 0.917 -23.52 0.399 66.444
13377.75 0.4 66.405 0.916 -23.56 0.916 -23.56 0.4 66.405
13402.708 0.4 66.365 0.916 -23.599 0.916 -23.599 0.4 66.365
13427.667 0.401 66.326 0.916 -23.639 0.916 -23.639 0.401 66.326
13452.625 0.402 66.287 0.916 -23.678 0.916 -23.678 0.402 66.287
13477.583 0.402 66.247 0.915 -23.718 0.915 -23.718 0.402 66.247
13502.542 0.403 66.208 0.915 -23.757 0.915 -23.757 0.403 66.208
13527.5 0.403 66.169 0.915 -23.796 0.915 -23.796 0.403 66.169
13552.458 0.404 66.129 0.914 -23.836 0.914 -23.836 0.404 66.129
13577.417 0.405 66.09 0.914 -23.875 0.914 -23.875 0.405 66.09
13602.375 0.405 66.051 0.914 -23.914 0.914 -23.914 0.405 66.051
13627.333 0.406 66.012 0.914 -23.953 0.914 -23.953 0.406 66.012
13652.292 0.407 65.973 0.913 -23.993 0.913 -23.993 0.407 65.973
13677.25 0.407 65.933 0.913 -24.032 0.913 -24.032 0.407 65.933
13702.208 0.408 65.894 0.913 -24.071 0.913 -24.071 0.408 65.894
13727.167 0.408 65.855 0.913 -24.11 0.913 -24.11 0.408 65.855
13752.125 0.409 65.816 0.912 -24.149 0.912 -24.149 0.409 65.816
13777.083 0.41 65.777 0.912 -24.188 0.912 -24.188 0.41 65.777
13802.042 0.41 65.738 0.912 -24.227 0.912 -24.227 0.41 65.738
13827 0.411 65.699 0.911 -24.266 0.911 -24.266 0.411 65.699
13851.958 0.412 65.66 0.911 -24.305 0.911 -24.305 0.412 65.66
13876.917 0.412 65.621 0.911 -24.344 0.911 -24.344 0.412 65.621
13901.875 0.413 65.582 0.911 -24.383 0.911 -24.383 0.413 65.582
13926.833 0.413 65.543 0.91 -24.422 0.91 -24.422 0.413 65.543
13951.792 0.414 65.505 0.91 -24.461 0.91 -24.461 0.414 65.505
13976.75 0.415 65.466 0.91 -24.5 0.91 -24.5 0.415 65.466
14001.708 0.415 65.427 0.909 -24.539 0.909 -24.539 0.415 65.427
14026.667 0.416 65.388 0.909 -24.578 0.909 -24.578 0.416 65.388
14051.625 0.417 65.349 0.909 -24.617 0.909 -24.617 0.417 65.349
14076.583 0.417 65.311 0.909 -24.656 0.909 -24.656 0.417 65.311
14101.542 0.418 65.272 0.908 -24.694 0.908 -24.694 0.418 65.272
14126.5 0.418 65.233 0.908 -24.733 0.908 -24.733 0.418 65.233
14151.458 0.419 65.195 0.908 -24.772 0.908 -24.772 0.419 65.195
14176.417 0.42 65.156 0.907 -24.811 0.907 -24.811 0.42 65.156
14201.375 0.42 65.117 0.907 -24.849 0.907 -24.849 0.42 65.117
14226.333 0.421 65.079 0.907 -24.888 0.907 -24.888 0.421 65.079
14251.292 0.421 65.04 0.907 -24.927 0.907 -24.927 0.421 65.04
14276.25 0.422 65.002 0.906 -24.965 0.906 -24.965 0.422 65.002
14301.208 0.423 64.963 0.906 -25.004 0.906 -25.004 0.423 64.963
14326.167 0.423 64.925 0.906 -25.042 0.906 -25.042 0.423 64.925
14351.125 0.424 64.886 0.905 -25.081 0.905 -25.081 0.424 64.886
14376.083 0.425 64.848 0.905 -25.119 0.905 -25.119 0.425 64.848
14401.042 0.425 64.809 0.905 -25.158 0.905 -25.158 0.425 64.809
14426 0.426 64.771 0.905 -25.196 0.905 -25.196 0.426 64.771
14450.958 0.426 64.732 0.904 -25.235 0.904 -25.235 0.426 64.732
14475.917 0.427 64.694 0.904 -25.273 0.904 -25.273 0.427 64.694
14500.875 0.428 64.656 0.904 -25.312 0.904 -25.312 0.428 64.656
14525.833 0.428 64.617 0.903 -25.35 0.903 -25.35 0.428 64.617
14550.792 0.429 64.579 0.903 -25.388 0.903 -25.388 0.429 64.579
14575.75 0.429 64.541 0.903 -25.427 0.903 -25.427 0.429 64.541
14600.708 0.43 64.503 0.903 -25.465 0.903 -25.465 0.43 64.503
14625.667 0.431 64.464 0.902 -25.503 0.902 -25.503 0.431 64.464
14650.625 0.431 64.426 0.902 -25.541 0.902 -25.541 0.431 64.426
14675.583 0.432 64.388 0.902 -25.58 0.902 -25.58 0.432 64.388
14700.542 0.432 64.35 0.901 -25.618 0.901 -25.618 0.432 64.35
14725.5 0.433 64.312 0.901 -25.656 0.901 -25.656 0.433 64.312
14750.458 0.434 64.274 0.901 -25.694 0.901 -25.694 0.434 64.274
14775.417 0.434 64.236 0.901 -25.732 0.901 -25.732 0.434 64.236
14800.375 0.435 64.198 0.9 -25.77 0.9 -25.77 0.435 64.198
14825.333 0.435 64.16 0.9 -25.808 0.9 -25.808 0.435 64.16
14850.292 0.436 64.122 0.9 -25.846 0.9 -25.846 0.436 64.122
14875.25 0.437 64.084 0.899 -25.884 0.899 -25.884 0.437 64.084
14900.208 0.437 64.046 0.899 -25.922 0.899 -25.922 0.437 64.046
14925.167 0.438 64.008 0.899 -25.96 0.899 -25.96 0.438 64.008
14950.125 0.438 63.97 0.899 -25.998 0.899 -25.998 0.438 63.97
14975.083 0.439 63.932 0.898 -26.036 0.898 -26.036 0.439 63.932
15000.042 0.44 63.894 0.898 -26.074 0.898 -26.074 0.44 63.894
15025 0.44 63.856 0.898 -26.112 0.898 -26.112 0.44 63.856
15049.958 0.441 63.819 0.897 -26.15 0.897 -26.15 0.441 63.819
15074.917 0.441 63.781 0.897 -26.188 0.897 -26.188 0.441 63.781
15099.875 0.442 63.743 0.897 -26.225 0.897 -26.225 0.442 63.743
15124.833 0.442 63.705 0.897 -26.263 0.897 -26.263 0.442 63.705
15149.792 0.443 63.668 0.896 -26.301 0.896 -26.301 0.443 63.668
15174.75 0.444 63.63 0.896 -26.339 0.896 -26.339 0.444 63.63
15199.708 0.444 63.592 0.896 -26.376 0.896 -26.376 0.444 63.592
15224.667 0.445 63.555 0.895 -26.414 0.895 -26.414 0.445 63.555
15249.625 0.445 63.517 0.895 -26.452 0.895 -26.452 0.445 63.517
15274.583 0.446 63.48 0.895 -26.489 0.895 -26.489 0.446 63.48
15299.542 0.447 63.442 0.894 -26.527 0.894 -26.527 0.447 63.442
15324.5 0.447 63.405 0.894 -26.564 0.894 -26.564 0.447 63.405
15349.458 0.448 63.367 0.894 -26.602 0.894 -26.602 0.448 63.367
15374.417 0.448 63.33 0.894 -26.639 0.894 -26.639 0.448 63.33
15399.375 0.449 63.292 0.893 -26.677 0.893 -26.677 0.449 63.292
15424.333 0.45 63.255 0.893 -26.714 0.893 -26.714 0.45 63.255
15449.292 0.45 63.217 0.893 -26.752 0.893 -26.752 0.45 63.217
15474.25 0.451 63.18 0.892 -26.789 0.892 -26.789 0.451 63.18
15499.208 0.451 63.143 0.892 -26.827 0.892 -26.827 0.451 63.143
15524.167 0.452 63.105 0.892 -26.864 0.892 -26.864 0.452 63.105
15549.125 0.452 63.068 0.892 -26.901 0.892 -26.901 0.452 63.068
15574.083 0.453 63.031 0.891 -26.939 0.891 -26.939 0.453 63.031
15599.042 0.454 62.994 0.891 -26.976 0.891 -26.976 0.454 62.994
15624 0.454 62.956 0.891 -27.013 0.891 -27.013 0.454 62.956
15648.958 0.455 62.919 0.89 -27.05 0.89 -27.05 0.455 62.919
15673.917 0.455 62.882 0.89 -27.088 0.89 -27.088 0.455 62.882
15698.875 0.456 62.845 0.89 -27.125 0.89 -27.125 0.456 62.845
15723.833 0.457 62.808 0.889 -27.162 0.889 -27.162 0.457 62.808
15748.792 0.457 62.771 0.889 -27.199 0.889 -27.199 0.457 62.771
15773.75 0.458 62.734 0.889 -27.236 0.889 -27.236 0.458 62.734
15798.708 0.458 62.697 0.889 -27.273 0.889 -27.273 0.458 62.697
15823.667 0.459 62.66 0.888 -27.31 0.888 -27.31 0.459 62.66
15848.625 0.459 62.623 0.888 -27.347 0.888 -27.347 0.459 62.623
15873.583 0.46 62.586 0.888 -27.385 0.888 -27.385 0.46 62.586
15898.542 0.461 62.549 0.887 -27.422 0.887 -27.422 0.461 62.549
15923.5 0.461 62.512 0.887 -27.458 0.887 -27.458 0.461 62.512
15948.458 0.462 62.475 0.887 -27.495 0.887 -27.495 0.462 62.475
15973.417 0.462 62.438 0.887 -27.532 0.887 -27.532 0.462 62.438
15998.375 0.463 62.401 0.886 -27.569 0.886 -27.569 0.463 62.401
16023.333 0.463 62.364 0.886 -27.606 0.886 -27.606 0.463 62.364
16048.292 0.464 62.327 0.886 -27.643 0.886 -27.643 0.464 62.327
16073.25 0.465 62.291 0.885 -27.68 0.885 -27.68 0.465 62.291
16098.208 0.465 62.254 0.885 -27.717 0.885 -27.717 0.465 62.254
16123.167 0.466 62.217 0.885 -27.753 0.885 -27.753 0.466 62.217
16148.125 0.466 62.181 0.884 -27.79 0.884 -27.79 0.466 62.181
16173.083 0.467 62.144 0.884 -27.827 0.884 -27.827 0.467 62.144
16198.042 0.467 62.107 0.884 -27.863 0.884 -27.863 0.467 62.107
16223 0.468 62.071 0.884 -27.9 0.884 -27.9 0.468 62.071
16247.958 0.468 62.034 0.883 -27.937 0.883 -27.937 0.468 62.034
16272.917 0.469 61.997 0.883 -27.973 0.883 -27.973 0.469 61.997
16297.875 0.47 61.961 0.883 -28.01 0.883 -28.01 0.47 61.961
16322.833 0.47 61.924 0.882 -28.046 0.882 -28.046 0.47 61.924
16347.792 0.471 61.888 0.882 -28.083 0.882 -28.083 0.471 61.888
16372.75 0.471 61.851 0.882 -28.12 0.882 -28.12 0.471 61.851
16397.708 0.472 61.815 0.881 -28.156 0.881 -28.156 0.472 61.815
16422.667 0.472 61.779 0.881 -28.192 0.881 -28.192 0.472 61.779
16447.625 0.473 61.742 0.881 -28.229 0.881 -28.229 0.473 61.742
16472.583 0.474 61.706 0.881 -28.265 0.881 -28.265 0.474 61.706
16497.542 0.474 61.669 0.88 -28.302 0.88 -28.302 0.474 61.669
16522.5 0.475 61.633 0.88 -28.338 0.88 -28.338 0.475 61.633
16547.458 0.475 61.597 0.88 -28.374 0.88 -28.374 0.475 61.597
16572.417 0.476 61.561 0.879 -28.411 0.879 -28.411 0.476 61.561
16597.375 0.476 61.524 0.879 -28.447 0.879 -28.447 0.476 61.524
16622.333 0.477 61.488 0.879 -28.483 0.879 -28.483 0.477 61.488
16647.292 0.477 61.452 0.878 -28.52 0.878 -28.52 0.477 61.452
16672.25 0.478 61.416 0.878 -28.556 0.878 -28.556 0.478 61.416
16697.208 0.479 61.38 0.878 -28.592 0.878 -28.592 0.479 61.38
16722.167 0.479 61.344 0.878 -28.628 0.878 -28.628 0.479 61.344
16747.125 0.48 61.307 0.877 -28.664 0.877 -28.664 0.48 61.307
16772.083 0.48 61.271 0.877 -28.7 0.877 -28.7 0.48 61.271
16797.042 0.481 61.235 0.877 -28.736 0.877 -28.736 0.481 61.235
16822 0.481 61.199 0.876 -28.772 0.876 -28.772 0.481 61.199
16846.958 0.482 61.163 0.876 -28.808 0.876 -28.808 0.482 61.163
16871.917 0.482 61.127 0.876 -28.845 0.876 -28.845 0.482 61.127
16896.875 0.483 61.091 0.875 -28.88 0.875 -28.88 0.483 61.091
16921.833 0.484 61.055 0.875 -28.916 0.875 -28.916 0.484 61.055
16946.792 0.484 61.02 0.875 -28.952 0.875 -28.952 0.484 61.02
16971.75 0.485 60.984 0.874 -28.988 0.874 -28.988 0.485 60.984
16996.708 0.485 60.948 0.874 -29.024 0.874 -29.024 0.485 60.948
17021.667 0.486 60.912 0.874 -29.06 0.874 -29.06 0.486 60.912
17046.625 0.486 60.876 0.874 -29.096 0.874 -29.096 0.486 60.876
17071.583 0.487 60.841 0.873 -29.132 0.873 -29.132 0.487 60.841
17096.542 0.487 60.805 0.873 -29.167 0.873 -29.167 0.487 60.805
17121.5 0.488 60.769 0.873 -29.203 0.873 -29.203 0.488 60.769
17146.458 0.488 60.733 0.872 -29.239 0.872 -29.239 0.488 60.733
17171.417 0.489 60.698 0.872 -29.275 0.872 -29.275 0.489 60.698
17196.375 0.49 60.662 0.872 -29.31 0.872 -29.31 0.49 60.662
17221.333 0.49 60.626 0.871 -29.346 0.871 -29.346 0.49 60.626
17246.292 0.491 60.591 0.871 -29.382 0.871 -29.382 0.491 60.591
17271.25 0.491 60.555 0.871 -29.417 0.871 -29.417 0.491 60.555
17296.208 0.492 60.52 0.871 -29.453 0.871 -29.453 0.492 60.52
17321.167 0.492 60.484 0.87 -29.488 0.87 -29.488 0.492 60.484
17346.125 0.493 60.449 0.87 -29.524 0.87 -29.524 0.493 60.449
17371.083 0.493 60.413 0.87 -29.559 0.87 -29.559 0.493 60.413
17396.042 0.494 60.378 0.869 -29.595 0.869 -29.595 0.494 60.378
17421 0.494 60.342 0.869 -29.63 0.869 -29.63 0.494 60.342
17445.958 0.495 60.307 0.869 -29.666 0.869 -29.666 0.495 60.307
17470.917 0.495 60.272 0.868 -29.701 0.868 -29.701 0.495 60.272
17495.875 0.496 60.236 0.868 -29.737 0.868 -29.737 0.496 60.236
17520.833 0.497 60.201 0.868 -29.772 0.868 -29.772 0.497 60.201
17545.792 0.497 60.166 0.867 -29.807 0.867 -29.807 0.497 60.166
17570.75 0.498 60.13 0.867 -29.843 0.867 -29.843 0.498 60.13
17595.708 0.498 60.095 0.867 -29.878 0.867 -29.878 0.498 60.095
17620.667 0.499 60.06 0.867 -29.913 0.867 -29.913 0.499 60.06
17645.625 0.499 60.025 0.866 -29.948 0.866 -29.948 0.499 60.025
17670.583 0.5 59.99 0.866 -29.984 0.866 -29.984 0.5 59.99
17695.542 0.5 59.954 0.866 -30.019 0.866 -30.019 0.5 59.954
17720.5 0.501 59.919 0.865 -30.054 0.865 -30.054 0.501 59.919
17745.458 0.501 59.884 0.865 -30.089 0.865 -30.089 0.501 59.884
17770.417 0.502 59.849 0.865 -30.124 0.865 -30.124 0.502 59.849
17795.375 0.502 59.814 0.864 -30.159 0.864 -30.159 0.502 59.814
17820.333 0.503 59.779 0.864 -30.194 0.864 -30.194 0.503 59.779
17845.292 0.503 59.744 0.864 -30.229 0.864 -30.229 0.503 59.744
17870.25 0.504 59.709 0.863 -30.264 0.863 -30.264 0.504 59.709
17895.208 0.505 59.674 0.863 -30.299 0.863 -30.299 0.505 59.674
17920.167 0.505 59.639 0.863 -30.334 0.863 -30.334 0.505 59.639
17945.125 0.506 59.604 0.863 -30.369 0.863 -30.369 0.506 59.604
17970.083 0.506 59.57 0.862 -30.404 0.862 -30.404 0.506 59.57
17995.042 0.507 59.535 0.862 -30.439 0.862 -30.439 0.507 59.535
18020 0.507 59.5 0.862 -30.474 0.862 -30.474 0.507 59.5
18044.958 0.508 59.465 0.861 -30.509 0.861 -30.509 0.508 59.465
18069.917 0.508 59.43 0.861 -30.543 0.861 -30.543 0.508 59.43
18094.875 0.509 59.396 0.861 -30.578 0.861 -30.578 0.509 59.396
18119.833 0.509 59.361 0.86 -30.613 0.86 -30.613 0.509 59.361
18144.792 0.51 59.326 0.86 -30.648 0.86 -30.648 0.51 59.326
18169.75 0.51 59.292 0.86 -30.682 0.86 -30.682 0.51 59.292
18194.708 0.511 59.257 0.859 -30.717 0.859 -30.717 0.511 59.257
18219.667 0.511 59.222 0.859 -30.752 0.859 -30.752 0.511 59.222
18244.625 0.512 59.188 0.859 -30.786 0.859 -30.786 0.512 59.188
18269.583 0.512 59.153 0.859 -30.821 0.859 -30.821 0.512 59.153
18294.542 0.513 59.119 0.858 -30.855 0.858 -30.855 0.513 59.119
18319.5 0.513 59.084 0.858 -30.89 0.858 -30.89 0.513 59.084
18344.458 0.514 59.05 0.858 -30.925 0.858 -30.925 0.514 59.05
18369.417 0.514 59.015 0.857 -30.959 0.857 -30.959 0.514 59.015
18394.375 0.515 58.981 0.857 -30.993 0.857 -30.993 0.515 58.981
18419.333 0.515 58.946 0.857 -31.028 0.857 -31.028 0.515 58.946
18444.292 0.516 58.912 0.856 -31.062 0.856 -31.062 0.516 58.912
18469.25 0.516 58.878 0.856 -31.097 0.856 -31.097 0.516 58.878
18494.208 0.517 58.843 0.856 -31.131 0.856 -31.131 0.517 58.843
18519.167 0.518 58.809 0.855 -31.165 0.855 -31.165 0.518 58.809
18544.125 0.518 58.775 0.855 -31.2 0.855 -31.2 0.518 58.775
18569.083 0.519 58.74 0.855 -31.234 0.855 -31.234 0.519 58.74
18594.042 0.519 58.706 0.855 -31.268 0.855 -31.268 0.519 58.706
18619 0.52 58.672 0.854 -31.303 0.854 -31.303 0.52 58.672
18643.958 0.52 58.638 0.854 -31.337 0.854 -31.337 0.52 58.638
18668.917 0.521 58.604 0.854 -31.371 0.854 -31.371 0.521 58.604
18693.875 0.521 58.569 0.853 -31.405 0.853 -31.405 0.521 58.569
18718.833 0.522 58.535 0.853 -31.439 0.853 -31.439 0.522 58.535
18743.792 0.522 58.501 0.853 -31.473 0.853 -31.473 0.522 58.501
18768.75 0.523 58.467 0.852 -31.508 0.852 -31.508 0.523 58.467
18793.708 0.523 58.433 0.852 -31.542 0.852 -31.542 0.523 58.433
18818.667 0.524 58.399 0.852 -31.576 0.852 -31.576 0.524 58.399
18843.625 0.524 58.365 0.851 -31.61 0.851 -31.61 0.524 58.365
18868.583 0.525 58.331 0.851 -31.644 0.851 -31.644 0.525 58.331
18893.542 0.525 58.297 0.851 -31.678 0.851 -31.678 0.525 58.297
18918.5 0.526 58.263 0.85 -31.712 0.85 -31.712 0.526 58.263
18943.458 0.526 58.229 0.85 -31.746 0.85 -31.746 0.526 58.229
18968.417 0.527 58.196 0.85 -31.779 0.85 -31.779 0.527 58.196
18993.375 0.527 58.162 0.85 -31.813 0.85 -31.813 0.527 58.162
19018.333 0.528 58.128 0.849 -31.847 0.849 -31.847 0.528 58.128
19043.292 0.528 58.094 0.849 -31.881 0.849 -31.881 0.528 58.094
19068.25 0.529 58.06 0.849 -31.915 0.849 -31.915 0.529 58.06
19093.208 0.529 58.027 0.848 -31.949 0.848 -31.949 0.529 58.027
19118.167 0.53 57.993 0.848 -31.982 0.848 -31.982 0.53 57.993
19143.125 0.53 57.959 0.848 -32.016 0.848 -32.016 0.53 57.959
19168.083 0.531 57.925 0.847 -32.05 0.847 -32.05 0.531 57.925
19193.042 0.531 57.892 0.847 -32.083 0.847 -32.083 0.531 57.892
19218 0.532 57.858 0.847 -32.117 0.847 -32.117 0.532 57.858
19242.958 0.532 57.825 0.846 -32.151 0.846 -32.151 0.532 57.825
19267.917 0.533 57.791 0.846 -32.184 0.846 -32.184 0.533 57.791
19292.875 0.533 57.758 0.846 -32.218 0.846 -32.218 0.533 57.758
19317.833 0.534 57.724 0.845 -32.251 0.845 -32.251 0.534 57.724
19342.792 0.534 57.691 0.845 -32.285 0.845 -32.285 0.534 57.691
19367.75 0.535 57.657 0.845 -32.318 0.845 -32.318 0.535 57.657
19392.708 0.535 57.624 0.845 -32.352 0.845 -32.352 0.535 57.624
19417.667 0.536 57.59 0.844 -32.385 0.844 -32.385 0.536 57.59
19442.625 0.536 57.557 0.844 -32.419 0.844 -32.419 0.536 57.557
19467.583 0.537 57.523 0.844 -32.452 0.844 -32.452 0.537 57.523
19492.542 0.537 57.49 0.843 -32.486 0.843 -32.486 0.537 57.49
19517.5 0.538 57.457 0.843 -32.519 0.843 -32.519 0.538 57.457
19542.458 0.538 57.423 0.843 -32.552 0.843 -32.552 0.538 57.423
19567.417 0.539 57.39 0.842 -32.586 0.842 -32.586 0.539 57.39
19592.375 0.539 57.357 0.842 -32.619 0.842 -32.619 0.539 57.357
19617.333 0.54 57.324 0.842 -32.652 0.842 -32.652 0.54 57.324
19642.292 0.54 57.291 0.841 -32.685 0.841 -32.685 0.54 57.291
19667.25 0.541 57.257 0.841 -32.718 0.841 -32.718 0.541 57.257
19692.208 0.541 57.224 0.841 -32.752 0.841 -32.752 0.541 57.224
19717.167 0.541 57.191 0.84 -32.785 0.84 -32.785 0.541 57.191
19742.125 0.542 57.158 0.84 -32.818 0.84 -32.818 0.542 57.158
19767.083 0.542 57.125 0.84 -32.851 0.84 -32.851 0.542 57.125
19792.042 0.543 57.092 0.84 -32.884 0.84 -32.884 0.543 57.092
19817 0.543 57.059 0.839 -32.917 0.839 -32.917 0.543 57.059
19841.958 0.544 57.026 0.839 -32.95 0.839 -32.95 0.544 57.026
19866.917 0.544 56.993 0.839 -32.983 0.839 -32.983 0.544 56.993
19891.875 0.545 56.96 0.838 -33.016 0.838 -33.016 0.545 56.96
19916.833 0.545 56.927 0.838 -33.049 0.838 -33.049 0.545 56.927
19941.792 0.546 56.894 0.838 -33.082 0.838 -33.082 0.546 56.894
19966.75 0.546 56.861 0.837 -33.115 0.837 -33.115 0.546 56.861
19991.708 0.547 56.828 0.837 -33.148 0.837 -33.148 0.547 56.828
20016.667 0.547 56.796 0.837 -33.181 0.837 -33.181 0.547 56.796
20041.625 0.548 56.763 0.836 -33.214 0.836 -33.214 0.548 56.763
20066.583 0.548 56.73 0.836 -33.246 0.836 -33.246 0.548 56.73
20091.542 0.549 56.697 0.836 -33.279 0.836 -33.279 0.549 56.697
20116.5 0.549 56.665 0.835 -33.312 0.835 -33.312 0.549 56.665
20141.458 0.55 56.632 0.835 -33.345 0.835 -33.345 0.55 56.632
20166.417 0.55 56.599 0.835 -33.377 0.835 -33.377 0.55 56.599
20191.375 0.551 56.567 0.835 -33.41 0.835 -33.41 0.551 56.567
20216.333 0.551 56.534 0.834 -33.443 0.834 -33.443 0.551 56.534
20241.292 0.552 56.501 0.834 -33.475 0.834 -33.475 0.552 56.501
20266.25 0.552 56.469 0.834 -33.508 0.834 -33.508 0.552 56.469
20291.208 0.553 56.436 0.833 -33.54 0.833 -33.54 0.553 56.436
20316.167 0.553 56.404 0.833 -33.573 0.833 -33.573 0.553 56.404
20341.125 0.553 56.371 0.833 -33.606 0.833 -33.606 0.553 56.371
20366.083 0.554 56.339 0.832 -33.638 0.832 -33.638 0.554 56.339
20391.042 0.554 56.306 0.832 -33.671 0.832 -33.671 0.554 56.306
20416 0.555 56.274 0.832 -33.703 0.832 -33.703 0.555 56.274
20440.958 0.555 56.241 0.831 -33.735 0.831 -33.735 0.555 56.241
20465.917 0.556 56.209 0.831 -33.768 0.831 -33.768 0.556 56.209
20490.875 0.556 56.177 0.831 -33.8 0.831 -33.8 0.556 56.177
20515.833 0.557 56.144 0.83 -33.833 0.83 -33.833 0.557 56.144
20540.792 0.557 56.112 0.83 -33.865 0.83 -33.865 0.557 56.112
20565.75 0.558 56.08 0.83 -33.897 0.83 -33.897 0.558 56.08
20590.708 0.558 56.047 0.83 -33.929 0.83 -33.929 0.558 56.047
20615.667 0.559 56.015 0.829 -33.962 0.829 -33.962 0.559 56.015
20640.625 0.559 55.983 0.829 -33.994 0.829 -33.994 0.559 55.983
20665.583 0.56 55.951 0.829 -34.026 0.829 -34.026 0.56 55.951
20690.542 0.56 55.919 0.828 -34.058 0.828 -34.058 0.56 55.919
20715.5 0.561 55.887 0.828 -34.091 0.828 -34.091 0.561 55.887
20740.458 0.561 55.854 0.828 -34.123 0.828 -34.123 0.561 55.854
20765.417 0.561 55.822 0.827 -34.155 0.827 -34.155 0.561 55.822
20790.375 0.562 55.79 0.827 -34.187 0.827 -34.187 0.562 55.79
20815.333 0.562 55.758 0.827 -34.219 0.827 -34.219 0.562 55.758
20840.292 0.563 55.726 0.826 -34.251 0.826 -34.251 0.563 55.726
20865.25 0.563 55.694 0.826 -34.283 0.826 -34.283 0.563 55.694
20890.208 0.564 55.662 0.826 -34.315 0.826 -34.315 0.564 55.662
20915.167 0.564 55.63 0.825 -34.347 0.825 -34.347 0.564 55.63
20940.125 0.565 55.598 0.825 -34.379 0.825 -34.379 0.565 55.598
20965.083 0.565 55.567 0.825 -34.411 0.825 -34.411 0.565 55.567
20990.042 0.566 55.535 0.824 -34.443 0.824 -34.443 0.566 55.535
21015 0.566 55.503 0.824 -34.475 0.824 -34.475 0.566 55.503
21039.958 0.566 55.471 0.824 -34.506 0.824 -34.506 0.566 55.471
21064.917 0.567 55.439 0.824 -34.538 0.824 -34.538 0.567 55.439
21089.875 0.567 55.407 0.823 -34.57 0.823 -34.57 0.567 55.407
21114.833 0.568 55.376 0.823 -34.602 0.823 -34.602 0.568 55.376
21139.792 0.568 55.344 0.823 -34.634 0.823 -34.634 0.568 55.344
21164.75 0.569 55.312 0.822 -34.665 0.822 -34.665 0.569 55.312
21189.708 0.569 55.281 0.822 -34.697 0.822 -34.697 0.569 55.281
21214.667 0.57 55.249 0.822 -34.729 0.822 -34.729 0.57 55.249
21239.625 0.57 55.217 0.821 -34.76 0.821 -34.76 0.57 55.217
21264.583 0.571 55.186 0.821 -34.792 0.821 -34.792 0.571 55.186
21289.542 0.571 55.154 0.821 -34.823 0.821 -34.823 0.571 55.154
21314.5 0.572 55.123 0.82 -34.855 0.82 -34.855 0.572 55.123
21339.458 0.572 55.091 0.82 -34.887 0.82 -34.887 0.572 55.091
21364.417 0.572 55.06 0.82 -34.918 0.82 -34.918 0.572 55.06
21389.375 0.573 55.028 0.819 -34.95 0.819 -34.95 0.573 55.028
21414.333 0.573 54.997 0.819 -34.981 0.819 -34.981 0.573 54.997
21439.292 0.574 54.965 0.819 -35.013 0.819 -35.013 0.574 54.965
21464.25 0.574 54.934 0.818 -35.044 0.818 -35.044 0.574 54.934
21489.208 0.575 54.903 0.818 -35.075 0.818 -35.075 0.575 54.903
21514.167 0.575 54.871 0.818 -35.107 0.818 -35.107 0.575 54.871
21539.125 0.576 54.84 0.818 -35.138 0.818 -35.138 0.576 54.84
21564.083 0.576 54.809 0.817 -35.169 0.817 -35.169 0.576 54.809
21589.042 0.576 54.777 0.817 -35.201 0.817 -35.201 0.576 54.777
21614 0.577 54.746 0.817 -35.232 0.817 -35.232 0.577 54.746
21638.958 0.577 54.715 0.816 -35.263 0.816 -35.263 0.577 54.715
21663.917 0.578 54.684 0.816 -35.295 0.816 -35.295 0.578 54.684
21688.875 0.578 54.652 0.816 -35.326 0.816 -35.326 0.578 54.652
21713.833 0.579 54.621 0.815 -35.357 0.815 -35.357 0.579 54.621
21738.792 0.579 54.59 0.815 -35.388 0.815 -35.388 0.579 54.59
21763.75 0.58 54.559 0.815 -35.419 0.815 -35.419 0.58 54.559
21788.708 0.58 54.528 0.814 -35.45 0.814 -35.45 0.58 54.528
21813.667 0.58 54.497 0.814 -35.481 0.814 -35.481 0.58 54.497
21838.625 0.581 54.466 0.814 -35.513 0.814 -35.513 0.581 54.466
21863.583 0.581 54.435 0.813 -35.544 0.813 -35.544 0.581 54.435
21888.542 0.582 54.404 0.813 -35.575 0.813 -35.575 0.582 54.404
21913.5 0.582 54.373 0.813 -35.606 0.813 -35.606 0.582 54.373
21938.458 0.583 54.342 0.813 -35.637 0.813 -35.637 0.583 54.342
21963.417 0.583 54.311 0.812 -35.668 0.812 -35.668 0.583 54.311
21988.375 0.584 54.28 0.812 -35.698 0.812 -35.698 0.584 54.28
22013.333 0.584 54.249 0.812 -35.729 0.812 -35.729 0.584 54.249
22038.292 0.584 54.218 0.811 -35.76 0.811 -35.76 0.584 54.218
22063.25 0.585 54.187 0.811 -35.791 0.811 -35.791 0.585 54.187
22088.208 0.585 54.157 0.811 -35.822 0.811 -35.822 0.585 54.157
22113.167 0.586 54.126 0.81 -35.853 0.81 -35.853 0.586 54.126
22138.125 0.586 54.095 0.81 -35.883 0.81 -35.883 0.586 54.095
22163.083 0.587 54.064 0.81 -35.914 0.81 -35.914 0.587 54.064
22188.042 0.587 54.034 0.809 -35.945 0.809 -35.945 0.587 54.034
22213 0.587 54.003 0.809 -35.976 0.809 -35.976 0.587 54.003
22237.958 0.588 53.972 0.809 -36.006 0.809 -36.006 0.588 53.972
22262.917 0.588 53.942 0.808 -36.037 0.808 -36.037 0.588 53.942
22287.875 0.589 53.911 0.808 -36.068 0.808 -36.068 0.589 53.911
22312.833 0.589 53.881 0.808 -36.098 0.808 -36.098 0.589 53.881
22337.792 0.59 53.85 0.807 -36.129 0.807 -36.129 0.59 53.85
22362.75 0.59 53.819 0.807 -36.159 0.807 -36.159 0.59 53.819
22387.708 0.59 53.789 0.807 -36.19 0.807 -36.19 0.59 53.789
22412.667 0.591 53.758 0.807 -36.22 0.807 -36.22 0.591 53.758
22437.625 0.591 53.728 0.806 -36.251 0.806 -36.251 0.591 53.728
22462.583 0.592 53.697 0.806 -36.281 0.806 -36.281 0.592 53.697
22487.542 0.592 53.667 0.806 -36.312 0.806 -36.312 0.592 53.667
22512.5 0.593 53.637 0.805 -36.342 0.805 -36.342 0.593 53.637
22537.458 0.593 53.606 0.805 -36.373 0.805 -36.373 0.593 53.606
22562.417 0.593 53.576 0.805 -36.403 0.805 -36.403 0.593 53.576
22587.375 0.594 53.546 0.804 -36.433 0.804 -36.433 0.594 53.546
22612.333 0.594 53.515 0.804 -36.464 0.804 -36.464 0.594 53.515
22637.292 0.595 53.485 0.804 -36.494 0.804 -36.494 0.595 53.485
22662.25 0.595 53.455 0.803 -36.524 0.803 -36.524 0.595 53.455
22687.208 0.596 53.425 0.803 -36.555 0.803 -36.555 0.596 53.425
22712.167 0.596 53.394 0.803 -36.585 0.803 -36.585 0.596 53.394
22737.125 0.596 53.364 0.802 -36.615 0.802 -36.615 0.596 53.364
22762.083 0.597 53.334 0.802 -36.645 0.802 -36.645 0.597 53.334
22787.042 0.597 53.304 0.802 -36.675 0.802 -36.675 0.597 53.304
22812 0.598 53.274 0.802 -36.705 0.802 -36.705 0.598 53.274
22836.958 0.598 53.244 0.801 -36.736 0.801 -36.736 0.598 53.244
22861.917 0.599 53.214 0.801 -36.766 0.801 -36.766 0.599 53.214
22886.875 0.599 53.184 0.801 -36.796 0.801 -36.796 0.599 53.184
22911.833 0.599 53.154 0.8 -36.826 0.8 -36.826 0.599 53.154
22936.792 0.6 53.124 0.8 -36.856 0.8 -36.856 0.6 53.124
22961.75 0.6 53.094 0.8 -36.886 0.8 -36.886 0.6 53.094
22986.708 0.601 53.064 0.799 -36.916 0.799 -36.916 0.601 53.064
23011.667 0.601 53.034 0.799 -36.946 0.799 -36.946 0.601 53.034
23036.625 0.601 53.004 0.799 -36.976 0.799 -36.976 0.601 53.004
23061.583 0.602 52.974 0.798 -37.005 0.798 -37.005 0.602 52.974
23086.542 0.602 52.944 0.798 -37.035 0.798 -37.035 0.602 52.944
23111.5 0.603 52.914 0.798 -37.065 0.798 -37.065 0.603 52.914
23136.458 0.603 52.884 0.797 -37.095 0.797 -37.095 0.603 52.884
23161.417 0.604 52.855 0.797 -37.125 0.797 -37.125 0.604 52.855
23186.375 0.604 52.825 0.797 -37.155 0.797 -37.155 0.604 52.825
23211.333 0.604 52.795 0.796 -37.184 0.796 -37.184 0.604 52.795
23236.292 0.605 52.766 0.796 -37.214 0.796 -37.214 0.605 52.766
23261.25 0.605 52.736 0.796 -37.244 0.796 -37.244 0.605 52.736
23286.208 0.606 52.706 0.796 -37.273 0.796 -37.273 0.606 52.706
23311.167 0.606 52.677 0.795 -37.303 0.795 -37.303 0.606 52.677
23336.125 0.606 52.647 0.795 -37.333 0.795 -37.333 0.606 52.647
23361.083 0.607 52.617 0.795 -37.362 0.795 -37.362 0.607 52.617
23386.042 0.607 52.588 0.794 -37.392 0.794 -37.392 0.607 52.588
23411 0.608 52.558 0.794 -37.422 0.794 -37.422 0.608 52.558
23435.958 0.608 52.529 0.794 -37.451 0.794 -37.451 0.608 52.529
23460.917 0.608 52.499 0.793 -37.481 0.793 -37.481 0.608 52.499
23485.875 0.609 52.47 0.793 -37.51 0.793 -37.51 0.609 52.47
23510.833 0.609 52.44 0.793 -37.54 0.793 -37.54 0.609 52.44
23535.792 0.61 52.411 0.792 -37.569 0.792 -37.569 0.61 52.411
23560.75 0.61 52.381 0.792 -37.598 0.792 -37.598 0.61 52.381
23585.708 0.611 52.352 0.792 -37.628 0.792 -37.628 0.611 52.352
23610.667 0.611 52.323 0.791 -37.657 0.791 -37.657 0.611 52.323
23635.625 0.611 52.293 0.791 -37.687 0.791 -37.687 0.611 52.293
23660.583 0.612 52.264 0.791 -37.716 0.791 -37.716 0.612 52.264
23685.542 0.612 52.235 0.791 -37.745 0.791 -37.745 0.612 52.235
23710.5 0.613 52.205 0.79 -37.775 0.79 -37.775 0.613 52.205
23735.458 0.613 52.176 0.79 -37.804 0.79 -37.804 0.613 52.176
23760.417 0.613 52.147 0.79 -37.833 0.79 -37.833 0.613 52.147
23785.375 0.614 52.118 0.789 -37.862 0.789 -37.862 0.614 52.118
23810.333 0.614 52.089 0.789 -37.891 0.789 -37.891 0.614 52.089
23835.292 0.615 52.059 0.789 -37.921 0.789 -37.921 0.615 52.059
23860.25 0.615 52.03 0.788 -37.95 0.788 -37.95 0.615 52.03
23885.208 0.615 52.001 0.788 -37.979 0.788 -37.979 0.615 52.001
23910.167 0.616 51.972 0.788 -38.008 0.788 -38.008 0.616 51.972
23935.125 0.616 51.943 0.787 -38.037 0.787 -38.037 0.616 51.943
23960.083 0.617 51.914 0.787 -38.066 0.787 -38.066 0.617 51.914
23985.042 0.617 51.885 0.787 -38.095 0.787 -38.095 0.617 51.885
24010 0.617 51.856 0.786 -38.124 0.786 -38.124 0.617 51.856
24034.958 0.618 51.827 0.786 -38.153 0.786 -38.153 0.618 51.827
24059.917 0.618 51.798 0.786 -38.182 0.786 -38.182 0.618 51.798
24084.875 0.619 51.769 0.786 -38.211 0.786 -38.211 0.619 51.769
24109.833 0.619 51.74 0.785 -38.24 0.785 -38.24 0.619 51.74
24134.792 0.619 51.711 0.785 -38.269 0.785 -38.269 0.619 51.711
24159.75 0.62 51.683 0.785 -38.298 0.785 -38.298 0.62 51.683
24184.708 0.62 51.654 0.784 -38.327 0.784 -38.327 0.62 51.654
24209.667 0.621 51.625 0.784 -38.355 0.784 -38.355 0.621 51.625
24234.625 0.621 51.596 0.784 -38.384 0.784 -38.384 0.621 51.596
24259.583 0.621 51.567 0.783 -38.413 0.783 -38.413 0.621 51.567
24284.542 0.622 51.539 0.783 -38.442 0.783 -38.442 0.622 51.539
24309.5 0.622 51.51 0.783 -38.47 0.783 -38.47 0.622 51.51
24334.458 0.623 51.481 0.782 -38.499 0.782 -38.499 0.623 51.481
24359.417 0.623 51.453 0.782 -38.528 0.782 -38.528 0.623 51.453
24384.375 0.623 51.424 0.782 -38.557 0.782 -38.557 0.623 51.424
24409.333 0.624 51.395 0.781 -38.585 0.781 -38.585 0.624 51.395
24434.292 0.624 51.367 0.781 -38.614 0.781 -38.614 0.624 51.367
24459.25 0.624 51.338 0.781 -38.642 0.781 -38.642 0.624 51.338
24484.208 0.625 51.31 0.781 -38.671 0.781 -38.671 0.625 51.31
24509.167 0.625 51.281 0.78 -38.7 0.78 -38.7 0.625 51.281
24534.125 0.626 51.253 0.78 -38.728 0.78 -38.728 0.626 51.253
24559.083 0.626 51.224 0.78 -38.757 0.78 -38.757 0.626 51.224
24584.042 0.626 51.196 0.779 -38.785 0.779 -38.785 0.626 51.196
24609 0.627 51.167 0.779 -38.813 0.779 -38.813 0.627 51.167
24633.958 0.627 51.139 0.779 -38.842 0.779 -38.842 0.627 51.139
24658.917 0.628 51.11 0.778 -38.87 0.778 -38.87 0.628 51.11
24683.875 0.628 51.082 0.778 -38.899 0.778 -38.899 0.628 51.082
24708.833 0.628 51.054 0.778 -38.927 0.778 -38.927 0.628 51.054
24733.792 0.629 51.025 0.777 -38.955 0.777 -38.955 0.629 51.025
24758.75 0.629 50.997 0.777 -38.984 0.777 -38.984 0.629 50.997
24783.708 0.629 50.969 0.777 -39.012 0.777 -39.012 0.629 50.969
24808.667 0.63 50.941 0.776 -39.04 0.776 -39.04 0.63 50.941
24833.625 0.63 50.912 0.776 -39.069 0.776 -39.069 0.63 50.912
24858.583 0.631 50.884 0.776 -39.097 0.776 -39.097 0.631 50.884
24883.542 0.631 50.856 0.776 -39.125 0.776 -39.125 0.631 50.856
24908.5 0.631 50.828 0.775 -39.153 0.775 -39.153 0.631 50.828
24933.458 0.632 50.8 0.775 -39.181 0.775 -39.181 0.632 50.8
24958.417 0.632 50.771 0.775 -39.209 0.775 -39.209 0.632 50.771
24983.375 0.633 50.743 0.774 -39.238 0.774 -39.238 0.633 50.743
25008.333 0.633 50.715 0.774 -39.266 0.774 -39.266 0.633 50.715
25033.292 0.633 50.687 0.774 -39.294 0.774 -39.294 0.633 50.687
25058.25 0.634 50.659 0.773 -39.322 0.773 -39.322 0.634 50.659
25083.208 0.634 50.631 0.773 -39.35 0.773 -39.35 0.634 50.631
25108.167 0.634 50.603 0.773 -39.378 0.773 -39.378 0.634 50.603
25133.125 0.635 50.575 0.772 -39.406 0.772 -39.406 0.635 50.575
25158.083 0.635 50.547 0.772 -39.434 0.772 -39.434 0.635 50.547
25183.042 0.636 50.519 0.772 -39.462 0.772 -39.462 0.636 50.519
25208 0.636 50.492 0.772 -39.49 0.772 -39.49 0.636 50.492
25232.958 0.636 50.464 0.771 -39.518 0.771 -39.518 0.636 50.464
25257.917 0.637 50.436 0.771 -39.545 0.771 -39.545 0.637 50.436
25282.875 0.637 50.408 0.771 -39.573 0.771 -39.573 0.637 50.408
25307.833 0.637 50.38 0.77 -39.601 0.77 -39.601 0.637 50.38
25332.792 0.638 50.352 0.77 -39.629 0.77 -39.629 0.638 50.352
25357.75 0.638 50.325 0.77 -39.657 0.77 -39.657 0.638 50.325
25382.708 0.639 50.297 0.769 -39.684 0.769 -39.684 0.639 50.297
25407.667 0.639 50.269 0.769 -39.712 0.769 -39.712 0.639 50.269
25432.625 0.639 50.241 0.769 -39.74 0.769 -39.74 0.639 50.241
25457.583 0.64 50.214 0.768 -39.768 0.768 -39.768 0.64 50.214
25482.542 0.64 50.186 0.768 -39.795 0.768 -39.795 0.64 50.186
25507.5 0.64 50.159 0.768 -39.823 0.768 -39.823 0.64 50.159
25532.458 0.641 50.131 0.768 -39.851 0.768 -39.851 0.641 50.131
25557.417 0.641 50.103 0.767 -39.878 0.767 -39.878 0.641 50.103
25582.375 0.642 50.076 0.767 -39.906 0.767 -39.906 0.642 50.076
25607.333 0.642 50.048 0.767 -39.933 0.767 -39.933 0.642 50.048
25632.292 0.642 50.021 0.766 -39.961 0.766 -39.961 0.642 50.021
25657.25 0.643 49.993 0.766 -39.988 0.766 -39.988 0.643 49.993
25682.208 0.643 49.966 0.766 -40.016 0.766 -40.016 0.643 49.966
25707.167 0.643 49.938 0.765 -40.043 0.765 -40.043 0.643 49.938
25732.125 0.644 49.911 0.765 -40.071 0.765 -40.071 0.644 49.911
25757.083 0.644 49.883 0.765 -40.098 0.765 -40.098 0.644 49.883
25782.042 0.644 49.856 0.764 -40.126 0.764 -40.126 0.644 49.856
25807 0.645 49.829 0.764 -40.153 0.764 -40.153 0.645 49.829
25831.958 0.645 49.801 0.764 -40.18 0.764 -40.18 0.645 49.801
25856.917 0.646 49.774 0.764 -40.208 0.764 -40.208 0.646 49.774
25881.875 0.646 49.747 0.763 -40.235 0.763 -40.235 0.646 49.747
25906.833 0.646 49.719 0.763 -40.262 0.763 -40.262 0.646 49.719
25931.792 0.647 49.692 0.763 -40.289 0.763 -40.289 0.647 49.692
25956.75 0.647 49.665 0.762 -40.317 0.762 -40.317 0.647 49.665
25981.708 0.647 49.638 0.762 -40.344 0.762 -40.344 0.647 49.638
26006.667 0.648 49.611 0.762 -40.371 0.762 -40.371 0.648 49.611
26031.625 0.648 49.583 0.761 -40.398 0.761 -40.398 0.648 49.583
26056.583 0.648 49.556 0.761 -40.426 0.761 -40.426 0.648 49.556
26081.542 0.649 49.529 0.761 -40.453 0.761 -40.453 0.649 49.529
26106.5 0.649 49.502 0.76 -40.48 0.76 -40.48 0.649 49.502
26131.458 0.65 49.475 0.76 -40.507 0.76 -40.507 0.65 49.475
26156.417 0.65 49.448 0.76 -40.534 0.76 -40.534 0.65 49.448
26181.375 0.65 49.421 0.76 -40.561 0.76 -40.561 0.65 49.421
26206.333 0.651 49.394 0.759 -40.588 0.759 -40.588 0.651 49.394
26231.292 0.651 49.367 0.759 -40.615 0.759 -40.615 0.651 49.367
26256.25 0.651 49.34 0.759 -40.642 0.759 -40.642 0.651 49.34
26281.208 0.652 49.313 0.758 -40.669 0.758 -40.669 0.652 49.313
26306.167 0.652 49.286 0.758 -40.696 0.758 -40.696 0.652 49.286
26331.125 0.652 49.259 0.758 -40.723 0.758 -40.723 0.652 49.259
26356.083 0.653 49.232 0.757 -40.75 0.757 -40.75 0.653 49.232
26381.042 0.653 49.205 0.757 -40.777 0.757 -40.777 0.653 49.205
26406 0.653 49.179 0.757 -40.803 0.757 -40.803 0.653 49.179
26430.958 0.654 49.152 0.756 -40.83 0.756 -40.83 0.654 49.152
26455.917 0.654 49.125 0.756 -40.857 0.756 -40.857 0.654 49.125
26480.875 0.655 49.098 0.756 -40.884 0.756 -40.884 0.655 49.098
26505.833 0.655 49.071 0.756 -40.911 0.756 -40.911 0.655 49.071
26530.792 0.655 49.045 0.755 -40.937 0.755 -40.937 0.655 49.045
26555.75 0.656 49.018 0.755 -40.964 0.755 -40.964 0.656 49.018
26580.708 0.656 48.991 0.755 -40.991 0.755 -40.991 0.656 48.991
26605.667 0.656 48.965 0.754 -41.017 0.754 -41.017 0.656 48.965
26630.625 0.657 48.938 0.754 -41.044 0.754 -41.044 0.657 48.938
26655.583 0.657 48.911 0.754 -41.071 0.754 -41.071 0.657 48.911
26680.542 0.657 48.885 0.753 -41.097 0.753 -41.097 0.657 48.885
26705.5 0.658 48.858 0.753 -41.124 0.753 -41.124 0.658 48.858
26730.458 0.658 48.832 0.753 -41.151 0.753 -41.151 0.658 48.832
26755.417 0.658 48.805 0.752 -41.177 0.752 -41.177 0.658 48.805
26780.375 0.659 48.779 0.752 -41.204 0.752 -41.204 0.659 48.779
26805.333 0.659 48.752 0.752 -41.23 0.752 -41.23 0.659 48.752
26830.292 0.659 48.726 0.752 -41.257 0.752 -41.257 0.659 48.726
26855.25 0.66 48.699 0.751 -41.283 0.751 -41.283 0.66 48.699
26880.208 0.66 48.673 0.751 -41.31 0.751 -41.31 0.66 48.673
26905.167 0.66 48.646 0.751 -41.336 0.751 -41.336 0.66 48.646
26930.125 0.661 48.62 0.75 -41.362 0.75 -41.362 0.661 48.62
26955.083 0.661 48.594 0.75 -41.389 0.75 -41.389 0.661 48.594
26980.042 0.662 48.567 0.75 -41.415 0.75 -41.415 0.662 48.567
27005 0.662 48.541 0.749 -41.441 0.749 -41.441 0.662 48.541
27029.958 0.662 48.515 0.749 -41.468 0.749 -41.468 0.662 48.515
27054.917 0.663 48.488 0.749 -41.494 0.749 -41.494 0.663 48.488
27079.875 0.663 48.462 0.749 -41.52 0.749 -41.52 0.663 48.462
27104.833 0.663 48.436 0.748 -41.547 0.748 -41.547 0.663 48.436
27129.792 0.664 48.41 0.748 -41.573 0.748 -41.573 0.664 48.41
27154.75 0.664 48.384 0.748 -41.599 0.748 -41.599 0.664 48.384
27179.708 0.664 48.357 0.747 -41.625 0.747 -41.625 0.664 48.357
27204.667 0.665 48.331 0.747 -41.651 0.747 -41.651 0.665 48.331
27229.625 0.665 48.305 0.747 -41.677 0.747 -41.677 0.665 48.305
27254.583 0.665 48.279 0.746 -41.704 0.746 -41.704 0.665 48.279
27279.542 0.666 48.253 0.746 -41.73 0.746 -41.73 0.666 48.253
27304.5 0.666 48.227 0.746 -41.756 0.746 -41.756 0.666 48.227
27329.458 0.666 48.201 0.745 -41.782 0.745 -41.782 0.666 48.201
27354.417 0.667 48.175 0.745 -41.808 0.745 -41.808 0.667 48.175
27379.375 0.667 48.149 0.745 -41.834 0.745 -41.834 0.667 48.149
27404.333 0.667 48.123 0.745 -41.86 0.745 -41.86 0.667 48.123
27429.292 0.668 48.097 0.744 -41.886 0.744 -41.886 0.668 48.097
27454.25 0.668 48.071 0.744 -41.912 0.744 -41.912 0.668 48.071
27479.208 0.668 48.045 0.744 -41.938 0.744 -41.938 0.668 48.045
27504.167 0.669 48.019 0.743 -41.964 0.743 -41.964 0.669 48.019
27529.125 0.669 47.993 0.743 -41.99 0.743 -41.99 0.669 47.993
27554.083 0.669 47.967 0.743 -42.015 0.743 -42.015 0.669 47.967
27579.042 0.67 47.942 0.742 -42.041 0.742 -42.041 0.67 47.942
27604 0.67 47.916 0.742 -42.067 0.742 -42.067 0.67 47.916
27628.958 0.67 47.89 0.742 -42.093 0.742 -42.093 0.67 47.89
27653.917 0.671 47.864 0.742 -42.119 0.742 -42.119 0.671 47.864
27678.875 0.671 47.838 0.741 -42.144 0.741 -42.144 0.671 47.838
27703.833 0.671 47.813 0.741 -42.17 0.741 -42.17 0.671 47.813
27728.792 0.672 47.787 0.741 -42.196 0.741 -42.196 0.672 47.787
27753.75 0.672 47.761 0.74 -42.222 0.74 -42.222 0.672 47.761
27778.708 0.672 47.736 0.74 -42.247 0.74 -42.247 0.672 47.736
27803.667 0.673 47.71 0.74 -42.273 0.74 -42.273 0.673 47.71
27828.625 0.673 47.684 0.739 -42.299 0.739 -42.299 0.673 47.684
27853.583 0.673 47.659 0.739 -42.324 0.739 -42.324 0.673 47.659
27878.542 0.674 47.633 0.739 -42.35 0.739 -42.35 0.674 47.633
27903.5 0.674 47.608 0.739 -42.375 0.739 -42.375 0.674 47.608
27928.458 0.674 47.582 0.738 -42.401 0.738 -42.401 0.674 47.582
27953.417 0.675 47.557 0.738 -42.426 0.738 -42.426 0.675 47.557
27978.375 0.675 47.531 0.738 -42.452 0.738 -42.452 0.675 47.531
28003.333 0.675 47.506 0.737 -42.477 0.737 -42.477 0.675 47.506
28028.292 0.676 47.48 0.737 -42.503 0.737 -42.503 0.676 47.48
28053.25 0.676 47.455 0.737 -42.528 0.737 -42.528 0.676 47.455
28078.208 0.676 47.429 0.736 -42.554 0.736 -42.554 0.676 47.429
28103.167 0.677 47.404 0.736 -42.579 0.736 -42.579 0.677 47.404
28128.125 0.677 47.379 0.736 -42.605 0.736 -42.605 0.677 47.379
28153.083 0.677 47.353 0.736 -42.63 0.736 -42.63 0.677 47.353
28178.042 0.678 47.328 0.735 -42.655 0.735 -42.655 0.678 47.328
28203 0.678 47.303 0.735 -42.681 0.735 -42.681 0.678 47.303
28227.958 0.678 47.277 0.735 -42.706 0.735 -42.706 0.678 47.277
28252.917 0.679 47.252 0.734 -42.731 0.734 -42.731 0.679 47.252
28277.875 0.679 47.227 0.734 -42.756 0.734 -42.756 0.679 47.227
28302.833 0.679 47.202 0.734 -42.782 0.734 -42.782 0.679 47.202
28327.792 0.68 47.176 0.733 -42.807 0.733 -42.807 0.68 47.176
28352.75 0.68 47.151 0.733 -42.832 0.733 -42.832 0.68 47.151
28377.708 0.68 47.126 0.733 -42.857 0.733 -42.857 0.68 47.126
28402.667 0.68 47.101 0.733 -42.882 0.733 -42.882 0.68 47.101
28427.625 0.681 47.076 0.732 -42.908 0.732 -42.908 0.681 47.076
28452.583 0.681 47.051 0.732 -42.933 0.732 -42.933 0.681 47.051
28477.542 0.681 47.026 0.732 -42.958 0.732 -42.958 0.681 47.026
28502.5 0.682 47 0.731 -42.983 0.731 -42.983 0.682 47
28527.458 0.682 46.975 0.731 -43.008 0.731 -43.008 0.682 46.975
28552.417 0.682 46.95 0.731 -43.033 0.731 -43.033 0.682 46.95
28577.375 0.683 46.925 0.73 -43.058 0.73 -43.058 0.683 46.925
28602.333 0.683 46.9 0.73 -43.083 0.73 -43.083 0.683 46.9
28627.292 0.683 46.875 0.73 -43.108 0.73 -43.108 0.683 46.875
28652.25 0.684 46.851 0.73 -43.133 0.73 -43.133 0.684 46.851
28677.208 0.684 46.826 0.729 -43.158 0.729 -43.158 0.684 46.826
28702.167 0.684 46.801 0.729 -43.183 0.729 -43.183 0.684 46.801
28727.125 0.685 46.776 0.729 -43.208 0.729 -43.208 0.685 46.776
28752.083 0.685 46.751 0.728 -43.233 0.728 -43.233 0.685 46.751
28777.042 0.685 46.726 0.728 -43.257 0.728 -43.257 0.685 46.726
28802 0.686 46.701 0.728 -43.282 0.728 -43.282 0.686 46.701
28826.958 0.686 46.676 0.727 -43.307 0.727 -43.307 0.686 46.676
28851.917 0.686 46.652 0.727 -43.332 0.727 -43.332 0.686 46.652
28876.875 0.687 46.627 0.727 -43.357 0.727 -43.357 0.687 46.627
28901.833 0.687 46.602 0.727 -43.381 0.727 -43.381 0.687 46.602
28926.792 0.687 46.577 0.726 -43.406 0.726 -43.406 0.687 46.577
28951.75 0.687 46.553 0.726 -43.431 0.726 -43.431 0.687 46.553
28976.708 0.688 46.528 0.726 -43.455 0.726 -43.455 0.688 46.528
29001.667 0.688 46.503 0.725 -43.48 0.725 -43.48 0.688 46.503
29026.625 0.688 46.479 0.725 -43.505 0.725 -43.505 0.688 46.479
29051.583 0.689 46.454 0.725 -43.529 0.725 -43.529 0.689 46.454
29076.542 0.689 46.43 0.725 -43.554 0.725 -43.554 0.689 46.43
29101.5 0.689 46.405 0.724 -43.579 0.724 -43.579 0.689 46.405
29126.458 0.69 46.38 0.724 -43.603 0.724 -43.603 0.69 46.38
29151.417 0.69 46.356 0.724 -43.628 0.724 -43.628 0.69 46.356
29176.375 0.69 46.331 0.723 -43.652 0.723 -43.652 0.69 46.331
29201.333 0.691 46.307 0.723 -43.677 0.723 -43.677 0.691 46.307
29226.292 0.691 46.282 0.723 -43.701 0.723 -43.701 0.691 46.282
29251.25 0.691 46.258 0.722 -43.726 0.722 -43.726 0.691 46.258
29276.208 0.692 46.234 0.722 -43.75 0.722 -43.75 0.692 46.234
29301.167 0.692 46.209 0.722 -43.775 0.722 -43.775 0.692 46.209
29326.125 0.692 46.185 0.722 -43.799 0.722 -43.799 0.692 46.185
29351.083 0.692 46.16 0.721 -43.823 0.721 -43.823 0.692 46.16
29376.042 0.693 46.136 0.721 -43.848 0.721 -43.848 0.693 46.136
29401 0.693 46.112 0.721 -43.872 0.721 -43.872 0.693 46.112
29425.958 0.693 46.087 0.72 -43.897 0.72 -43.897 0.693 46.087
29450.917 0.694 46.063 0.72 -43.921 0.72 -43.921 0.694 46.063
29475.875 0.694 46.039 0.72 -43.945 0.72 -43.945 0.694 46.039
29500.833 0.694 46.015 0.72 -43.969 0.72 -43.969 0.694 46.015
29525.792 0.695 45.99 0.719 -43.994 0.719 -43.994 0.695 45.99
29550.75 0.695 45.966 0.719 -44.018 0.719 -44.018 0.695 45.966
29575.708 0.695 45.942 0.719 -44.042 0.719 -44.042 0.695 45.942
29600.667 0.695 45.918 0.718 -44.066 0.718 -44.066 0.695 45.918
29625.625 0.696 45.894 0.718 -44.09 0.718 -44.09 0.696 45.894
29650.583 0.696 45.869 0.718 -44.115 0.718 -44.115 0.696 45.869
29675.542 0.696 45.845 0.717 -44.139 0.717 -44.139 0.696 45.845
29700.5 0.697 45.821 0.717 -44.163 0.717 -44.163 0.697 45.821
29725.458 0.697 45.797 0.717 -44.187 0.717 -44.187 0.697 45.797
29750.417 0.697 45.773 0.717 -44.211 0.717 -44.211 0.697 45.773
29775.375 0.698 45.749 0.716 -44.235 0.716 -44.235 0.698 45.749
29800.333 0.698 45.725 0.716 -44.259 0.716 -44.259 0.698 45.725
29825.292 0.698 45.701 0.716 -44.283 0.716 -44.283 0.698 45.701
29850.25 0.699 45.677 0.715 -44.307 0.715 -44.307 0.699 45.677
29875.208 0.699 45.653 0.715 -44.331 0.715 -44.331 0.699 45.653
29900.167 0.699 45.629 0.715 -44.355 0.715 -44.355 0.699 45.629
29925.125 0.699 45.605 0.715 -44.379 0.715 -44.379 0.699 45.605
29950.083 0.7 45.581 0.714 -44.403 0.714 -44.403 0.7 45.581
29975.042 0.7 45.557 0.714 -44.427 0.714 -44.427 0.7 45.557
30000 0.7 45.534 0.714 -44.451 0.714 -44.451 0.7 45.534
