!	AVX Thin Film Operation 	Date: April 2014		
!	Description: Accu-P® Series, Thin Film  SMD RF Capacitor
!	Part Number: 06031J1R4PBSTR					
!								
# MHZ S MA R 50

50 0.999 -2.519 0.044 87.476 0.044 87.476 0.999 -2.519
74.958 0.998 -3.773 0.066 86.218 0.066 86.218 0.998 -3.773
99.917 0.996 -5.025 0.088 84.964 0.088 84.964 0.996 -5.025
124.875 0.994 -6.273 0.109 83.714 0.109 83.714 0.994 -6.273
149.833 0.991 -7.515 0.131 82.468 0.131 82.468 0.991 -7.515
174.792 0.988 -8.752 0.152 81.229 0.152 81.229 0.988 -8.752
199.75 0.985 -9.982 0.173 79.996 0.173 79.996 0.985 -9.982
224.708 0.981 -11.204 0.194 78.771 0.194 78.771 0.981 -11.204
249.667 0.977 -12.418 0.215 77.555 0.215 77.555 0.977 -12.418
274.625 0.972 -13.622 0.236 76.347 0.236 76.347 0.972 -13.622
299.583 0.967 -14.817 0.256 75.15 0.256 75.15 0.967 -14.817
324.542 0.961 -16 0.276 73.964 0.276 73.964 0.961 -16
349.5 0.955 -17.172 0.295 72.789 0.295 72.789 0.955 -17.172
374.458 0.949 -18.332 0.315 71.627 0.315 71.627 0.949 -18.332
399.417 0.943 -19.479 0.333 70.477 0.333 70.477 0.943 -19.479
424.375 0.936 -20.613 0.352 69.34 0.352 69.34 0.936 -20.613
449.333 0.929 -21.733 0.37 68.217 0.37 68.217 0.929 -21.733
474.292 0.921 -22.839 0.388 67.108 0.388 67.108 0.921 -22.839
499.25 0.914 -23.931 0.406 66.014 0.406 66.014 0.914 -23.931
524.208 0.906 -25.008 0.423 64.934 0.423 64.934 0.906 -25.008
549.167 0.898 -26.07 0.439 63.869 0.439 63.869 0.898 -26.07
574.125 0.89 -27.116 0.456 62.82 0.456 62.82 0.89 -27.116
599.083 0.881 -28.147 0.472 61.786 0.472 61.786 0.881 -28.147
624.042 0.873 -29.162 0.487 60.768 0.487 60.768 0.873 -29.162
649 0.864 -30.162 0.502 59.766 0.502 59.766 0.864 -30.162
673.958 0.855 -31.145 0.517 58.779 0.517 58.779 0.855 -31.145
698.917 0.846 -32.113 0.532 57.809 0.532 57.809 0.846 -32.113
723.875 0.837 -33.064 0.546 56.854 0.546 56.854 0.837 -33.064
748.833 0.828 -34 0.559 55.916 0.559 55.916 0.828 -34
773.792 0.819 -34.92 0.572 54.993 0.572 54.993 0.819 -34.92
798.75 0.81 -35.824 0.585 54.086 0.585 54.086 0.81 -35.824
823.708 0.801 -36.712 0.598 53.195 0.598 53.195 0.801 -36.712
848.667 0.791 -37.584 0.61 52.319 0.61 52.319 0.791 -37.584
873.625 0.782 -38.442 0.622 51.459 0.622 51.459 0.782 -38.442
898.583 0.773 -39.283 0.633 50.614 0.633 50.614 0.773 -39.283
923.542 0.764 -40.11 0.644 49.784 0.644 49.784 0.764 -40.11
948.5 0.754 -40.922 0.655 48.97 0.655 48.97 0.754 -40.922
973.458 0.745 -41.719 0.665 48.17 0.665 48.17 0.745 -41.719
998.417 0.736 -42.501 0.676 47.384 0.676 47.384 0.736 -42.501
1023.375 0.727 -43.269 0.685 46.613 0.685 46.613 0.727 -43.269
1048.333 0.718 -44.023 0.695 45.856 0.695 45.856 0.718 -44.023
1073.292 0.708 -44.763 0.704 45.112 0.704 45.112 0.708 -44.763
1098.25 0.699 -45.49 0.713 44.383 0.713 44.383 0.699 -45.49
1123.208 0.69 -46.203 0.722 43.666 0.722 43.666 0.69 -46.203
1148.167 0.682 -46.903 0.73 42.963 0.73 42.963 0.682 -46.903
1173.125 0.673 -47.59 0.738 42.273 0.738 42.273 0.673 -47.59
1198.083 0.664 -48.264 0.746 41.595 0.746 41.595 0.664 -48.264
1223.042 0.655 -48.927 0.754 40.93 0.754 40.93 0.655 -48.927
1248 0.646 -49.576 0.761 40.276 0.761 40.276 0.646 -49.576
1272.958 0.638 -50.214 0.768 39.635 0.768 39.635 0.638 -50.214
1297.917 0.629 -50.841 0.775 39.005 0.775 39.005 0.629 -50.841
1322.875 0.621 -51.456 0.782 38.387 0.782 38.387 0.621 -51.456
1347.833 0.613 -52.06 0.789 37.779 0.789 37.779 0.613 -52.06
1372.792 0.604 -52.653 0.795 37.183 0.795 37.183 0.604 -52.653
1397.75 0.596 -53.235 0.801 36.597 0.801 36.597 0.596 -53.235
1422.708 0.588 -53.807 0.807 36.022 0.807 36.022 0.588 -53.807
1447.667 0.58 -54.369 0.813 35.456 0.813 35.456 0.58 -54.369
1472.625 0.572 -54.921 0.818 34.901 0.818 34.901 0.572 -54.921
1497.583 0.564 -55.463 0.824 34.355 0.824 34.355 0.564 -55.463
1522.542 0.557 -55.995 0.829 33.819 0.829 33.819 0.557 -55.995
1547.5 0.549 -56.519 0.834 33.291 0.834 33.291 0.549 -56.519
1572.458 0.541 -57.033 0.839 32.773 0.839 32.773 0.541 -57.033
1597.417 0.534 -57.538 0.844 32.264 0.844 32.264 0.534 -57.538
1622.375 0.526 -58.035 0.848 31.763 0.848 31.763 0.526 -58.035
1647.333 0.519 -58.524 0.853 31.271 0.853 31.271 0.519 -58.524
1672.292 0.512 -59.004 0.857 30.787 0.857 30.787 0.512 -59.004
1697.25 0.505 -59.476 0.861 30.311 0.861 30.311 0.505 -59.476
1722.208 0.498 -59.941 0.866 29.842 0.866 29.842 0.498 -59.941
1747.167 0.491 -60.397 0.869 29.381 0.869 29.381 0.491 -60.397
1772.125 0.484 -60.846 0.873 28.928 0.873 28.928 0.484 -60.846
1797.083 0.477 -61.288 0.877 28.482 0.877 28.482 0.477 -61.288
1822.042 0.47 -61.723 0.881 28.043 0.881 28.043 0.47 -61.723
1847 0.463 -62.151 0.884 27.611 0.884 27.611 0.463 -62.151
1871.958 0.457 -62.572 0.888 27.185 0.888 27.185 0.457 -62.572
1896.917 0.45 -62.986 0.891 26.766 0.891 26.766 0.45 -62.986
1921.875 0.444 -63.394 0.894 26.354 0.894 26.354 0.444 -63.394
1946.833 0.438 -63.796 0.897 25.948 0.897 25.948 0.438 -63.796
1971.792 0.431 -64.192 0.9 25.548 0.9 25.548 0.431 -64.192
1996.75 0.425 -64.581 0.903 25.154 0.903 25.154 0.425 -64.581
2021.708 0.419 -64.964 0.906 24.765 0.906 24.765 0.419 -64.964
2046.667 0.413 -65.342 0.909 24.383 0.909 24.383 0.413 -65.342
2071.625 0.407 -65.714 0.912 24.006 0.912 24.006 0.407 -65.714
2096.583 0.401 -66.081 0.914 23.634 0.914 23.634 0.401 -66.081
2121.542 0.395 -66.442 0.917 23.268 0.917 23.268 0.395 -66.442
2146.5 0.389 -66.798 0.919 22.907 0.919 22.907 0.389 -66.798
2171.458 0.384 -67.149 0.922 22.551 0.922 22.551 0.384 -67.149
2196.417 0.378 -67.495 0.924 22.199 0.924 22.199 0.378 -67.495
2221.375 0.372 -67.836 0.926 21.853 0.926 21.853 0.372 -67.836
2246.333 0.367 -68.172 0.928 21.511 0.928 21.511 0.367 -68.172
2271.292 0.361 -68.504 0.93 21.174 0.93 21.174 0.361 -68.504
2296.25 0.356 -68.831 0.933 20.842 0.933 20.842 0.356 -68.831
2321.208 0.35 -69.153 0.935 20.514 0.935 20.514 0.35 -69.153
2346.167 0.345 -69.471 0.937 20.19 0.937 20.19 0.345 -69.471
2371.125 0.34 -69.785 0.938 19.87 0.938 19.87 0.34 -69.785
2396.083 0.335 -70.094 0.94 19.555 0.94 19.555 0.335 -70.094
2421.042 0.33 -70.4 0.942 19.243 0.942 19.243 0.33 -70.4
2446 0.325 -70.701 0.944 18.935 0.944 18.935 0.325 -70.701
2470.958 0.319 -70.999 0.946 18.632 0.946 18.632 0.319 -70.999
2495.917 0.315 -71.292 0.947 18.332 0.947 18.332 0.315 -71.292
2520.875 0.31 -71.582 0.949 18.035 0.949 18.035 0.31 -71.582
2545.833 0.305 -71.868 0.95 17.742 0.95 17.742 0.305 -71.868
2570.792 0.3 -72.15 0.952 17.453 0.952 17.453 0.3 -72.15
2595.75 0.295 -72.429 0.953 17.167 0.953 17.167 0.295 -72.429
2620.708 0.29 -72.705 0.955 16.885 0.955 16.885 0.29 -72.705
2645.667 0.286 -72.977 0.956 16.605 0.956 16.605 0.286 -72.977
2670.625 0.281 -73.245 0.958 16.329 0.958 16.329 0.281 -73.245
2695.583 0.277 -73.51 0.959 16.057 0.959 16.057 0.277 -73.51
2720.542 0.272 -73.772 0.96 15.787 0.96 15.787 0.272 -73.772
2745.5 0.268 -74.031 0.961 15.52 0.961 15.52 0.268 -74.031
2770.458 0.263 -74.287 0.963 15.256 0.963 15.256 0.263 -74.287
2795.417 0.259 -74.539 0.964 14.995 0.964 14.995 0.259 -74.539
2820.375 0.254 -74.789 0.965 14.737 0.965 14.737 0.254 -74.789
2845.333 0.25 -75.036 0.966 14.482 0.966 14.482 0.25 -75.036
2870.292 0.246 -75.279 0.967 14.229 0.967 14.229 0.246 -75.279
2895.25 0.242 -75.52 0.968 13.979 0.968 13.979 0.242 -75.52
2920.208 0.237 -75.758 0.969 13.732 0.969 13.732 0.237 -75.758
2945.167 0.233 -75.993 0.97 13.487 0.97 13.487 0.233 -75.993
2970.125 0.229 -76.226 0.971 13.245 0.971 13.245 0.229 -76.226
2995.083 0.225 -76.455 0.972 13.005 0.972 13.005 0.225 -76.455
3020.042 0.221 -76.683 0.973 12.767 0.973 12.767 0.221 -76.683
3045 0.217 -76.907 0.974 12.532 0.974 12.532 0.217 -76.907
3069.958 0.213 -77.129 0.975 12.299 0.975 12.299 0.213 -77.129
3094.917 0.209 -77.348 0.976 12.069 0.976 12.069 0.209 -77.348
3119.875 0.205 -77.565 0.977 11.841 0.977 11.841 0.205 -77.565
3144.833 0.201 -77.779 0.977 11.614 0.977 11.614 0.201 -77.779
3169.792 0.198 -77.991 0.978 11.39 0.978 11.39 0.198 -77.991
3194.75 0.194 -78.2 0.979 11.168 0.979 11.168 0.194 -78.2
3219.708 0.19 -78.407 0.98 10.949 0.98 10.949 0.19 -78.407
3244.667 0.186 -78.611 0.98 10.731 0.98 10.731 0.186 -78.611
3269.625 0.183 -78.813 0.981 10.515 0.981 10.515 0.183 -78.813
3294.583 0.179 -79.013 0.982 10.301 0.982 10.301 0.179 -79.013
3319.542 0.175 -79.21 0.982 10.089 0.982 10.089 0.175 -79.21
3344.5 0.172 -79.405 0.983 9.879 0.983 9.879 0.172 -79.405
3369.458 0.168 -79.598 0.984 9.67 0.984 9.67 0.168 -79.598
3394.417 0.164 -79.788 0.984 9.464 0.984 9.464 0.164 -79.788
3419.375 0.161 -79.976 0.985 9.259 0.985 9.259 0.161 -79.976
3444.333 0.157 -80.162 0.985 9.056 0.985 9.056 0.157 -80.162
3469.292 0.154 -80.345 0.986 8.855 0.986 8.855 0.154 -80.345
3494.25 0.151 -80.526 0.986 8.655 0.986 8.655 0.151 -80.526
3519.208 0.147 -80.704 0.987 8.457 0.987 8.457 0.147 -80.704
3544.167 0.144 -80.881 0.987 8.261 0.987 8.261 0.144 -80.881
3569.125 0.14 -81.054 0.988 8.066 0.988 8.066 0.14 -81.054
3594.083 0.137 -81.226 0.988 7.873 0.988 7.873 0.137 -81.226
3619.042 0.134 -81.395 0.989 7.681 0.989 7.681 0.134 -81.395
3644 0.13 -81.561 0.989 7.491 0.989 7.491 0.13 -81.561
3668.958 0.127 -81.725 0.99 7.302 0.99 7.302 0.127 -81.725
3693.917 0.124 -81.886 0.99 7.115 0.99 7.115 0.124 -81.886
3718.875 0.121 -82.045 0.991 6.929 0.991 6.929 0.121 -82.045
3743.833 0.117 -82.201 0.991 6.745 0.991 6.745 0.117 -82.201
3768.792 0.114 -82.355 0.991 6.562 0.991 6.562 0.114 -82.355
3793.75 0.111 -82.505 0.992 6.38 0.992 6.38 0.111 -82.505
3818.708 0.108 -82.653 0.992 6.2 0.992 6.2 0.108 -82.653
3843.667 0.105 -82.797 0.992 6.021 0.992 6.021 0.105 -82.797
3868.625 0.102 -82.939 0.993 5.843 0.993 5.843 0.102 -82.939
3893.583 0.099 -83.077 0.993 5.667 0.993 5.667 0.099 -83.077
3918.542 0.096 -83.212 0.993 5.491 0.993 5.491 0.096 -83.212
3943.5 0.093 -83.343 0.994 5.317 0.994 5.317 0.093 -83.343
3968.458 0.09 -83.471 0.994 5.145 0.994 5.145 0.09 -83.471
3993.417 0.087 -83.595 0.994 4.973 0.994 4.973 0.087 -83.595
4018.375 0.084 -83.714 0.994 4.803 0.994 4.803 0.084 -83.714
4043.333 0.081 -83.829 0.995 4.633 0.995 4.633 0.081 -83.829
4068.292 0.078 -83.939 0.995 4.465 0.995 4.465 0.078 -83.939
4093.25 0.075 -84.044 0.995 4.298 0.995 4.298 0.075 -84.044
4118.208 0.072 -84.143 0.995 4.132 0.995 4.132 0.072 -84.143
4143.167 0.069 -84.236 0.995 3.968 0.995 3.968 0.069 -84.236
4168.125 0.066 -84.322 0.996 3.804 0.996 3.804 0.066 -84.322
4193.083 0.064 -84.401 0.996 3.641 0.996 3.641 0.064 -84.401
4218.042 0.061 -84.471 0.996 3.48 0.996 3.48 0.061 -84.471
4243 0.058 -84.532 0.996 3.319 0.996 3.319 0.058 -84.532
4267.958 0.055 -84.583 0.996 3.159 0.996 3.159 0.055 -84.583
4292.917 0.052 -84.623 0.996 3.001 0.996 3.001 0.052 -84.623
4317.875 0.05 -84.648 0.997 2.843 0.997 2.843 0.05 -84.648
4342.833 0.047 -84.659 0.997 2.686 0.997 2.686 0.047 -84.659
4367.792 0.044 -84.651 0.997 2.531 0.997 2.531 0.044 -84.651
4392.75 0.042 -84.622 0.997 2.376 0.997 2.376 0.042 -84.622
4417.708 0.039 -84.568 0.997 2.222 0.997 2.222 0.039 -84.568
4442.667 0.036 -84.484 0.997 2.069 0.997 2.069 0.036 -84.484
4467.625 0.034 -84.364 0.997 1.917 0.997 1.917 0.034 -84.364
4492.583 0.031 -84.197 0.997 1.766 0.997 1.766 0.031 -84.197
4517.542 0.028 -83.973 0.997 1.615 0.997 1.615 0.028 -83.973
4542.5 0.026 -83.674 0.997 1.466 0.997 1.466 0.026 -83.674
4567.458 0.023 -83.277 0.998 1.317 0.998 1.317 0.023 -83.277
4592.417 0.021 -82.746 0.998 1.169 0.998 1.169 0.021 -82.746
4617.375 0.018 -82.026 0.998 1.022 0.998 1.022 0.018 -82.026
4642.333 0.015 -81.026 0.998 0.876 0.998 0.876 0.015 -81.026
4667.292 0.013 -79.587 0.998 0.731 0.998 0.731 0.013 -79.587
4692.25 0.01 -77.405 0.998 0.586 0.998 0.586 0.01 -77.405
4717.208 8.019e-3 -73.814 0.998 0.442 0.998 0.442 8.019e-3 -73.814
4742.167 5.656e-3 -67.078 0.998 0.299 0.998 0.299 5.656e-3 -67.078
4767.125 3.496e-3 -51.361 0.998 0.157 0.998 0.157 3.496e-3 -51.361
4792.083 2.192e-3 -6.962 0.998 0.015 0.998 0.015 2.192e-3 -6.962
4817.042 3.088e-3 45.084 0.998 -0.126 0.998 -0.126 3.088e-3 45.084
4842 5.122e-3 64.598 0.998 -0.266 0.998 -0.266 5.122e-3 64.598
4866.958 7.397e-3 72.489 0.998 -0.405 0.998 -0.405 7.397e-3 72.489
4891.917 9.736e-3 76.544 0.998 -0.544 0.998 -0.544 9.736e-3 76.544
4916.875 0.012 78.956 0.998 -0.682 0.998 -0.682 0.012 78.956
4941.833 0.014 80.527 0.998 -0.819 0.998 -0.819 0.014 80.527
4966.792 0.017 81.613 0.998 -0.956 0.998 -0.956 0.017 81.613
4991.75 0.019 82.394 0.998 -1.092 0.998 -1.092 0.019 82.394
5016.708 0.022 82.972 0.998 -1.227 0.998 -1.227 0.022 82.972
5041.667 0.024 83.408 0.998 -1.361 0.998 -1.361 0.024 83.408
5066.625 0.026 83.74 0.997 -1.495 0.997 -1.495 0.026 83.74
5091.583 0.029 83.996 0.997 -1.629 0.997 -1.629 0.029 83.996
5116.542 0.031 84.192 0.997 -1.762 0.997 -1.762 0.031 84.192
5141.5 0.033 84.341 0.997 -1.894 0.997 -1.894 0.033 84.341
5166.458 0.035 84.454 0.997 -2.025 0.997 -2.025 0.035 84.454
5191.417 0.038 84.536 0.997 -2.156 0.997 -2.156 0.038 84.536
5216.375 0.04 84.594 0.997 -2.286 0.997 -2.286 0.04 84.594
5241.333 0.042 84.632 0.997 -2.416 0.997 -2.416 0.042 84.632
5266.292 0.044 84.653 0.997 -2.545 0.997 -2.545 0.044 84.653
5291.25 0.047 84.659 0.997 -2.673 0.997 -2.673 0.047 84.659
5316.208 0.049 84.653 0.997 -2.801 0.997 -2.801 0.049 84.653
5341.167 0.051 84.636 0.997 -2.929 0.997 -2.929 0.051 84.636
5366.125 0.053 84.61 0.996 -3.056 0.996 -3.056 0.053 84.61
5391.083 0.056 84.577 0.996 -3.182 0.996 -3.182 0.056 84.577
5416.042 0.058 84.536 0.996 -3.308 0.996 -3.308 0.058 84.536
5441 0.06 84.49 0.996 -3.433 0.996 -3.433 0.06 84.49
5465.958 0.062 84.438 0.996 -3.557 0.996 -3.557 0.062 84.438
5490.917 0.064 84.382 0.996 -3.681 0.996 -3.681 0.064 84.382
5515.875 0.066 84.321 0.996 -3.805 0.996 -3.805 0.066 84.321
5540.833 0.069 84.257 0.995 -3.928 0.995 -3.928 0.069 84.257
5565.792 0.071 84.19 0.995 -4.051 0.995 -4.051 0.071 84.19
5590.75 0.073 84.119 0.995 -4.173 0.995 -4.173 0.073 84.119
5615.708 0.075 84.046 0.995 -4.294 0.995 -4.294 0.075 84.046
5640.667 0.077 83.971 0.995 -4.415 0.995 -4.415 0.077 83.971
5665.625 0.079 83.893 0.995 -4.536 0.995 -4.536 0.079 83.893
5690.583 0.081 83.814 0.995 -4.656 0.995 -4.656 0.081 83.814
5715.542 0.083 83.733 0.994 -4.776 0.994 -4.776 0.083 83.733
5740.5 0.085 83.65 0.994 -4.895 0.994 -4.895 0.085 83.65
5765.458 0.087 83.566 0.994 -5.013 0.994 -5.013 0.087 83.566
5790.417 0.089 83.48 0.994 -5.132 0.994 -5.132 0.089 83.48
5815.375 0.092 83.394 0.994 -5.249 0.994 -5.249 0.092 83.394
5840.333 0.094 83.307 0.993 -5.367 0.993 -5.367 0.094 83.307
5865.292 0.096 83.218 0.993 -5.484 0.993 -5.484 0.096 83.218
5890.25 0.098 83.129 0.993 -5.6 0.993 -5.6 0.098 83.129
5915.208 0.1 83.039 0.993 -5.716 0.993 -5.716 0.1 83.039
5940.167 0.102 82.948 0.993 -5.832 0.993 -5.832 0.102 82.948
5965.125 0.104 82.857 0.992 -5.947 0.992 -5.947 0.104 82.857
5990.083 0.106 82.765 0.992 -6.061 0.992 -6.061 0.106 82.765
6015.042 0.108 82.672 0.992 -6.176 0.992 -6.176 0.108 82.672
6040 0.11 82.58 0.992 -6.289 0.992 -6.289 0.11 82.58
6064.958 0.112 82.486 0.992 -6.403 0.992 -6.403 0.112 82.486
6089.917 0.113 82.393 0.991 -6.516 0.991 -6.516 0.113 82.393
6114.875 0.115 82.299 0.991 -6.629 0.991 -6.629 0.115 82.299
6139.833 0.117 82.205 0.991 -6.741 0.991 -6.741 0.117 82.205
6164.792 0.119 82.11 0.991 -6.853 0.991 -6.853 0.119 82.11
6189.75 0.121 82.016 0.99 -6.964 0.99 -6.964 0.121 82.016
6214.708 0.123 81.921 0.99 -7.075 0.99 -7.075 0.123 81.921
6239.667 0.125 81.826 0.99 -7.186 0.99 -7.186 0.125 81.826
6264.625 0.127 81.73 0.99 -7.296 0.99 -7.296 0.127 81.73
6289.583 0.129 81.635 0.99 -7.406 0.99 -7.406 0.129 81.635
6314.542 0.131 81.54 0.989 -7.515 0.989 -7.515 0.131 81.54
6339.5 0.133 81.444 0.989 -7.625 0.989 -7.625 0.133 81.444
6364.458 0.135 81.349 0.989 -7.733 0.989 -7.733 0.135 81.349
6389.417 0.136 81.253 0.988 -7.842 0.988 -7.842 0.136 81.253
6414.375 0.138 81.158 0.988 -7.95 0.988 -7.95 0.138 81.158
6439.333 0.14 81.062 0.988 -8.058 0.988 -8.058 0.14 81.062
6464.292 0.142 80.966 0.988 -8.165 0.988 -8.165 0.142 80.966
6489.25 0.144 80.871 0.987 -8.272 0.987 -8.272 0.144 80.871
6514.208 0.146 80.775 0.987 -8.378 0.987 -8.378 0.146 80.775
6539.167 0.148 80.68 0.987 -8.485 0.987 -8.485 0.148 80.68
6564.125 0.149 80.584 0.987 -8.591 0.987 -8.591 0.149 80.584
6589.083 0.151 80.489 0.986 -8.696 0.986 -8.696 0.151 80.489
6614.042 0.153 80.393 0.986 -8.802 0.986 -8.802 0.153 80.393
6639 0.155 80.298 0.986 -8.907 0.986 -8.907 0.155 80.298
6663.958 0.157 80.203 0.986 -9.011 0.986 -9.011 0.157 80.203
6688.917 0.158 80.108 0.985 -9.116 0.985 -9.116 0.158 80.108
6713.875 0.16 80.013 0.985 -9.22 0.985 -9.22 0.16 80.013
6738.833 0.162 79.918 0.985 -9.323 0.985 -9.323 0.162 79.918
6763.792 0.164 79.823 0.984 -9.426 0.984 -9.426 0.164 79.823
6788.75 0.166 79.728 0.984 -9.53 0.984 -9.53 0.166 79.728
6813.708 0.167 79.633 0.984 -9.632 0.984 -9.632 0.167 79.633
6838.667 0.169 79.539 0.983 -9.735 0.983 -9.735 0.169 79.539
6863.625 0.171 79.444 0.983 -9.837 0.983 -9.837 0.171 79.444
6888.583 0.173 79.35 0.983 -9.938 0.983 -9.938 0.173 79.35
6913.542 0.174 79.256 0.983 -10.04 0.983 -10.04 0.174 79.256
6938.5 0.176 79.162 0.982 -10.141 0.982 -10.141 0.176 79.162
6963.458 0.178 79.068 0.982 -10.242 0.982 -10.242 0.178 79.068
6988.417 0.18 78.974 0.982 -10.343 0.982 -10.343 0.18 78.974
7013.375 0.181 78.881 0.981 -10.443 0.981 -10.443 0.181 78.881
7038.333 0.183 78.787 0.981 -10.543 0.981 -10.543 0.183 78.787
7063.292 0.185 78.694 0.981 -10.643 0.981 -10.643 0.185 78.694
7088.25 0.186 78.601 0.98 -10.742 0.98 -10.742 0.186 78.601
7113.208 0.188 78.508 0.98 -10.841 0.98 -10.841 0.188 78.508
7138.167 0.19 78.415 0.98 -10.94 0.98 -10.94 0.19 78.415
7163.125 0.191 78.323 0.979 -11.038 0.979 -11.038 0.191 78.323
7188.083 0.193 78.23 0.979 -11.137 0.979 -11.137 0.193 78.23
7213.042 0.195 78.138 0.979 -11.235 0.979 -11.235 0.195 78.138
7238 0.197 78.045 0.978 -11.332 0.978 -11.332 0.197 78.045
7262.958 0.198 77.953 0.978 -11.43 0.978 -11.43 0.198 77.953
7287.917 0.2 77.862 0.978 -11.527 0.978 -11.527 0.2 77.862
7312.875 0.202 77.77 0.977 -11.624 0.977 -11.624 0.202 77.77
7337.833 0.203 77.678 0.977 -11.721 0.977 -11.721 0.203 77.678
7362.792 0.205 77.587 0.977 -11.817 0.977 -11.817 0.205 77.587
7387.75 0.206 77.496 0.976 -11.913 0.976 -11.913 0.206 77.496
7412.708 0.208 77.405 0.976 -12.009 0.976 -12.009 0.208 77.405
7437.667 0.21 77.314 0.976 -12.105 0.976 -12.105 0.21 77.314
7462.625 0.211 77.223 0.975 -12.2 0.975 -12.2 0.211 77.223
7487.583 0.213 77.133 0.975 -12.295 0.975 -12.295 0.213 77.133
7512.542 0.215 77.042 0.975 -12.39 0.975 -12.39 0.215 77.042
7537.5 0.216 76.952 0.974 -12.485 0.974 -12.485 0.216 76.952
7562.458 0.218 76.862 0.974 -12.579 0.974 -12.579 0.218 76.862
7587.417 0.219 76.772 0.974 -12.673 0.974 -12.673 0.219 76.772
7612.375 0.221 76.683 0.973 -12.767 0.973 -12.767 0.221 76.683
7637.333 0.223 76.593 0.973 -12.861 0.973 -12.861 0.223 76.593
7662.292 0.224 76.504 0.972 -12.954 0.972 -12.954 0.224 76.504
7687.25 0.226 76.415 0.972 -13.047 0.972 -13.047 0.226 76.415
7712.208 0.227 76.326 0.972 -13.14 0.972 -13.14 0.227 76.326
7737.167 0.229 76.237 0.971 -13.233 0.971 -13.233 0.229 76.237
7762.125 0.23 76.149 0.971 -13.325 0.971 -13.325 0.23 76.149
7787.083 0.232 76.06 0.971 -13.417 0.971 -13.417 0.232 76.06
7812.042 0.234 75.972 0.97 -13.509 0.97 -13.509 0.234 75.972
7837 0.235 75.884 0.97 -13.601 0.97 -13.601 0.235 75.884
7861.958 0.237 75.796 0.969 -13.692 0.969 -13.692 0.237 75.796
7886.917 0.238 75.708 0.969 -13.784 0.969 -13.784 0.238 75.708
7911.875 0.24 75.621 0.969 -13.875 0.969 -13.875 0.24 75.621
7936.833 0.241 75.533 0.968 -13.966 0.968 -13.966 0.241 75.533
7961.792 0.243 75.446 0.968 -14.056 0.968 -14.056 0.243 75.446
7986.75 0.244 75.359 0.968 -14.147 0.968 -14.147 0.244 75.359
8011.708 0.246 75.272 0.967 -14.237 0.967 -14.237 0.246 75.272
8036.667 0.247 75.185 0.967 -14.327 0.967 -14.327 0.247 75.185
8061.625 0.249 75.099 0.966 -14.416 0.966 -14.416 0.249 75.099
8086.583 0.25 75.012 0.966 -14.506 0.966 -14.506 0.25 75.012
8111.542 0.252 74.926 0.966 -14.595 0.966 -14.595 0.252 74.926
8136.5 0.253 74.84 0.965 -14.684 0.965 -14.684 0.253 74.84
8161.458 0.255 74.754 0.965 -14.773 0.965 -14.773 0.255 74.754
8186.417 0.256 74.669 0.964 -14.862 0.964 -14.862 0.256 74.669
8211.375 0.258 74.583 0.964 -14.95 0.964 -14.95 0.258 74.583
8236.333 0.259 74.498 0.964 -15.038 0.964 -15.038 0.259 74.498
8261.292 0.261 74.413 0.963 -15.126 0.963 -15.126 0.261 74.413
8286.25 0.262 74.328 0.963 -15.214 0.963 -15.214 0.262 74.328
8311.208 0.264 74.243 0.962 -15.302 0.962 -15.302 0.264 74.243
8336.167 0.265 74.158 0.962 -15.389 0.962 -15.389 0.265 74.158
8361.125 0.267 74.074 0.962 -15.476 0.962 -15.476 0.267 74.074
8386.083 0.268 73.989 0.961 -15.563 0.961 -15.563 0.268 73.989
8411.042 0.27 73.905 0.961 -15.65 0.961 -15.65 0.27 73.905
8436 0.271 73.821 0.96 -15.737 0.96 -15.737 0.271 73.821
8460.958 0.273 73.737 0.96 -15.823 0.96 -15.823 0.273 73.737
8485.917 0.274 73.653 0.96 -15.909 0.96 -15.909 0.274 73.653
8510.875 0.276 73.57 0.959 -15.995 0.959 -15.995 0.276 73.57
8535.833 0.277 73.487 0.959 -16.081 0.959 -16.081 0.277 73.487
8560.792 0.278 73.403 0.958 -16.167 0.958 -16.167 0.278 73.403
8585.75 0.28 73.32 0.958 -16.252 0.958 -16.252 0.28 73.32
8610.708 0.281 73.238 0.958 -16.337 0.958 -16.337 0.281 73.238
8635.667 0.283 73.155 0.957 -16.422 0.957 -16.422 0.283 73.155
8660.625 0.284 73.072 0.957 -16.507 0.957 -16.507 0.284 73.072
8685.583 0.286 72.99 0.956 -16.592 0.956 -16.592 0.286 72.99
8710.542 0.287 72.908 0.956 -16.676 0.956 -16.676 0.287 72.908
8735.5 0.288 72.826 0.955 -16.76 0.955 -16.76 0.288 72.826
8760.458 0.29 72.744 0.955 -16.845 0.955 -16.845 0.29 72.744
8785.417 0.291 72.662 0.955 -16.928 0.955 -16.928 0.291 72.662
8810.375 0.293 72.58 0.954 -17.012 0.954 -17.012 0.293 72.58
8835.333 0.294 72.499 0.954 -17.096 0.954 -17.096 0.294 72.499
8860.292 0.295 72.418 0.953 -17.179 0.953 -17.179 0.295 72.418
8885.25 0.297 72.337 0.953 -17.262 0.953 -17.262 0.297 72.337
8910.208 0.298 72.256 0.952 -17.345 0.952 -17.345 0.298 72.256
8935.167 0.3 72.175 0.952 -17.428 0.952 -17.428 0.3 72.175
8960.125 0.301 72.094 0.952 -17.511 0.952 -17.511 0.301 72.094
8985.083 0.302 72.014 0.951 -17.593 0.951 -17.593 0.302 72.014
9010.042 0.304 71.933 0.951 -17.675 0.951 -17.675 0.304 71.933
9035 0.305 71.853 0.95 -17.757 0.95 -17.757 0.305 71.853
9059.958 0.306 71.773 0.95 -17.839 0.95 -17.839 0.306 71.773
9084.917 0.308 71.693 0.949 -17.921 0.949 -17.921 0.308 71.693
9109.875 0.309 71.614 0.949 -18.003 0.949 -18.003 0.309 71.614
9134.833 0.31 71.534 0.949 -18.084 0.949 -18.084 0.31 71.534
9159.792 0.312 71.455 0.948 -18.165 0.948 -18.165 0.312 71.455
9184.75 0.313 71.375 0.948 -18.246 0.948 -18.246 0.313 71.375
9209.708 0.314 71.296 0.947 -18.327 0.947 -18.327 0.314 71.296
9234.667 0.316 71.217 0.947 -18.408 0.947 -18.408 0.316 71.217
9259.625 0.317 71.139 0.946 -18.489 0.946 -18.489 0.317 71.139
9284.583 0.318 71.06 0.946 -18.569 0.946 -18.569 0.318 71.06
9309.542 0.32 70.981 0.945 -18.649 0.945 -18.649 0.32 70.981
9334.5 0.321 70.903 0.945 -18.729 0.945 -18.729 0.321 70.903
9359.458 0.322 70.825 0.945 -18.809 0.945 -18.809 0.322 70.825
9384.417 0.324 70.747 0.944 -18.889 0.944 -18.889 0.324 70.747
9409.375 0.325 70.669 0.944 -18.969 0.944 -18.969 0.325 70.669
9434.333 0.326 70.591 0.943 -19.048 0.943 -19.048 0.326 70.591
9459.292 0.328 70.513 0.943 -19.127 0.943 -19.127 0.328 70.513
9484.25 0.329 70.436 0.942 -19.206 0.942 -19.206 0.329 70.436
9509.208 0.33 70.359 0.942 -19.285 0.942 -19.285 0.33 70.359
9534.167 0.332 70.281 0.941 -19.364 0.941 -19.364 0.332 70.281
9559.125 0.333 70.204 0.941 -19.443 0.941 -19.443 0.333 70.204
9584.083 0.334 70.127 0.94 -19.521 0.94 -19.521 0.334 70.127
9609.042 0.335 70.051 0.94 -19.599 0.94 -19.599 0.335 70.051
9634 0.337 69.974 0.94 -19.677 0.94 -19.677 0.337 69.974
9658.958 0.338 69.897 0.939 -19.755 0.939 -19.755 0.338 69.897
9683.917 0.339 69.821 0.939 -19.833 0.939 -19.833 0.339 69.821
9708.875 0.341 69.745 0.938 -19.911 0.938 -19.911 0.341 69.745
9733.833 0.342 69.669 0.938 -19.988 0.938 -19.988 0.342 69.669
9758.792 0.343 69.593 0.937 -20.066 0.937 -20.066 0.343 69.593
9783.75 0.344 69.517 0.937 -20.143 0.937 -20.143 0.344 69.517
9808.708 0.346 69.442 0.936 -20.22 0.936 -20.22 0.346 69.442
9833.667 0.347 69.366 0.936 -20.297 0.936 -20.297 0.347 69.366
9858.625 0.348 69.291 0.935 -20.374 0.935 -20.374 0.348 69.291
9883.583 0.349 69.215 0.935 -20.45 0.935 -20.45 0.349 69.215
9908.542 0.351 69.14 0.934 -20.527 0.934 -20.527 0.351 69.14
9933.5 0.352 69.065 0.934 -20.603 0.934 -20.603 0.352 69.065
9958.458 0.353 68.991 0.934 -20.679 0.934 -20.679 0.353 68.991
9983.417 0.354 68.916 0.933 -20.755 0.933 -20.755 0.354 68.916
10008.375 0.356 68.841 0.933 -20.831 0.933 -20.831 0.356 68.841
10033.333 0.357 68.767 0.932 -20.907 0.932 -20.907 0.357 68.767
10058.292 0.358 68.693 0.932 -20.982 0.932 -20.982 0.358 68.693
10083.25 0.359 68.618 0.931 -21.058 0.931 -21.058 0.359 68.618
10108.208 0.361 68.544 0.931 -21.133 0.931 -21.133 0.361 68.544
10133.167 0.362 68.471 0.93 -21.208 0.93 -21.208 0.362 68.471
10158.125 0.363 68.397 0.93 -21.283 0.93 -21.283 0.363 68.397
10183.083 0.364 68.323 0.929 -21.358 0.929 -21.358 0.364 68.323
10208.042 0.365 68.25 0.929 -21.433 0.929 -21.433 0.365 68.25
10233 0.367 68.176 0.928 -21.507 0.928 -21.507 0.367 68.176
10257.958 0.368 68.103 0.928 -21.582 0.928 -21.582 0.368 68.103
10282.917 0.369 68.03 0.927 -21.656 0.927 -21.656 0.369 68.03
10307.875 0.37 67.957 0.927 -21.73 0.927 -21.73 0.37 67.957
10332.833 0.371 67.884 0.926 -21.804 0.926 -21.804 0.371 67.884
10357.792 0.373 67.812 0.926 -21.878 0.926 -21.878 0.373 67.812
10382.75 0.374 67.739 0.925 -21.952 0.925 -21.952 0.374 67.739
10407.708 0.375 67.667 0.925 -22.025 0.925 -22.025 0.375 67.667
10432.667 0.376 67.594 0.925 -22.099 0.925 -22.099 0.376 67.594
10457.625 0.377 67.522 0.924 -22.172 0.924 -22.172 0.377 67.522
10482.583 0.379 67.45 0.924 -22.245 0.924 -22.245 0.379 67.45
10507.542 0.38 67.378 0.923 -22.318 0.923 -22.318 0.38 67.378
10532.5 0.381 67.306 0.923 -22.391 0.923 -22.391 0.381 67.306
10557.458 0.382 67.235 0.922 -22.464 0.922 -22.464 0.382 67.235
10582.417 0.383 67.163 0.922 -22.536 0.922 -22.536 0.383 67.163
10607.375 0.384 67.092 0.921 -22.609 0.921 -22.609 0.384 67.092
10632.333 0.386 67.021 0.921 -22.681 0.921 -22.681 0.386 67.021
10657.292 0.387 66.949 0.92 -22.753 0.92 -22.753 0.387 66.949
10682.25 0.388 66.878 0.92 -22.825 0.92 -22.825 0.388 66.878
10707.208 0.389 66.807 0.919 -22.897 0.919 -22.897 0.389 66.807
10732.167 0.39 66.737 0.919 -22.969 0.919 -22.969 0.39 66.737
10757.125 0.391 66.666 0.918 -23.041 0.918 -23.041 0.391 66.666
10782.083 0.393 66.595 0.918 -23.112 0.918 -23.112 0.393 66.595
10807.042 0.394 66.525 0.917 -23.184 0.917 -23.184 0.394 66.525
10832 0.395 66.455 0.917 -23.255 0.917 -23.255 0.395 66.455
10856.958 0.396 66.385 0.916 -23.326 0.916 -23.326 0.396 66.385
10881.917 0.397 66.315 0.916 -23.397 0.916 -23.397 0.397 66.315
10906.875 0.398 66.245 0.915 -23.468 0.915 -23.468 0.398 66.245
10931.833 0.399 66.175 0.915 -23.539 0.915 -23.539 0.399 66.175
10956.792 0.401 66.105 0.914 -23.61 0.914 -23.61 0.401 66.105
10981.75 0.402 66.036 0.914 -23.68 0.914 -23.68 0.402 66.036
11006.708 0.403 65.966 0.913 -23.751 0.913 -23.751 0.403 65.966
11031.667 0.404 65.897 0.913 -23.821 0.913 -23.821 0.404 65.897
11056.625 0.405 65.828 0.912 -23.891 0.912 -23.891 0.405 65.828
11081.583 0.406 65.758 0.912 -23.961 0.912 -23.961 0.406 65.758
11106.542 0.407 65.689 0.911 -24.031 0.911 -24.031 0.407 65.689
11131.5 0.408 65.621 0.911 -24.101 0.911 -24.101 0.408 65.621
11156.458 0.409 65.552 0.91 -24.17 0.91 -24.17 0.409 65.552
11181.417 0.411 65.483 0.91 -24.24 0.91 -24.24 0.411 65.483
11206.375 0.412 65.415 0.909 -24.309 0.909 -24.309 0.412 65.415
11231.333 0.413 65.346 0.909 -24.378 0.909 -24.378 0.413 65.346
11256.292 0.414 65.278 0.908 -24.448 0.908 -24.448 0.414 65.278
11281.25 0.415 65.21 0.908 -24.517 0.908 -24.517 0.415 65.21
11306.208 0.416 65.142 0.907 -24.586 0.907 -24.586 0.416 65.142
11331.167 0.417 65.074 0.907 -24.654 0.907 -24.654 0.417 65.074
11356.125 0.418 65.006 0.906 -24.723 0.906 -24.723 0.418 65.006
11381.083 0.419 64.939 0.906 -24.792 0.906 -24.792 0.419 64.939
11406.042 0.42 64.871 0.905 -24.86 0.905 -24.86 0.42 64.871
11431 0.421 64.804 0.905 -24.928 0.905 -24.928 0.421 64.804
11455.958 0.423 64.736 0.904 -24.996 0.904 -24.996 0.423 64.736
11480.917 0.424 64.669 0.904 -25.064 0.904 -25.064 0.424 64.669
11505.875 0.425 64.602 0.903 -25.132 0.903 -25.132 0.425 64.602
11530.833 0.426 64.535 0.903 -25.2 0.903 -25.2 0.426 64.535
11555.792 0.427 64.468 0.902 -25.268 0.902 -25.268 0.427 64.468
11580.75 0.428 64.401 0.902 -25.335 0.902 -25.335 0.428 64.401
11605.708 0.429 64.335 0.901 -25.403 0.901 -25.403 0.429 64.335
11630.667 0.43 64.268 0.901 -25.47 0.901 -25.47 0.43 64.268
11655.625 0.431 64.202 0.9 -25.537 0.9 -25.537 0.431 64.202
11680.583 0.432 64.135 0.9 -25.605 0.9 -25.605 0.432 64.135
11705.542 0.433 64.069 0.899 -25.672 0.899 -25.672 0.433 64.069
11730.5 0.434 64.003 0.899 -25.738 0.899 -25.738 0.434 64.003
11755.458 0.435 63.937 0.898 -25.805 0.898 -25.805 0.435 63.937
11780.417 0.436 63.871 0.898 -25.872 0.898 -25.872 0.436 63.871
11805.375 0.437 63.805 0.897 -25.938 0.897 -25.938 0.437 63.805
11830.333 0.438 63.74 0.897 -26.005 0.897 -26.005 0.438 63.74
11855.292 0.439 63.674 0.896 -26.071 0.896 -26.071 0.439 63.674
11880.25 0.441 63.609 0.896 -26.137 0.896 -26.137 0.441 63.609
11905.208 0.442 63.543 0.895 -26.203 0.895 -26.203 0.442 63.543
11930.167 0.443 63.478 0.895 -26.269 0.895 -26.269 0.443 63.478
11955.125 0.444 63.413 0.894 -26.335 0.894 -26.335 0.444 63.413
11980.083 0.445 63.348 0.894 -26.401 0.894 -26.401 0.445 63.348
12005.042 0.446 63.283 0.893 -26.467 0.893 -26.467 0.446 63.283
12030 0.447 63.218 0.893 -26.532 0.893 -26.532 0.447 63.218
12054.958 0.448 63.154 0.892 -26.597 0.892 -26.597 0.448 63.154
12079.917 0.449 63.089 0.892 -26.663 0.892 -26.663 0.449 63.089
12104.875 0.45 63.025 0.891 -26.728 0.891 -26.728 0.45 63.025
12129.833 0.451 62.96 0.891 -26.793 0.891 -26.793 0.451 62.96
12154.792 0.452 62.896 0.89 -26.858 0.89 -26.858 0.452 62.896
12179.75 0.453 62.832 0.89 -26.923 0.89 -26.923 0.453 62.832
12204.708 0.454 62.768 0.889 -26.987 0.889 -26.987 0.454 62.768
12229.667 0.455 62.704 0.889 -27.052 0.889 -27.052 0.455 62.704
12254.625 0.456 62.64 0.888 -27.117 0.888 -27.117 0.456 62.64
12279.583 0.457 62.576 0.888 -27.181 0.888 -27.181 0.457 62.576
12304.542 0.458 62.513 0.887 -27.245 0.887 -27.245 0.458 62.513
12329.5 0.459 62.449 0.887 -27.309 0.887 -27.309 0.459 62.449
12354.458 0.46 62.386 0.886 -27.374 0.886 -27.374 0.46 62.386
12379.417 0.461 62.322 0.886 -27.438 0.886 -27.438 0.461 62.322
12404.375 0.462 62.259 0.885 -27.501 0.885 -27.501 0.462 62.259
12429.333 0.463 62.196 0.885 -27.565 0.885 -27.565 0.463 62.196
12454.292 0.464 62.133 0.884 -27.629 0.884 -27.629 0.464 62.133
12479.25 0.465 62.07 0.884 -27.692 0.884 -27.692 0.465 62.07
12504.208 0.466 62.007 0.883 -27.756 0.883 -27.756 0.466 62.007
12529.167 0.467 61.945 0.883 -27.819 0.883 -27.819 0.467 61.945
12554.125 0.468 61.882 0.882 -27.882 0.882 -27.882 0.468 61.882
12579.083 0.469 61.82 0.881 -27.945 0.881 -27.945 0.469 61.82
12604.042 0.47 61.757 0.881 -28.008 0.881 -28.008 0.47 61.757
12629 0.471 61.695 0.88 -28.071 0.88 -28.071 0.471 61.695
12653.958 0.472 61.633 0.88 -28.134 0.88 -28.134 0.472 61.633
12678.917 0.473 61.571 0.879 -28.197 0.879 -28.197 0.473 61.571
12703.875 0.473 61.509 0.879 -28.259 0.879 -28.259 0.473 61.509
12728.833 0.474 61.447 0.878 -28.322 0.878 -28.322 0.474 61.447
12753.792 0.475 61.385 0.878 -28.384 0.878 -28.384 0.475 61.385
12778.75 0.476 61.323 0.877 -28.447 0.877 -28.447 0.476 61.323
12803.708 0.477 61.262 0.877 -28.509 0.877 -28.509 0.477 61.262
12828.667 0.478 61.2 0.876 -28.571 0.876 -28.571 0.478 61.2
12853.625 0.479 61.139 0.876 -28.633 0.876 -28.633 0.479 61.139
12878.583 0.48 61.078 0.875 -28.695 0.875 -28.695 0.48 61.078
12903.542 0.481 61.016 0.875 -28.756 0.875 -28.756 0.481 61.016
12928.5 0.482 60.955 0.874 -28.818 0.874 -28.818 0.482 60.955
12953.458 0.483 60.894 0.874 -28.88 0.874 -28.88 0.483 60.894
12978.417 0.484 60.833 0.873 -28.941 0.873 -28.941 0.484 60.833
13003.375 0.485 60.773 0.873 -29.002 0.873 -29.002 0.485 60.773
13028.333 0.486 60.712 0.872 -29.064 0.872 -29.064 0.486 60.712
13053.292 0.487 60.651 0.872 -29.125 0.872 -29.125 0.487 60.651
13078.25 0.488 60.591 0.871 -29.186 0.871 -29.186 0.488 60.591
13103.208 0.489 60.53 0.871 -29.247 0.871 -29.247 0.489 60.53
13128.167 0.49 60.47 0.87 -29.308 0.87 -29.308 0.49 60.47
13153.125 0.49 60.41 0.87 -29.369 0.87 -29.369 0.49 60.41
13178.083 0.491 60.35 0.869 -29.429 0.869 -29.429 0.491 60.35
13203.042 0.492 60.29 0.869 -29.49 0.869 -29.49 0.492 60.29
13228 0.493 60.23 0.868 -29.55 0.868 -29.55 0.493 60.23
13252.958 0.494 60.17 0.868 -29.611 0.868 -29.611 0.494 60.17
13277.917 0.495 60.11 0.867 -29.671 0.867 -29.671 0.495 60.11
13302.875 0.496 60.051 0.866 -29.731 0.866 -29.731 0.496 60.051
13327.833 0.497 59.991 0.866 -29.791 0.866 -29.791 0.497 59.991
13352.792 0.498 59.932 0.865 -29.851 0.865 -29.851 0.498 59.932
13377.75 0.499 59.872 0.865 -29.911 0.865 -29.911 0.499 59.872
13402.708 0.5 59.813 0.864 -29.971 0.864 -29.971 0.5 59.813
13427.667 0.5 59.754 0.864 -30.03 0.864 -30.03 0.5 59.754
13452.625 0.501 59.695 0.863 -30.09 0.863 -30.09 0.501 59.695
13477.583 0.502 59.636 0.863 -30.149 0.863 -30.149 0.502 59.636
13502.542 0.503 59.577 0.862 -30.209 0.862 -30.209 0.503 59.577
13527.5 0.504 59.518 0.862 -30.268 0.862 -30.268 0.504 59.518
13552.458 0.505 59.46 0.861 -30.327 0.861 -30.327 0.505 59.46
13577.417 0.506 59.401 0.861 -30.386 0.861 -30.386 0.506 59.401
13602.375 0.507 59.342 0.86 -30.445 0.86 -30.445 0.507 59.342
13627.333 0.508 59.284 0.86 -30.504 0.86 -30.504 0.508 59.284
13652.292 0.508 59.226 0.859 -30.563 0.859 -30.563 0.508 59.226
13677.25 0.509 59.168 0.859 -30.622 0.859 -30.622 0.509 59.168
13702.208 0.51 59.109 0.858 -30.68 0.858 -30.68 0.51 59.109
13727.167 0.511 59.051 0.858 -30.739 0.858 -30.739 0.511 59.051
13752.125 0.512 58.993 0.857 -30.797 0.857 -30.797 0.512 58.993
13777.083 0.513 58.936 0.857 -30.856 0.857 -30.856 0.513 58.936
13802.042 0.514 58.878 0.856 -30.914 0.856 -30.914 0.514 58.878
13827 0.515 58.82 0.856 -30.972 0.856 -30.972 0.515 58.82
13851.958 0.515 58.762 0.855 -31.03 0.855 -31.03 0.515 58.762
13876.917 0.516 58.705 0.855 -31.088 0.855 -31.088 0.516 58.705
13901.875 0.517 58.648 0.854 -31.146 0.854 -31.146 0.517 58.648
13926.833 0.518 58.59 0.853 -31.204 0.853 -31.204 0.518 58.59
13951.792 0.519 58.533 0.853 -31.262 0.853 -31.262 0.519 58.533
13976.75 0.52 58.476 0.852 -31.319 0.852 -31.319 0.52 58.476
14001.708 0.521 58.419 0.852 -31.377 0.852 -31.377 0.521 58.419
14026.667 0.522 58.362 0.851 -31.434 0.851 -31.434 0.522 58.362
14051.625 0.522 58.305 0.851 -31.491 0.851 -31.491 0.522 58.305
14076.583 0.523 58.248 0.85 -31.549 0.85 -31.549 0.523 58.248
14101.542 0.524 58.192 0.85 -31.606 0.85 -31.606 0.524 58.192
14126.5 0.525 58.135 0.849 -31.663 0.849 -31.663 0.525 58.135
14151.458 0.526 58.078 0.849 -31.72 0.849 -31.72 0.526 58.078
14176.417 0.527 58.022 0.848 -31.777 0.848 -31.777 0.527 58.022
14201.375 0.527 57.966 0.848 -31.833 0.848 -31.833 0.527 57.966
14226.333 0.528 57.909 0.847 -31.89 0.847 -31.89 0.528 57.909
14251.292 0.529 57.853 0.847 -31.947 0.847 -31.947 0.529 57.853
14276.25 0.53 57.797 0.846 -32.003 0.846 -32.003 0.53 57.797
14301.208 0.531 57.741 0.846 -32.06 0.846 -32.06 0.531 57.741
14326.167 0.532 57.685 0.845 -32.116 0.845 -32.116 0.532 57.685
14351.125 0.532 57.63 0.845 -32.172 0.845 -32.172 0.532 57.63
14376.083 0.533 57.574 0.844 -32.228 0.844 -32.228 0.533 57.574
14401.042 0.534 57.518 0.844 -32.284 0.844 -32.284 0.534 57.518
14426 0.535 57.463 0.843 -32.34 0.843 -32.34 0.535 57.463
14450.958 0.536 57.407 0.843 -32.396 0.843 -32.396 0.536 57.407
14475.917 0.537 57.352 0.842 -32.452 0.842 -32.452 0.537 57.352
14500.875 0.537 57.297 0.841 -32.508 0.841 -32.508 0.537 57.297
14525.833 0.538 57.241 0.841 -32.563 0.841 -32.563 0.538 57.241
14550.792 0.539 57.186 0.84 -32.619 0.84 -32.619 0.539 57.186
14575.75 0.54 57.131 0.84 -32.674 0.84 -32.674 0.54 57.131
14600.708 0.541 57.076 0.839 -32.73 0.839 -32.73 0.541 57.076
14625.667 0.541 57.021 0.839 -32.785 0.839 -32.785 0.541 57.021
14650.625 0.542 56.967 0.838 -32.84 0.838 -32.84 0.542 56.967
14675.583 0.543 56.912 0.838 -32.895 0.838 -32.895 0.543 56.912
14700.542 0.544 56.857 0.837 -32.95 0.837 -32.95 0.544 56.857
14725.5 0.545 56.803 0.837 -33.005 0.837 -33.005 0.545 56.803
14750.458 0.546 56.748 0.836 -33.06 0.836 -33.06 0.546 56.748
14775.417 0.546 56.694 0.836 -33.115 0.836 -33.115 0.546 56.694
14800.375 0.547 56.64 0.835 -33.17 0.835 -33.17 0.547 56.64
14825.333 0.548 56.586 0.835 -33.224 0.835 -33.224 0.548 56.586
14850.292 0.549 56.531 0.834 -33.279 0.834 -33.279 0.549 56.531
14875.25 0.55 56.477 0.834 -33.333 0.834 -33.333 0.55 56.477
14900.208 0.55 56.423 0.833 -33.387 0.833 -33.387 0.55 56.423
14925.167 0.551 56.37 0.833 -33.442 0.833 -33.442 0.551 56.37
14950.125 0.552 56.316 0.832 -33.496 0.832 -33.496 0.552 56.316
14975.083 0.553 56.262 0.832 -33.55 0.832 -33.55 0.553 56.262
15000.042 0.553 56.209 0.831 -33.604 0.831 -33.604 0.553 56.209
15025 0.554 56.155 0.831 -33.658 0.831 -33.658 0.554 56.155
15049.958 0.555 56.102 0.83 -33.712 0.83 -33.712 0.555 56.102
15074.917 0.556 56.048 0.83 -33.765 0.83 -33.765 0.556 56.048
15099.875 0.557 55.995 0.829 -33.819 0.829 -33.819 0.557 55.995
15124.833 0.557 55.942 0.828 -33.873 0.828 -33.873 0.557 55.942
15149.792 0.558 55.889 0.828 -33.926 0.828 -33.926 0.558 55.889
15174.75 0.559 55.836 0.827 -33.979 0.827 -33.979 0.559 55.836
15199.708 0.56 55.783 0.827 -34.033 0.827 -34.033 0.56 55.783
15224.667 0.56 55.73 0.826 -34.086 0.826 -34.086 0.56 55.73
15249.625 0.561 55.677 0.826 -34.139 0.826 -34.139 0.561 55.677
15274.583 0.562 55.624 0.825 -34.192 0.825 -34.192 0.562 55.624
15299.542 0.563 55.572 0.825 -34.245 0.825 -34.245 0.563 55.572
15324.5 0.564 55.519 0.824 -34.298 0.824 -34.298 0.564 55.519
15349.458 0.564 55.467 0.824 -34.351 0.824 -34.351 0.564 55.467
15374.417 0.565 55.414 0.823 -34.404 0.823 -34.404 0.565 55.414
15399.375 0.566 55.362 0.823 -34.456 0.823 -34.456 0.566 55.362
15424.333 0.567 55.31 0.822 -34.509 0.822 -34.509 0.567 55.31
15449.292 0.567 55.258 0.822 -34.561 0.822 -34.561 0.567 55.258
15474.25 0.568 55.206 0.821 -34.614 0.821 -34.614 0.568 55.206
15499.208 0.569 55.154 0.821 -34.666 0.821 -34.666 0.569 55.154
15524.167 0.57 55.102 0.82 -34.718 0.82 -34.718 0.57 55.102
15549.125 0.57 55.05 0.82 -34.771 0.82 -34.771 0.57 55.05
15574.083 0.571 54.998 0.819 -34.823 0.819 -34.823 0.571 54.998
15599.042 0.572 54.946 0.819 -34.875 0.819 -34.875 0.572 54.946
15624 0.573 54.895 0.818 -34.927 0.818 -34.927 0.573 54.895
15648.958 0.573 54.843 0.818 -34.979 0.818 -34.979 0.573 54.843
15673.917 0.574 54.792 0.817 -35.03 0.817 -35.03 0.574 54.792
15698.875 0.575 54.74 0.817 -35.082 0.817 -35.082 0.575 54.74
15723.833 0.575 54.689 0.816 -35.134 0.816 -35.134 0.575 54.689
15748.792 0.576 54.638 0.816 -35.185 0.816 -35.185 0.576 54.638
15773.75 0.577 54.587 0.815 -35.237 0.815 -35.237 0.577 54.587
15798.708 0.578 54.536 0.814 -35.288 0.814 -35.288 0.578 54.536
15823.667 0.578 54.485 0.814 -35.339 0.814 -35.339 0.578 54.485
15848.625 0.579 54.434 0.813 -35.391 0.813 -35.391 0.579 54.434
15873.583 0.58 54.383 0.813 -35.442 0.813 -35.442 0.58 54.383
15898.542 0.581 54.332 0.812 -35.493 0.812 -35.493 0.581 54.332
15923.5 0.581 54.282 0.812 -35.544 0.812 -35.544 0.581 54.282
15948.458 0.582 54.231 0.811 -35.595 0.811 -35.595 0.582 54.231
15973.417 0.583 54.181 0.811 -35.645 0.811 -35.645 0.583 54.181
15998.375 0.583 54.13 0.81 -35.696 0.81 -35.696 0.583 54.13
16023.333 0.584 54.08 0.81 -35.747 0.81 -35.747 0.584 54.08
16048.292 0.585 54.03 0.809 -35.797 0.809 -35.797 0.585 54.03
16073.25 0.586 53.979 0.809 -35.848 0.809 -35.848 0.586 53.979
16098.208 0.586 53.929 0.808 -35.898 0.808 -35.898 0.586 53.929
16123.167 0.587 53.879 0.808 -35.949 0.808 -35.949 0.587 53.879
16148.125 0.588 53.829 0.807 -35.999 0.807 -35.999 0.588 53.829
16173.083 0.588 53.779 0.807 -36.049 0.807 -36.049 0.588 53.779
16198.042 0.589 53.73 0.806 -36.099 0.806 -36.099 0.589 53.73
16223 0.59 53.68 0.806 -36.15 0.806 -36.15 0.59 53.68
16247.958 0.591 53.63 0.805 -36.2 0.805 -36.2 0.591 53.63
16272.917 0.591 53.581 0.805 -36.249 0.805 -36.249 0.591 53.581
16297.875 0.592 53.531 0.804 -36.299 0.804 -36.299 0.592 53.531
16322.833 0.593 53.482 0.804 -36.349 0.804 -36.349 0.593 53.482
16347.792 0.593 53.432 0.803 -36.399 0.803 -36.399 0.593 53.432
16372.75 0.594 53.383 0.803 -36.448 0.803 -36.448 0.594 53.383
16397.708 0.595 53.334 0.802 -36.498 0.802 -36.498 0.595 53.334
16422.667 0.595 53.284 0.802 -36.547 0.802 -36.547 0.595 53.284
16447.625 0.596 53.235 0.801 -36.597 0.801 -36.597 0.596 53.235
16472.583 0.597 53.186 0.801 -36.646 0.801 -36.646 0.597 53.186
16497.542 0.598 53.137 0.8 -36.695 0.8 -36.695 0.598 53.137
16522.5 0.598 53.089 0.8 -36.744 0.8 -36.744 0.598 53.089
16547.458 0.599 53.04 0.799 -36.793 0.799 -36.793 0.599 53.04
16572.417 0.6 52.991 0.799 -36.842 0.799 -36.842 0.6 52.991
16597.375 0.6 52.942 0.798 -36.891 0.798 -36.891 0.6 52.942
16622.333 0.601 52.894 0.798 -36.94 0.798 -36.94 0.601 52.894
16647.292 0.602 52.845 0.797 -36.989 0.797 -36.989 0.602 52.845
16672.25 0.602 52.797 0.797 -37.038 0.797 -37.038 0.602 52.797
16697.208 0.603 52.749 0.796 -37.086 0.796 -37.086 0.603 52.749
16722.167 0.604 52.7 0.795 -37.135 0.795 -37.135 0.604 52.7
16747.125 0.604 52.652 0.795 -37.183 0.795 -37.183 0.604 52.652
16772.083 0.605 52.604 0.794 -37.232 0.794 -37.232 0.605 52.604
16797.042 0.606 52.556 0.794 -37.28 0.794 -37.28 0.606 52.556
16822 0.606 52.508 0.793 -37.329 0.793 -37.329 0.606 52.508
16846.958 0.607 52.46 0.793 -37.377 0.793 -37.377 0.607 52.46
16871.917 0.608 52.412 0.792 -37.425 0.792 -37.425 0.608 52.412
16896.875 0.608 52.364 0.792 -37.473 0.792 -37.473 0.608 52.364
16921.833 0.609 52.317 0.791 -37.521 0.791 -37.521 0.609 52.317
16946.792 0.61 52.269 0.791 -37.569 0.791 -37.569 0.61 52.269
16971.75 0.61 52.222 0.79 -37.617 0.79 -37.617 0.61 52.222
16996.708 0.611 52.174 0.79 -37.664 0.79 -37.664 0.611 52.174
17021.667 0.612 52.127 0.789 -37.712 0.789 -37.712 0.612 52.127
17046.625 0.612 52.079 0.789 -37.76 0.789 -37.76 0.612 52.079
17071.583 0.613 52.032 0.788 -37.807 0.788 -37.807 0.613 52.032
17096.542 0.614 51.985 0.788 -37.855 0.788 -37.855 0.614 51.985
17121.5 0.614 51.938 0.787 -37.902 0.787 -37.902 0.614 51.938
17146.458 0.615 51.891 0.787 -37.95 0.787 -37.95 0.615 51.891
17171.417 0.616 51.844 0.786 -37.997 0.786 -37.997 0.616 51.844
17196.375 0.616 51.797 0.786 -38.044 0.786 -38.044 0.616 51.797
17221.333 0.617 51.75 0.785 -38.091 0.785 -38.091 0.617 51.75
17246.292 0.618 51.703 0.785 -38.138 0.785 -38.138 0.618 51.703
17271.25 0.618 51.656 0.784 -38.185 0.784 -38.185 0.618 51.656
17296.208 0.619 51.61 0.784 -38.232 0.784 -38.232 0.619 51.61
17321.167 0.619 51.563 0.783 -38.279 0.783 -38.279 0.619 51.563
17346.125 0.62 51.517 0.783 -38.326 0.783 -38.326 0.62 51.517
17371.083 0.621 51.47 0.782 -38.372 0.782 -38.372 0.621 51.47
17396.042 0.621 51.424 0.782 -38.419 0.782 -38.419 0.621 51.424
17421 0.622 51.377 0.781 -38.466 0.781 -38.466 0.622 51.377
17445.958 0.623 51.331 0.781 -38.512 0.781 -38.512 0.623 51.331
17470.917 0.623 51.285 0.78 -38.559 0.78 -38.559 0.623 51.285
17495.875 0.624 51.239 0.78 -38.605 0.78 -38.605 0.624 51.239
17520.833 0.625 51.193 0.779 -38.651 0.779 -38.651 0.625 51.193
17545.792 0.625 51.147 0.779 -38.697 0.779 -38.697 0.625 51.147
17570.75 0.626 51.101 0.778 -38.744 0.778 -38.744 0.626 51.101
17595.708 0.626 51.055 0.778 -38.79 0.778 -38.79 0.626 51.055
17620.667 0.627 51.009 0.777 -38.836 0.777 -38.836 0.627 51.009
17645.625 0.628 50.964 0.777 -38.882 0.777 -38.882 0.628 50.964
17670.583 0.628 50.918 0.776 -38.928 0.776 -38.928 0.628 50.918
17695.542 0.629 50.873 0.776 -38.973 0.776 -38.973 0.629 50.873
17720.5 0.63 50.827 0.775 -39.019 0.775 -39.019 0.63 50.827
17745.458 0.63 50.782 0.775 -39.065 0.775 -39.065 0.63 50.782
17770.417 0.631 50.736 0.774 -39.11 0.774 -39.11 0.631 50.736
17795.375 0.631 50.691 0.774 -39.156 0.774 -39.156 0.631 50.691
17820.333 0.632 50.646 0.773 -39.201 0.773 -39.201 0.632 50.646
17845.292 0.633 50.601 0.773 -39.247 0.773 -39.247 0.633 50.601
17870.25 0.633 50.556 0.772 -39.292 0.772 -39.292 0.633 50.556
17895.208 0.634 50.51 0.772 -39.337 0.772 -39.337 0.634 50.51
17920.167 0.634 50.466 0.771 -39.383 0.771 -39.383 0.634 50.466
17945.125 0.635 50.421 0.771 -39.428 0.771 -39.428 0.635 50.421
17970.083 0.636 50.376 0.77 -39.473 0.77 -39.473 0.636 50.376
17995.042 0.636 50.331 0.77 -39.518 0.77 -39.518 0.636 50.331
18020 0.637 50.286 0.769 -39.563 0.769 -39.563 0.637 50.286
18044.958 0.638 50.242 0.769 -39.608 0.769 -39.608 0.638 50.242
18069.917 0.638 50.197 0.768 -39.652 0.768 -39.652 0.638 50.197
18094.875 0.639 50.153 0.768 -39.697 0.768 -39.697 0.639 50.153
18119.833 0.639 50.108 0.767 -39.742 0.767 -39.742 0.639 50.108
18144.792 0.64 50.064 0.767 -39.786 0.767 -39.786 0.64 50.064
18169.75 0.641 50.02 0.766 -39.831 0.766 -39.831 0.641 50.02
18194.708 0.641 49.975 0.766 -39.875 0.766 -39.875 0.641 49.975
18219.667 0.642 49.931 0.765 -39.92 0.765 -39.92 0.642 49.931
18244.625 0.642 49.887 0.765 -39.964 0.765 -39.964 0.642 49.887
18269.583 0.643 49.843 0.764 -40.008 0.764 -40.008 0.643 49.843
18294.542 0.643 49.799 0.764 -40.053 0.764 -40.053 0.643 49.799
18319.5 0.644 49.755 0.763 -40.097 0.763 -40.097 0.644 49.755
18344.458 0.645 49.711 0.763 -40.141 0.763 -40.141 0.645 49.711
18369.417 0.645 49.667 0.762 -40.185 0.762 -40.185 0.645 49.667
18394.375 0.646 49.624 0.762 -40.229 0.762 -40.229 0.646 49.624
18419.333 0.646 49.58 0.761 -40.273 0.761 -40.273 0.646 49.58
18444.292 0.647 49.536 0.761 -40.317 0.761 -40.317 0.647 49.536
18469.25 0.648 49.493 0.76 -40.36 0.76 -40.36 0.648 49.493
18494.208 0.648 49.449 0.76 -40.404 0.76 -40.404 0.648 49.449
18519.167 0.649 49.406 0.759 -40.448 0.759 -40.448 0.649 49.406
18544.125 0.649 49.363 0.759 -40.491 0.759 -40.491 0.649 49.363
18569.083 0.65 49.319 0.758 -40.535 0.758 -40.535 0.65 49.319
18594.042 0.65 49.276 0.758 -40.578 0.758 -40.578 0.65 49.276
18619 0.651 49.233 0.757 -40.622 0.757 -40.622 0.651 49.233
18643.958 0.652 49.19 0.757 -40.665 0.757 -40.665 0.652 49.19
18668.917 0.652 49.147 0.756 -40.708 0.756 -40.708 0.652 49.147
18693.875 0.653 49.104 0.756 -40.751 0.756 -40.751 0.653 49.104
18718.833 0.653 49.061 0.755 -40.794 0.755 -40.794 0.653 49.061
18743.792 0.654 49.018 0.755 -40.838 0.755 -40.838 0.654 49.018
18768.75 0.654 48.975 0.754 -40.881 0.754 -40.881 0.654 48.975
18793.708 0.655 48.933 0.754 -40.923 0.754 -40.923 0.655 48.933
18818.667 0.656 48.89 0.753 -40.966 0.753 -40.966 0.656 48.89
18843.625 0.656 48.847 0.753 -41.009 0.753 -41.009 0.656 48.847
18868.583 0.657 48.805 0.752 -41.052 0.752 -41.052 0.657 48.805
18893.542 0.657 48.762 0.752 -41.095 0.752 -41.095 0.657 48.762
18918.5 0.658 48.72 0.751 -41.137 0.751 -41.137 0.658 48.72
18943.458 0.658 48.678 0.751 -41.18 0.751 -41.18 0.658 48.678
18968.417 0.659 48.635 0.751 -41.222 0.751 -41.222 0.659 48.635
18993.375 0.66 48.593 0.75 -41.265 0.75 -41.265 0.66 48.593
19018.333 0.66 48.551 0.75 -41.307 0.75 -41.307 0.66 48.551
19043.292 0.661 48.509 0.749 -41.349 0.749 -41.349 0.661 48.509
19068.25 0.661 48.467 0.749 -41.392 0.749 -41.392 0.661 48.467
19093.208 0.662 48.425 0.748 -41.434 0.748 -41.434 0.662 48.425
19118.167 0.662 48.383 0.748 -41.476 0.748 -41.476 0.662 48.383
19143.125 0.663 48.341 0.747 -41.518 0.747 -41.518 0.663 48.341
19168.083 0.663 48.299 0.747 -41.56 0.747 -41.56 0.663 48.299
19193.042 0.664 48.258 0.746 -41.602 0.746 -41.602 0.664 48.258
19218 0.665 48.216 0.746 -41.644 0.746 -41.644 0.665 48.216
19242.958 0.665 48.174 0.745 -41.686 0.745 -41.686 0.665 48.174
19267.917 0.666 48.133 0.745 -41.727 0.745 -41.727 0.666 48.133
19292.875 0.666 48.091 0.744 -41.769 0.744 -41.769 0.666 48.091
19317.833 0.667 48.05 0.744 -41.811 0.744 -41.811 0.667 48.05
19342.792 0.667 48.008 0.743 -41.852 0.743 -41.852 0.667 48.008
19367.75 0.668 47.967 0.743 -41.894 0.743 -41.894 0.668 47.967
19392.708 0.668 47.926 0.742 -41.935 0.742 -41.935 0.668 47.926
19417.667 0.669 47.885 0.742 -41.977 0.742 -41.977 0.669 47.885
19442.625 0.669 47.844 0.741 -42.018 0.741 -42.018 0.669 47.844
19467.583 0.67 47.802 0.741 -42.059 0.741 -42.059 0.67 47.802
19492.542 0.67 47.761 0.74 -42.101 0.74 -42.101 0.67 47.761
19517.5 0.671 47.72 0.74 -42.142 0.74 -42.142 0.671 47.72
19542.458 0.672 47.68 0.739 -42.183 0.739 -42.183 0.672 47.68
19567.417 0.672 47.639 0.739 -42.224 0.739 -42.224 0.672 47.639
19592.375 0.673 47.598 0.738 -42.265 0.738 -42.265 0.673 47.598
19617.333 0.673 47.557 0.738 -42.306 0.738 -42.306 0.673 47.557
19642.292 0.674 47.516 0.737 -42.347 0.737 -42.347 0.674 47.516
19667.25 0.674 47.476 0.737 -42.388 0.737 -42.388 0.674 47.476
19692.208 0.675 47.435 0.737 -42.428 0.737 -42.428 0.675 47.435
19717.167 0.675 47.395 0.736 -42.469 0.736 -42.469 0.675 47.395
19742.125 0.676 47.354 0.736 -42.51 0.736 -42.51 0.676 47.354
19767.083 0.676 47.314 0.735 -42.55 0.735 -42.55 0.676 47.314
19792.042 0.677 47.274 0.735 -42.591 0.735 -42.591 0.677 47.274
19817 0.677 47.233 0.734 -42.631 0.734 -42.631 0.677 47.233
19841.958 0.678 47.193 0.734 -42.672 0.734 -42.672 0.678 47.193
19866.917 0.678 47.153 0.733 -42.712 0.733 -42.712 0.678 47.153
19891.875 0.679 47.113 0.733 -42.752 0.733 -42.752 0.679 47.113
19916.833 0.679 47.073 0.732 -42.792 0.732 -42.792 0.679 47.073
19941.792 0.68 47.033 0.732 -42.833 0.732 -42.833 0.68 47.033
19966.75 0.68 46.993 0.731 -42.873 0.731 -42.873 0.68 46.993
19991.708 0.681 46.953 0.731 -42.913 0.731 -42.913 0.681 46.953
20016.667 0.681 46.913 0.73 -42.953 0.73 -42.953 0.681 46.913
20041.625 0.682 46.874 0.73 -42.993 0.73 -42.993 0.682 46.874
20066.583 0.682 46.834 0.729 -43.033 0.729 -43.033 0.682 46.834
20091.542 0.683 46.794 0.729 -43.072 0.729 -43.072 0.683 46.794
20116.5 0.683 46.755 0.728 -43.112 0.728 -43.112 0.683 46.755
20141.458 0.684 46.715 0.728 -43.152 0.728 -43.152 0.684 46.715
20166.417 0.684 46.676 0.727 -43.191 0.727 -43.191 0.684 46.676
20191.375 0.685 46.636 0.727 -43.231 0.727 -43.231 0.685 46.636
20216.333 0.685 46.597 0.727 -43.271 0.727 -43.271 0.685 46.597
20241.292 0.686 46.558 0.726 -43.31 0.726 -43.31 0.686 46.558
20266.25 0.686 46.518 0.726 -43.35 0.726 -43.35 0.686 46.518
20291.208 0.687 46.479 0.725 -43.389 0.725 -43.389 0.687 46.479
20316.167 0.687 46.44 0.725 -43.428 0.725 -43.428 0.687 46.44
20341.125 0.688 46.401 0.724 -43.467 0.724 -43.467 0.688 46.401
20366.083 0.688 46.362 0.724 -43.507 0.724 -43.507 0.688 46.362
20391.042 0.689 46.323 0.723 -43.546 0.723 -43.546 0.689 46.323
20416 0.689 46.284 0.723 -43.585 0.723 -43.585 0.689 46.284
20440.958 0.69 46.245 0.722 -43.624 0.722 -43.624 0.69 46.245
20465.917 0.69 46.206 0.722 -43.663 0.722 -43.663 0.69 46.206
20490.875 0.691 46.168 0.721 -43.702 0.721 -43.702 0.691 46.168
20515.833 0.691 46.129 0.721 -43.741 0.721 -43.741 0.691 46.129
20540.792 0.692 46.09 0.72 -43.78 0.72 -43.78 0.692 46.09
20565.75 0.692 46.052 0.72 -43.818 0.72 -43.818 0.692 46.052
20590.708 0.693 46.013 0.72 -43.857 0.72 -43.857 0.693 46.013
20615.667 0.693 45.975 0.719 -43.896 0.719 -43.896 0.693 45.975
20640.625 0.694 45.936 0.719 -43.934 0.719 -43.934 0.694 45.936
20665.583 0.694 45.898 0.718 -43.973 0.718 -43.973 0.694 45.898
20690.542 0.695 45.86 0.718 -44.011 0.718 -44.011 0.695 45.86
20715.5 0.695 45.821 0.717 -44.05 0.717 -44.05 0.695 45.821
20740.458 0.696 45.783 0.717 -44.088 0.717 -44.088 0.696 45.783
20765.417 0.696 45.745 0.716 -44.126 0.716 -44.126 0.696 45.745
20790.375 0.697 45.707 0.716 -44.165 0.716 -44.165 0.697 45.707
20815.333 0.697 45.669 0.715 -44.203 0.715 -44.203 0.697 45.669
20840.292 0.698 45.631 0.715 -44.241 0.715 -44.241 0.698 45.631
20865.25 0.698 45.593 0.714 -44.279 0.714 -44.279 0.698 45.593
20890.208 0.699 45.555 0.714 -44.317 0.714 -44.317 0.699 45.555
20915.167 0.699 45.517 0.713 -44.355 0.713 -44.355 0.699 45.517
20940.125 0.7 45.48 0.713 -44.393 0.713 -44.393 0.7 45.48
20965.083 0.7 45.442 0.713 -44.431 0.713 -44.431 0.7 45.442
20990.042 0.701 45.404 0.712 -44.469 0.712 -44.469 0.701 45.404
21015 0.701 45.367 0.712 -44.507 0.712 -44.507 0.701 45.367
21039.958 0.701 45.329 0.711 -44.544 0.711 -44.544 0.701 45.329
21064.917 0.702 45.291 0.711 -44.582 0.711 -44.582 0.702 45.291
21089.875 0.702 45.254 0.71 -44.62 0.71 -44.62 0.702 45.254
21114.833 0.703 45.217 0.71 -44.657 0.71 -44.657 0.703 45.217
21139.792 0.703 45.179 0.709 -44.695 0.709 -44.695 0.703 45.179
21164.75 0.704 45.142 0.709 -44.732 0.709 -44.732 0.704 45.142
21189.708 0.704 45.105 0.708 -44.77 0.708 -44.77 0.704 45.105
21214.667 0.705 45.068 0.708 -44.807 0.708 -44.807 0.705 45.068
21239.625 0.705 45.03 0.707 -44.844 0.707 -44.844 0.705 45.03
21264.583 0.706 44.993 0.707 -44.882 0.707 -44.882 0.706 44.993
21289.542 0.706 44.956 0.707 -44.919 0.707 -44.919 0.706 44.956
21314.5 0.707 44.919 0.706 -44.956 0.706 -44.956 0.707 44.919
21339.458 0.707 44.882 0.706 -44.993 0.706 -44.993 0.707 44.882
21364.417 0.707 44.845 0.705 -45.03 0.705 -45.03 0.707 44.845
21389.375 0.708 44.809 0.705 -45.067 0.705 -45.067 0.708 44.809
21414.333 0.708 44.772 0.704 -45.104 0.704 -45.104 0.708 44.772
21439.292 0.709 44.735 0.704 -45.141 0.704 -45.141 0.709 44.735
21464.25 0.709 44.698 0.703 -45.178 0.703 -45.178 0.709 44.698
21489.208 0.71 44.662 0.703 -45.214 0.703 -45.214 0.71 44.662
21514.167 0.71 44.625 0.702 -45.251 0.702 -45.251 0.71 44.625
21539.125 0.711 44.589 0.702 -45.288 0.702 -45.288 0.711 44.589
21564.083 0.711 44.552 0.702 -45.324 0.702 -45.324 0.711 44.552
21589.042 0.712 44.516 0.701 -45.361 0.701 -45.361 0.712 44.516
21614 0.712 44.479 0.701 -45.398 0.701 -45.398 0.712 44.479
21638.958 0.712 44.443 0.7 -45.434 0.7 -45.434 0.712 44.443
21663.917 0.713 44.407 0.7 -45.47 0.7 -45.47 0.713 44.407
21688.875 0.713 44.371 0.699 -45.507 0.699 -45.507 0.713 44.371
21713.833 0.714 44.334 0.699 -45.543 0.699 -45.543 0.714 44.334
21738.792 0.714 44.298 0.698 -45.579 0.698 -45.579 0.714 44.298
21763.75 0.715 44.262 0.698 -45.616 0.698 -45.616 0.715 44.262
21788.708 0.715 44.226 0.697 -45.652 0.697 -45.652 0.715 44.226
21813.667 0.716 44.19 0.697 -45.688 0.697 -45.688 0.716 44.19
21838.625 0.716 44.154 0.697 -45.724 0.697 -45.724 0.716 44.154
21863.583 0.716 44.119 0.696 -45.76 0.696 -45.76 0.716 44.119
21888.542 0.717 44.083 0.696 -45.796 0.696 -45.796 0.717 44.083
21913.5 0.717 44.047 0.695 -45.832 0.695 -45.832 0.717 44.047
21938.458 0.718 44.011 0.695 -45.868 0.695 -45.868 0.718 44.011
21963.417 0.718 43.976 0.694 -45.904 0.694 -45.904 0.718 43.976
21988.375 0.719 43.94 0.694 -45.939 0.694 -45.939 0.719 43.94
22013.333 0.719 43.904 0.693 -45.975 0.693 -45.975 0.719 43.904
22038.292 0.719 43.869 0.693 -46.011 0.693 -46.011 0.719 43.869
22063.25 0.72 43.833 0.693 -46.046 0.693 -46.046 0.72 43.833
22088.208 0.72 43.798 0.692 -46.082 0.692 -46.082 0.72 43.798
22113.167 0.721 43.763 0.692 -46.118 0.692 -46.118 0.721 43.763
22138.125 0.721 43.727 0.691 -46.153 0.691 -46.153 0.721 43.727
22163.083 0.722 43.692 0.691 -46.188 0.691 -46.188 0.722 43.692
22188.042 0.722 43.657 0.69 -46.224 0.69 -46.224 0.722 43.657
22213 0.722 43.622 0.69 -46.259 0.69 -46.259 0.722 43.622
22237.958 0.723 43.586 0.689 -46.294 0.689 -46.294 0.723 43.586
22262.917 0.723 43.551 0.689 -46.33 0.689 -46.33 0.723 43.551
22287.875 0.724 43.516 0.689 -46.365 0.689 -46.365 0.724 43.516
22312.833 0.724 43.481 0.688 -46.4 0.688 -46.4 0.724 43.481
22337.792 0.725 43.446 0.688 -46.435 0.688 -46.435 0.725 43.446
22362.75 0.725 43.412 0.687 -46.47 0.687 -46.47 0.725 43.412
22387.708 0.725 43.377 0.687 -46.505 0.687 -46.505 0.725 43.377
22412.667 0.726 43.342 0.686 -46.54 0.686 -46.54 0.726 43.342
22437.625 0.726 43.307 0.686 -46.575 0.686 -46.575 0.726 43.307
22462.583 0.727 43.272 0.685 -46.61 0.685 -46.61 0.727 43.272
22487.542 0.727 43.238 0.685 -46.644 0.685 -46.644 0.727 43.238
22512.5 0.728 43.203 0.685 -46.679 0.685 -46.679 0.728 43.203
22537.458 0.728 43.169 0.684 -46.714 0.684 -46.714 0.728 43.169
22562.417 0.728 43.134 0.684 -46.749 0.684 -46.749 0.728 43.134
22587.375 0.729 43.1 0.683 -46.783 0.683 -46.783 0.729 43.1
22612.333 0.729 43.065 0.683 -46.818 0.683 -46.818 0.729 43.065
22637.292 0.73 43.031 0.682 -46.852 0.682 -46.852 0.73 43.031
22662.25 0.73 42.997 0.682 -46.887 0.682 -46.887 0.73 42.997
22687.208 0.73 42.962 0.682 -46.921 0.682 -46.921 0.73 42.962
22712.167 0.731 42.928 0.681 -46.955 0.681 -46.955 0.731 42.928
22737.125 0.731 42.894 0.681 -46.99 0.681 -46.99 0.731 42.894
22762.083 0.732 42.86 0.68 -47.024 0.68 -47.024 0.732 42.86
22787.042 0.732 42.826 0.68 -47.058 0.68 -47.058 0.732 42.826
22812 0.732 42.792 0.679 -47.092 0.679 -47.092 0.732 42.792
22836.958 0.733 42.758 0.679 -47.127 0.679 -47.127 0.733 42.758
22861.917 0.733 42.724 0.678 -47.161 0.678 -47.161 0.733 42.724
22886.875 0.734 42.69 0.678 -47.195 0.678 -47.195 0.734 42.69
22911.833 0.734 42.656 0.678 -47.229 0.678 -47.229 0.734 42.656
22936.792 0.734 42.622 0.677 -47.263 0.677 -47.263 0.734 42.622
22961.75 0.735 42.588 0.677 -47.296 0.677 -47.296 0.735 42.588
22986.708 0.735 42.555 0.676 -47.33 0.676 -47.33 0.735 42.555
23011.667 0.736 42.521 0.676 -47.364 0.676 -47.364 0.736 42.521
23036.625 0.736 42.487 0.675 -47.398 0.675 -47.398 0.736 42.487
23061.583 0.736 42.454 0.675 -47.432 0.675 -47.432 0.736 42.454
23086.542 0.737 42.42 0.675 -47.465 0.675 -47.465 0.737 42.42
23111.5 0.737 42.387 0.674 -47.499 0.674 -47.499 0.737 42.387
23136.458 0.738 42.353 0.674 -47.532 0.674 -47.532 0.738 42.353
23161.417 0.738 42.32 0.673 -47.566 0.673 -47.566 0.738 42.32
23186.375 0.738 42.287 0.673 -47.599 0.673 -47.599 0.738 42.287
23211.333 0.739 42.253 0.672 -47.633 0.672 -47.633 0.739 42.253
23236.292 0.739 42.22 0.672 -47.666 0.672 -47.666 0.739 42.22
23261.25 0.74 42.187 0.672 -47.7 0.672 -47.7 0.74 42.187
23286.208 0.74 42.154 0.671 -47.733 0.671 -47.733 0.74 42.154
23311.167 0.74 42.121 0.671 -47.766 0.671 -47.766 0.74 42.121
23336.125 0.741 42.088 0.67 -47.799 0.67 -47.799 0.741 42.088
23361.083 0.741 42.055 0.67 -47.832 0.67 -47.832 0.741 42.055
23386.042 0.742 42.022 0.669 -47.866 0.669 -47.866 0.742 42.022
23411 0.742 41.989 0.669 -47.899 0.669 -47.899 0.742 41.989
23435.958 0.742 41.956 0.669 -47.932 0.669 -47.932 0.742 41.956
23460.917 0.743 41.923 0.668 -47.965 0.668 -47.965 0.743 41.923
23485.875 0.743 41.89 0.668 -47.998 0.668 -47.998 0.743 41.89
23510.833 0.744 41.857 0.667 -48.03 0.667 -48.03 0.744 41.857
23535.792 0.744 41.825 0.667 -48.063 0.667 -48.063 0.744 41.825
23560.75 0.744 41.792 0.666 -48.096 0.666 -48.096 0.744 41.792
23585.708 0.745 41.759 0.666 -48.129 0.666 -48.129 0.745 41.759
23610.667 0.745 41.727 0.666 -48.162 0.666 -48.162 0.745 41.727
23635.625 0.745 41.694 0.665 -48.194 0.665 -48.194 0.745 41.694
23660.583 0.746 41.662 0.665 -48.227 0.665 -48.227 0.746 41.662
23685.542 0.746 41.629 0.664 -48.259 0.664 -48.259 0.746 41.629
23710.5 0.747 41.597 0.664 -48.292 0.664 -48.292 0.747 41.597
23735.458 0.747 41.565 0.663 -48.324 0.663 -48.324 0.747 41.565
23760.417 0.747 41.532 0.663 -48.357 0.663 -48.357 0.747 41.532
23785.375 0.748 41.5 0.663 -48.389 0.663 -48.389 0.748 41.5
23810.333 0.748 41.468 0.662 -48.422 0.662 -48.422 0.748 41.468
23835.292 0.748 41.436 0.662 -48.454 0.662 -48.454 0.748 41.436
23860.25 0.749 41.403 0.661 -48.486 0.661 -48.486 0.749 41.403
23885.208 0.749 41.371 0.661 -48.518 0.661 -48.518 0.749 41.371
23910.167 0.75 41.339 0.661 -48.551 0.661 -48.551 0.75 41.339
23935.125 0.75 41.307 0.66 -48.583 0.66 -48.583 0.75 41.307
23960.083 0.75 41.275 0.66 -48.615 0.66 -48.615 0.75 41.275
23985.042 0.751 41.243 0.659 -48.647 0.659 -48.647 0.751 41.243
24010 0.751 41.211 0.659 -48.679 0.659 -48.679 0.751 41.211
24034.958 0.751 41.18 0.658 -48.711 0.658 -48.711 0.751 41.18
24059.917 0.752 41.148 0.658 -48.743 0.658 -48.743 0.752 41.148
24084.875 0.752 41.116 0.658 -48.775 0.658 -48.775 0.752 41.116
24109.833 0.752 41.084 0.657 -48.807 0.657 -48.807 0.752 41.084
24134.792 0.753 41.053 0.657 -48.838 0.657 -48.838 0.753 41.053
24159.75 0.753 41.021 0.656 -48.87 0.656 -48.87 0.753 41.021
24184.708 0.754 40.989 0.656 -48.902 0.656 -48.902 0.754 40.989
24209.667 0.754 40.958 0.656 -48.933 0.656 -48.933 0.754 40.958
24234.625 0.754 40.926 0.655 -48.965 0.655 -48.965 0.754 40.926
24259.583 0.755 40.895 0.655 -48.997 0.655 -48.997 0.755 40.895
24284.542 0.755 40.863 0.654 -49.028 0.654 -49.028 0.755 40.863
24309.5 0.755 40.832 0.654 -49.06 0.654 -49.06 0.755 40.832
24334.458 0.756 40.801 0.653 -49.091 0.653 -49.091 0.756 40.801
24359.417 0.756 40.769 0.653 -49.123 0.653 -49.123 0.756 40.769
24384.375 0.756 40.738 0.653 -49.154 0.653 -49.154 0.756 40.738
24409.333 0.757 40.707 0.652 -49.185 0.652 -49.185 0.757 40.707
24434.292 0.757 40.676 0.652 -49.217 0.652 -49.217 0.757 40.676
24459.25 0.758 40.645 0.651 -49.248 0.651 -49.248 0.758 40.645
24484.208 0.758 40.614 0.651 -49.279 0.651 -49.279 0.758 40.614
24509.167 0.758 40.583 0.651 -49.31 0.651 -49.31 0.758 40.583
24534.125 0.759 40.552 0.65 -49.341 0.65 -49.341 0.759 40.552
24559.083 0.759 40.521 0.65 -49.372 0.65 -49.372 0.759 40.521
24584.042 0.759 40.49 0.649 -49.403 0.649 -49.403 0.759 40.49
24609 0.76 40.459 0.649 -49.434 0.649 -49.434 0.76 40.459
24633.958 0.76 40.428 0.648 -49.465 0.648 -49.465 0.76 40.428
24658.917 0.76 40.397 0.648 -49.496 0.648 -49.496 0.76 40.397
24683.875 0.761 40.366 0.648 -49.527 0.648 -49.527 0.761 40.366
24708.833 0.761 40.336 0.647 -49.558 0.647 -49.558 0.761 40.336
24733.792 0.761 40.305 0.647 -49.589 0.647 -49.589 0.761 40.305
24758.75 0.762 40.274 0.646 -49.619 0.646 -49.619 0.762 40.274
24783.708 0.762 40.244 0.646 -49.65 0.646 -49.65 0.762 40.244
24808.667 0.762 40.213 0.646 -49.681 0.646 -49.681 0.762 40.213
24833.625 0.763 40.183 0.645 -49.711 0.645 -49.711 0.763 40.183
24858.583 0.763 40.152 0.645 -49.742 0.645 -49.742 0.763 40.152
24883.542 0.763 40.122 0.644 -49.773 0.644 -49.773 0.763 40.122
24908.5 0.764 40.092 0.644 -49.803 0.644 -49.803 0.764 40.092
24933.458 0.764 40.061 0.644 -49.834 0.644 -49.834 0.764 40.061
24958.417 0.765 40.031 0.643 -49.864 0.643 -49.864 0.765 40.031
24983.375 0.765 40.001 0.643 -49.894 0.643 -49.894 0.765 40.001
25008.333 0.765 39.97 0.642 -49.925 0.642 -49.925 0.765 39.97
25033.292 0.766 39.94 0.642 -49.955 0.642 -49.955 0.766 39.94
25058.25 0.766 39.91 0.642 -49.985 0.642 -49.985 0.766 39.91
25083.208 0.766 39.88 0.641 -50.015 0.641 -50.015 0.766 39.88
25108.167 0.767 39.85 0.641 -50.046 0.641 -50.046 0.767 39.85
25133.125 0.767 39.82 0.64 -50.076 0.64 -50.076 0.767 39.82
25158.083 0.767 39.79 0.64 -50.106 0.64 -50.106 0.767 39.79
25183.042 0.768 39.76 0.64 -50.136 0.64 -50.136 0.768 39.76
25208 0.768 39.73 0.639 -50.166 0.639 -50.166 0.768 39.73
25232.958 0.768 39.7 0.639 -50.196 0.639 -50.196 0.768 39.7
25257.917 0.769 39.67 0.638 -50.226 0.638 -50.226 0.769 39.67
25282.875 0.769 39.64 0.638 -50.256 0.638 -50.256 0.769 39.64
25307.833 0.769 39.611 0.638 -50.286 0.638 -50.286 0.769 39.611
25332.792 0.77 39.581 0.637 -50.315 0.637 -50.315 0.77 39.581
25357.75 0.77 39.551 0.637 -50.345 0.637 -50.345 0.77 39.551
25382.708 0.77 39.522 0.636 -50.375 0.636 -50.375 0.77 39.522
25407.667 0.771 39.492 0.636 -50.405 0.636 -50.405 0.771 39.492
25432.625 0.771 39.463 0.636 -50.434 0.636 -50.434 0.771 39.463
25457.583 0.771 39.433 0.635 -50.464 0.635 -50.464 0.771 39.433
25482.542 0.772 39.404 0.635 -50.494 0.635 -50.494 0.772 39.404
25507.5 0.772 39.374 0.634 -50.523 0.634 -50.523 0.772 39.374
25532.458 0.772 39.345 0.634 -50.553 0.634 -50.553 0.772 39.345
25557.417 0.773 39.315 0.634 -50.582 0.634 -50.582 0.773 39.315
25582.375 0.773 39.286 0.633 -50.612 0.633 -50.612 0.773 39.286
25607.333 0.773 39.257 0.633 -50.641 0.633 -50.641 0.773 39.257
25632.292 0.774 39.228 0.632 -50.67 0.632 -50.67 0.774 39.228
25657.25 0.774 39.198 0.632 -50.7 0.632 -50.7 0.774 39.198
25682.208 0.774 39.169 0.632 -50.729 0.632 -50.729 0.774 39.169
25707.167 0.774 39.14 0.631 -50.758 0.631 -50.758 0.774 39.14
25732.125 0.775 39.111 0.631 -50.787 0.631 -50.787 0.775 39.111
25757.083 0.775 39.082 0.63 -50.816 0.63 -50.816 0.775 39.082
25782.042 0.775 39.053 0.63 -50.846 0.63 -50.846 0.775 39.053
25807 0.776 39.024 0.63 -50.875 0.63 -50.875 0.776 39.024
25831.958 0.776 38.995 0.629 -50.904 0.629 -50.904 0.776 38.995
25856.917 0.776 38.966 0.629 -50.933 0.629 -50.933 0.776 38.966
25881.875 0.777 38.937 0.628 -50.962 0.628 -50.962 0.777 38.937
25906.833 0.777 38.908 0.628 -50.991 0.628 -50.991 0.777 38.908
25931.792 0.777 38.88 0.628 -51.02 0.628 -51.02 0.777 38.88
25956.75 0.778 38.851 0.627 -51.048 0.627 -51.048 0.778 38.851
25981.708 0.778 38.822 0.627 -51.077 0.627 -51.077 0.778 38.822
26006.667 0.778 38.793 0.627 -51.106 0.627 -51.106 0.778 38.793
26031.625 0.779 38.765 0.626 -51.135 0.626 -51.135 0.779 38.765
26056.583 0.779 38.736 0.626 -51.163 0.626 -51.163 0.779 38.736
26081.542 0.779 38.708 0.625 -51.192 0.625 -51.192 0.779 38.708
26106.5 0.78 38.679 0.625 -51.221 0.625 -51.221 0.78 38.679
26131.458 0.78 38.651 0.625 -51.249 0.625 -51.249 0.78 38.651
26156.417 0.78 38.622 0.624 -51.278 0.624 -51.278 0.78 38.622
26181.375 0.781 38.594 0.624 -51.306 0.624 -51.306 0.781 38.594
26206.333 0.781 38.565 0.623 -51.335 0.623 -51.335 0.781 38.565
26231.292 0.781 38.537 0.623 -51.363 0.623 -51.363 0.781 38.537
26256.25 0.781 38.509 0.623 -51.392 0.623 -51.392 0.781 38.509
26281.208 0.782 38.48 0.622 -51.42 0.622 -51.42 0.782 38.48
26306.167 0.782 38.452 0.622 -51.448 0.622 -51.448 0.782 38.452
26331.125 0.782 38.424 0.621 -51.477 0.621 -51.477 0.782 38.424
26356.083 0.783 38.396 0.621 -51.505 0.621 -51.505 0.783 38.396
26381.042 0.783 38.368 0.621 -51.533 0.621 -51.533 0.783 38.368
26406 0.783 38.34 0.62 -51.561 0.62 -51.561 0.783 38.34
26430.958 0.784 38.312 0.62 -51.59 0.62 -51.59 0.784 38.312
26455.917 0.784 38.284 0.62 -51.618 0.62 -51.618 0.784 38.284
26480.875 0.784 38.256 0.619 -51.646 0.619 -51.646 0.784 38.256
26505.833 0.784 38.228 0.619 -51.674 0.619 -51.674 0.784 38.228
26530.792 0.785 38.2 0.618 -51.702 0.618 -51.702 0.785 38.2
26555.75 0.785 38.172 0.618 -51.73 0.618 -51.73 0.785 38.172
26580.708 0.785 38.144 0.618 -51.758 0.618 -51.758 0.785 38.144
26605.667 0.786 38.116 0.617 -51.786 0.617 -51.786 0.786 38.116
26630.625 0.786 38.088 0.617 -51.813 0.617 -51.813 0.786 38.088
26655.583 0.786 38.061 0.616 -51.841 0.616 -51.841 0.786 38.061
26680.542 0.787 38.033 0.616 -51.869 0.616 -51.869 0.787 38.033
26705.5 0.787 38.005 0.616 -51.897 0.616 -51.897 0.787 38.005
26730.458 0.787 37.978 0.615 -51.925 0.615 -51.925 0.787 37.978
26755.417 0.787 37.95 0.615 -51.952 0.615 -51.952 0.787 37.95
26780.375 0.788 37.923 0.615 -51.98 0.615 -51.98 0.788 37.923
26805.333 0.788 37.895 0.614 -52.007 0.614 -52.007 0.788 37.895
26830.292 0.788 37.868 0.614 -52.035 0.614 -52.035 0.788 37.868
26855.25 0.789 37.84 0.613 -52.063 0.613 -52.063 0.789 37.84
26880.208 0.789 37.813 0.613 -52.09 0.613 -52.09 0.789 37.813
26905.167 0.789 37.785 0.613 -52.118 0.613 -52.118 0.789 37.785
26930.125 0.79 37.758 0.612 -52.145 0.612 -52.145 0.79 37.758
26955.083 0.79 37.731 0.612 -52.172 0.612 -52.172 0.79 37.731
26980.042 0.79 37.704 0.612 -52.2 0.612 -52.2 0.79 37.704
27005 0.79 37.676 0.611 -52.227 0.611 -52.227 0.79 37.676
27029.958 0.791 37.649 0.611 -52.254 0.611 -52.254 0.791 37.649
27054.917 0.791 37.622 0.61 -52.282 0.61 -52.282 0.791 37.622
27079.875 0.791 37.595 0.61 -52.309 0.61 -52.309 0.791 37.595
27104.833 0.792 37.568 0.61 -52.336 0.61 -52.336 0.792 37.568
27129.792 0.792 37.541 0.609 -52.363 0.609 -52.363 0.792 37.541
27154.75 0.792 37.514 0.609 -52.39 0.609 -52.39 0.792 37.514
27179.708 0.792 37.487 0.609 -52.417 0.609 -52.417 0.792 37.487
27204.667 0.793 37.46 0.608 -52.444 0.608 -52.444 0.793 37.46
27229.625 0.793 37.433 0.608 -52.471 0.608 -52.471 0.793 37.433
27254.583 0.793 37.406 0.607 -52.498 0.607 -52.498 0.793 37.406
27279.542 0.794 37.379 0.607 -52.525 0.607 -52.525 0.794 37.379
27304.5 0.794 37.352 0.607 -52.552 0.607 -52.552 0.794 37.352
27329.458 0.794 37.325 0.606 -52.579 0.606 -52.579 0.794 37.325
27354.417 0.794 37.299 0.606 -52.606 0.606 -52.606 0.794 37.299
27379.375 0.795 37.272 0.606 -52.633 0.606 -52.633 0.795 37.272
27404.333 0.795 37.245 0.605 -52.66 0.605 -52.66 0.795 37.245
27429.292 0.795 37.219 0.605 -52.686 0.605 -52.686 0.795 37.219
27454.25 0.796 37.192 0.604 -52.713 0.604 -52.713 0.796 37.192
27479.208 0.796 37.166 0.604 -52.74 0.604 -52.74 0.796 37.166
27504.167 0.796 37.139 0.604 -52.766 0.604 -52.766 0.796 37.139
27529.125 0.796 37.112 0.603 -52.793 0.603 -52.793 0.796 37.112
27554.083 0.797 37.086 0.603 -52.819 0.603 -52.819 0.797 37.086
27579.042 0.797 37.06 0.603 -52.846 0.603 -52.846 0.797 37.06
27604 0.797 37.033 0.602 -52.872 0.602 -52.872 0.797 37.033
27628.958 0.798 37.007 0.602 -52.899 0.602 -52.899 0.798 37.007
27653.917 0.798 36.98 0.602 -52.925 0.602 -52.925 0.798 36.98
27678.875 0.798 36.954 0.601 -52.952 0.601 -52.952 0.798 36.954
27703.833 0.798 36.928 0.601 -52.978 0.601 -52.978 0.798 36.928
27728.792 0.799 36.902 0.6 -53.004 0.6 -53.004 0.799 36.902
27753.75 0.799 36.875 0.6 -53.031 0.6 -53.031 0.799 36.875
27778.708 0.799 36.849 0.6 -53.057 0.6 -53.057 0.799 36.849
27803.667 0.8 36.823 0.599 -53.083 0.599 -53.083 0.8 36.823
27828.625 0.8 36.797 0.599 -53.109 0.599 -53.109 0.8 36.797
27853.583 0.8 36.771 0.599 -53.136 0.599 -53.136 0.8 36.771
27878.542 0.8 36.745 0.598 -53.162 0.598 -53.162 0.8 36.745
27903.5 0.801 36.719 0.598 -53.188 0.598 -53.188 0.801 36.719
27928.458 0.801 36.693 0.598 -53.214 0.598 -53.214 0.801 36.693
27953.417 0.801 36.667 0.597 -53.24 0.597 -53.24 0.801 36.667
27978.375 0.801 36.641 0.597 -53.266 0.597 -53.266 0.801 36.641
28003.333 0.802 36.615 0.596 -53.292 0.596 -53.292 0.802 36.615
28028.292 0.802 36.589 0.596 -53.318 0.596 -53.318 0.802 36.589
28053.25 0.802 36.563 0.596 -53.344 0.596 -53.344 0.802 36.563
28078.208 0.803 36.538 0.595 -53.37 0.595 -53.37 0.803 36.538
28103.167 0.803 36.512 0.595 -53.395 0.595 -53.395 0.803 36.512
28128.125 0.803 36.486 0.595 -53.421 0.595 -53.421 0.803 36.486
28153.083 0.803 36.461 0.594 -53.447 0.594 -53.447 0.803 36.461
28178.042 0.804 36.435 0.594 -53.473 0.594 -53.473 0.804 36.435
28203 0.804 36.409 0.594 -53.498 0.594 -53.498 0.804 36.409
28227.958 0.804 36.384 0.593 -53.524 0.593 -53.524 0.804 36.384
28252.917 0.804 36.358 0.593 -53.55 0.593 -53.55 0.804 36.358
28277.875 0.805 36.333 0.592 -53.575 0.592 -53.575 0.805 36.333
28302.833 0.805 36.307 0.592 -53.601 0.592 -53.601 0.805 36.307
28327.792 0.805 36.282 0.592 -53.626 0.592 -53.626 0.805 36.282
28352.75 0.805 36.256 0.591 -53.652 0.591 -53.652 0.805 36.256
28377.708 0.806 36.231 0.591 -53.677 0.591 -53.677 0.806 36.231
28402.667 0.806 36.206 0.591 -53.703 0.591 -53.703 0.806 36.206
28427.625 0.806 36.18 0.59 -53.728 0.59 -53.728 0.806 36.18
28452.583 0.806 36.155 0.59 -53.754 0.59 -53.754 0.806 36.155
28477.542 0.807 36.13 0.59 -53.779 0.59 -53.779 0.807 36.13
28502.5 0.807 36.104 0.589 -53.804 0.589 -53.804 0.807 36.104
28527.458 0.807 36.079 0.589 -53.83 0.589 -53.83 0.807 36.079
28552.417 0.808 36.054 0.589 -53.855 0.589 -53.855 0.808 36.054
28577.375 0.808 36.029 0.588 -53.88 0.588 -53.88 0.808 36.029
28602.333 0.808 36.004 0.588 -53.905 0.588 -53.905 0.808 36.004
28627.292 0.808 35.979 0.587 -53.93 0.587 -53.93 0.808 35.979
28652.25 0.809 35.954 0.587 -53.956 0.587 -53.956 0.809 35.954
28677.208 0.809 35.929 0.587 -53.981 0.587 -53.981 0.809 35.929
28702.167 0.809 35.904 0.586 -54.006 0.586 -54.006 0.809 35.904
28727.125 0.809 35.879 0.586 -54.031 0.586 -54.031 0.809 35.879
28752.083 0.81 35.854 0.586 -54.056 0.586 -54.056 0.81 35.854
28777.042 0.81 35.829 0.585 -54.081 0.585 -54.081 0.81 35.829
28802 0.81 35.804 0.585 -54.106 0.585 -54.106 0.81 35.804
28826.958 0.81 35.779 0.585 -54.131 0.585 -54.131 0.81 35.779
28851.917 0.811 35.754 0.584 -54.156 0.584 -54.156 0.811 35.754
28876.875 0.811 35.73 0.584 -54.18 0.584 -54.18 0.811 35.73
28901.833 0.811 35.705 0.584 -54.205 0.584 -54.205 0.811 35.705
28926.792 0.811 35.68 0.583 -54.23 0.583 -54.23 0.811 35.68
28951.75 0.812 35.656 0.583 -54.255 0.583 -54.255 0.812 35.656
28976.708 0.812 35.631 0.583 -54.279 0.583 -54.279 0.812 35.631
29001.667 0.812 35.606 0.582 -54.304 0.582 -54.304 0.812 35.606
29026.625 0.812 35.582 0.582 -54.329 0.582 -54.329 0.812 35.582
29051.583 0.813 35.557 0.582 -54.353 0.582 -54.353 0.813 35.557
29076.542 0.813 35.533 0.581 -54.378 0.581 -54.378 0.813 35.533
29101.5 0.813 35.508 0.581 -54.403 0.581 -54.403 0.813 35.508
29126.458 0.813 35.484 0.58 -54.427 0.58 -54.427 0.813 35.484
29151.417 0.814 35.459 0.58 -54.452 0.58 -54.452 0.814 35.459
29176.375 0.814 35.435 0.58 -54.476 0.58 -54.476 0.814 35.435
29201.333 0.814 35.41 0.579 -54.501 0.579 -54.501 0.814 35.41
29226.292 0.814 35.386 0.579 -54.525 0.579 -54.525 0.814 35.386
29251.25 0.815 35.362 0.579 -54.549 0.579 -54.549 0.815 35.362
29276.208 0.815 35.338 0.578 -54.574 0.578 -54.574 0.815 35.338
29301.167 0.815 35.313 0.578 -54.598 0.578 -54.598 0.815 35.313
29326.125 0.815 35.289 0.578 -54.622 0.578 -54.622 0.815 35.289
29351.083 0.816 35.265 0.577 -54.647 0.577 -54.647 0.816 35.265
29376.042 0.816 35.241 0.577 -54.671 0.577 -54.671 0.816 35.241
29401 0.816 35.217 0.577 -54.695 0.577 -54.695 0.816 35.217
29425.958 0.816 35.192 0.576 -54.719 0.576 -54.719 0.816 35.192
29450.917 0.817 35.168 0.576 -54.743 0.576 -54.743 0.817 35.168
29475.875 0.817 35.144 0.576 -54.768 0.576 -54.768 0.817 35.144
29500.833 0.817 35.12 0.575 -54.792 0.575 -54.792 0.817 35.12
29525.792 0.817 35.096 0.575 -54.816 0.575 -54.816 0.817 35.096
29550.75 0.818 35.072 0.575 -54.84 0.575 -54.84 0.818 35.072
29575.708 0.818 35.049 0.574 -54.864 0.574 -54.864 0.818 35.049
29600.667 0.818 35.025 0.574 -54.888 0.574 -54.888 0.818 35.025
29625.625 0.818 35.001 0.574 -54.912 0.574 -54.912 0.818 35.001
29650.583 0.819 34.977 0.573 -54.936 0.573 -54.936 0.819 34.977
29675.542 0.819 34.953 0.573 -54.959 0.573 -54.959 0.819 34.953
29700.5 0.819 34.929 0.573 -54.983 0.573 -54.983 0.819 34.929
29725.458 0.819 34.906 0.572 -55.007 0.572 -55.007 0.819 34.906
29750.417 0.819 34.882 0.572 -55.031 0.572 -55.031 0.819 34.882
29775.375 0.82 34.858 0.572 -55.055 0.572 -55.055 0.82 34.858
29800.333 0.82 34.835 0.571 -55.078 0.571 -55.078 0.82 34.835
29825.292 0.82 34.811 0.571 -55.102 0.571 -55.102 0.82 34.811
29850.25 0.82 34.787 0.571 -55.126 0.571 -55.126 0.82 34.787
29875.208 0.821 34.764 0.57 -55.149 0.57 -55.149 0.821 34.764
29900.167 0.821 34.74 0.57 -55.173 0.57 -55.173 0.821 34.74
29925.125 0.821 34.717 0.57 -55.197 0.57 -55.197 0.821 34.717
29950.083 0.821 34.693 0.569 -55.22 0.569 -55.22 0.821 34.693
29975.042 0.822 34.67 0.569 -55.244 0.569 -55.244 0.822 34.67
30000 0.822 34.646 0.569 -55.267 0.569 -55.267 0.822 34.646
