!	AVX Thin Film Operation 	Date: April 2014		
!	Description: Accu-P® Series, Thin Film  SMD RF Capacitor
!	Part Number: 06033J190FBSTR					
!								
# MHZ S MA R 50

50 0.858 -30.86 0.513 59.101 0.513 59.101 0.858 -30.86
74.958 0.744 -41.892 0.668 48.049 0.668 48.049 0.744 -41.892
99.917 0.64 -50.144 0.768 39.777 0.768 39.777 0.64 -50.144
124.875 0.553 -56.321 0.832 33.58 0.832 33.58 0.553 -56.321
149.833 0.483 -61.023 0.875 28.857 0.875 28.857 0.483 -61.023
174.792 0.425 -64.682 0.904 25.178 0.904 25.178 0.425 -64.682
199.75 0.379 -67.592 0.924 22.247 0.924 22.247 0.379 -67.592
224.708 0.34 -69.953 0.939 19.865 0.939 19.865 0.34 -69.953
249.667 0.307 -71.903 0.951 17.893 0.951 17.893 0.307 -71.903
274.625 0.28 -73.54 0.959 16.234 0.959 16.234 0.28 -73.54
299.583 0.256 -74.932 0.966 14.819 0.966 14.819 0.256 -74.932
324.542 0.235 -76.131 0.971 13.596 0.971 13.596 0.235 -76.131
349.5 0.217 -77.175 0.975 12.529 0.975 12.529 0.217 -77.175
374.458 0.201 -78.092 0.978 11.587 0.978 11.587 0.201 -78.092
399.417 0.187 -78.904 0.981 10.75 0.981 10.75 0.187 -78.904
424.375 0.174 -79.628 0.984 9.999 0.984 9.999 0.174 -79.628
449.333 0.162 -80.278 0.986 9.321 0.986 9.321 0.162 -80.278
474.292 0.151 -80.866 0.987 8.704 0.987 8.704 0.151 -80.866
499.25 0.142 -81.399 0.989 8.141 0.989 8.141 0.142 -81.399
524.208 0.133 -81.885 0.99 7.624 0.99 7.624 0.133 -81.885
549.167 0.124 -82.329 0.991 7.146 0.991 7.146 0.124 -82.329
574.125 0.117 -82.737 0.992 6.703 0.992 6.703 0.117 -82.737
599.083 0.11 -83.113 0.993 6.29 0.993 6.29 0.11 -83.113
624.042 0.103 -83.46 0.994 5.904 0.994 5.904 0.103 -83.46
649 0.097 -83.78 0.994 5.542 0.994 5.542 0.097 -83.78
673.958 0.091 -84.076 0.995 5.201 0.995 5.201 0.091 -84.076
698.917 0.085 -84.35 0.995 4.879 0.995 4.879 0.085 -84.35
723.875 0.08 -84.603 0.996 4.574 0.996 4.574 0.08 -84.603
748.833 0.075 -84.836 0.996 4.285 0.996 4.285 0.075 -84.836
773.792 0.07 -85.051 0.996 4.01 0.996 4.01 0.07 -85.051
798.75 0.065 -85.248 0.997 3.747 0.997 3.747 0.065 -85.248
823.708 0.061 -85.427 0.997 3.496 0.997 3.496 0.061 -85.427
848.667 0.057 -85.587 0.997 3.255 0.997 3.255 0.057 -85.587
873.625 0.053 -85.73 0.997 3.025 0.997 3.025 0.053 -85.73
898.583 0.049 -85.853 0.998 2.802 0.998 2.802 0.049 -85.853
923.542 0.045 -85.956 0.998 2.588 0.998 2.588 0.045 -85.956
948.5 0.042 -86.036 0.998 2.382 0.998 2.382 0.042 -86.036
973.458 0.038 -86.091 0.998 2.182 0.998 2.182 0.038 -86.091
998.417 0.035 -86.116 0.998 1.989 0.998 1.989 0.035 -86.116
1023.375 0.031 -86.107 0.998 1.802 0.998 1.802 0.031 -86.107
1048.333 0.028 -86.054 0.998 1.62 0.998 1.62 0.028 -86.054
1073.292 0.025 -85.947 0.999 1.444 0.999 1.444 0.025 -85.947
1098.25 0.022 -85.767 0.999 1.272 0.999 1.272 0.022 -85.767
1123.208 0.019 -85.487 0.999 1.105 0.999 1.105 0.019 -85.487
1148.167 0.016 -85.061 0.999 0.942 0.999 0.942 0.016 -85.061
1173.125 0.014 -84.412 0.999 0.783 0.999 0.783 0.014 -84.412
1198.083 0.011 -83.385 0.999 0.628 0.999 0.628 0.011 -83.385
1223.042 8.381e-3 -81.646 0.999 0.476 0.999 0.476 8.381e-3 -81.646
1248 5.822e-3 -78.292 0.999 0.327 0.999 0.327 5.822e-3 -78.292
1272.958 3.368e-3 -69.876 0.999 0.181 0.999 0.181 3.368e-3 -69.876
1297.917 1.333e-3 -30.422 0.999 0.039 0.999 0.039 1.333e-3 -30.422
1322.875 2.108e-3 56.872 0.999 -0.101 0.999 -0.101 2.108e-3 56.872
1347.833 4.321e-3 74.341 0.999 -0.239 0.999 -0.239 4.321e-3 74.341
1372.792 6.621e-3 79.634 0.999 -0.374 0.999 -0.374 6.621e-3 79.634
1397.75 8.909e-3 82.085 0.999 -0.506 0.999 -0.506 8.909e-3 82.085
1422.708 0.011 83.461 0.999 -0.637 0.999 -0.637 0.011 83.461
1447.667 0.013 84.318 0.999 -0.765 0.999 -0.765 0.013 84.318
1472.625 0.016 84.886 0.999 -0.891 0.999 -0.891 0.016 84.886
1497.583 0.018 85.277 0.999 -1.016 0.999 -1.016 0.018 85.277
1522.542 0.02 85.553 0.999 -1.139 0.999 -1.139 0.02 85.553
1547.5 0.022 85.75 0.999 -1.26 0.999 -1.26 0.022 85.75
1572.458 0.024 85.889 0.999 -1.379 0.999 -1.379 0.024 85.889
1597.417 0.026 85.986 0.999 -1.497 0.999 -1.497 0.026 85.986
1622.375 0.028 86.051 0.998 -1.613 0.998 -1.613 0.028 86.051
1647.333 0.03 86.091 0.998 -1.728 0.998 -1.728 0.03 86.091
1672.292 0.032 86.112 0.998 -1.842 0.998 -1.842 0.032 86.112
1697.25 0.034 86.117 0.998 -1.954 0.998 -1.954 0.034 86.117
1722.208 0.036 86.11 0.998 -2.065 0.998 -2.065 0.036 86.11
1747.167 0.038 86.092 0.998 -2.175 0.998 -2.175 0.038 86.092
1772.125 0.04 86.066 0.998 -2.284 0.998 -2.284 0.04 86.066
1797.083 0.042 86.033 0.998 -2.391 0.998 -2.391 0.042 86.033
1822.042 0.044 85.994 0.998 -2.498 0.998 -2.498 0.044 85.994
1847 0.045 85.949 0.998 -2.604 0.998 -2.604 0.045 85.949
1871.958 0.047 85.9 0.998 -2.708 0.998 -2.708 0.047 85.9
1896.917 0.049 85.848 0.998 -2.812 0.998 -2.812 0.049 85.848
1921.875 0.051 85.793 0.998 -2.915 0.998 -2.915 0.051 85.793
1946.833 0.053 85.734 0.997 -3.017 0.997 -3.017 0.053 85.734
1971.792 0.054 85.674 0.997 -3.118 0.997 -3.118 0.054 85.674
1996.75 0.056 85.611 0.997 -3.218 0.997 -3.218 0.056 85.611
2021.708 0.058 85.547 0.997 -3.318 0.997 -3.318 0.058 85.547
2046.667 0.06 85.481 0.997 -3.417 0.997 -3.417 0.06 85.481
2071.625 0.061 85.414 0.997 -3.515 0.997 -3.515 0.061 85.414
2096.583 0.063 85.345 0.997 -3.612 0.997 -3.612 0.063 85.345
2121.542 0.065 85.276 0.997 -3.709 0.997 -3.709 0.065 85.276
2146.5 0.066 85.205 0.997 -3.805 0.997 -3.805 0.066 85.205
2171.458 0.068 85.134 0.997 -3.901 0.997 -3.901 0.068 85.134
2196.417 0.07 85.062 0.996 -3.996 0.996 -3.996 0.07 85.062
2221.375 0.071 84.989 0.996 -4.09 0.996 -4.09 0.071 84.989
2246.333 0.073 84.916 0.996 -4.184 0.996 -4.184 0.073 84.916
2271.292 0.075 84.843 0.996 -4.277 0.996 -4.277 0.075 84.843
2296.25 0.076 84.769 0.996 -4.37 0.996 -4.37 0.076 84.769
2321.208 0.078 84.695 0.996 -4.462 0.996 -4.462 0.078 84.695
2346.167 0.079 84.62 0.996 -4.554 0.996 -4.554 0.079 84.62
2371.125 0.081 84.545 0.996 -4.645 0.996 -4.645 0.081 84.545
2396.083 0.083 84.47 0.995 -4.736 0.995 -4.736 0.083 84.47
2421.042 0.084 84.394 0.995 -4.826 0.995 -4.826 0.084 84.394
2446 0.086 84.319 0.995 -4.916 0.995 -4.916 0.086 84.319
2470.958 0.087 84.243 0.995 -5.005 0.995 -5.005 0.087 84.243
2495.917 0.089 84.168 0.995 -5.094 0.995 -5.094 0.089 84.168
2520.875 0.09 84.092 0.995 -5.183 0.995 -5.183 0.09 84.092
2545.833 0.092 84.016 0.995 -5.271 0.995 -5.271 0.092 84.016
2570.792 0.093 83.94 0.994 -5.359 0.994 -5.359 0.093 83.94
2595.75 0.095 83.863 0.994 -5.446 0.994 -5.446 0.095 83.863
2620.708 0.096 83.787 0.994 -5.533 0.994 -5.533 0.096 83.787
2645.667 0.098 83.711 0.994 -5.62 0.994 -5.62 0.098 83.711
2670.625 0.099 83.635 0.994 -5.706 0.994 -5.706 0.099 83.635
2695.583 0.101 83.559 0.994 -5.792 0.994 -5.792 0.101 83.559
2720.542 0.102 83.483 0.994 -5.878 0.994 -5.878 0.102 83.483
2745.5 0.104 83.406 0.993 -5.963 0.993 -5.963 0.104 83.406
2770.458 0.105 83.33 0.993 -6.048 0.993 -6.048 0.105 83.33
2795.417 0.107 83.254 0.993 -6.133 0.993 -6.133 0.107 83.254
2820.375 0.108 83.178 0.993 -6.218 0.993 -6.218 0.108 83.178
2845.333 0.11 83.102 0.993 -6.302 0.993 -6.302 0.11 83.102
2870.292 0.111 83.026 0.993 -6.386 0.993 -6.386 0.111 83.026
2895.25 0.113 82.95 0.992 -6.469 0.992 -6.469 0.113 82.95
2920.208 0.114 82.874 0.992 -6.553 0.992 -6.553 0.114 82.874
2945.167 0.116 82.798 0.992 -6.636 0.992 -6.636 0.116 82.798
2970.125 0.117 82.723 0.992 -6.719 0.992 -6.719 0.117 82.723
2995.083 0.118 82.647 0.992 -6.801 0.992 -6.801 0.118 82.647
3020.042 0.12 82.571 0.992 -6.884 0.992 -6.884 0.12 82.571
3045 0.121 82.496 0.991 -6.966 0.991 -6.966 0.121 82.496
3069.958 0.123 82.42 0.991 -7.047 0.991 -7.047 0.123 82.42
3094.917 0.124 82.345 0.991 -7.129 0.991 -7.129 0.124 82.345
3119.875 0.126 82.269 0.991 -7.21 0.991 -7.21 0.126 82.269
3144.833 0.127 82.194 0.991 -7.292 0.991 -7.292 0.127 82.194
3169.792 0.128 82.119 0.991 -7.373 0.991 -7.373 0.128 82.119
3194.75 0.13 82.044 0.99 -7.453 0.99 -7.453 0.13 82.044
3219.708 0.131 81.968 0.99 -7.534 0.99 -7.534 0.131 81.968
3244.667 0.133 81.893 0.99 -7.614 0.99 -7.614 0.133 81.893
3269.625 0.134 81.819 0.99 -7.694 0.99 -7.694 0.134 81.819
3294.583 0.135 81.744 0.99 -7.774 0.99 -7.774 0.135 81.744
3319.542 0.137 81.669 0.989 -7.854 0.989 -7.854 0.137 81.669
3344.5 0.138 81.594 0.989 -7.933 0.989 -7.933 0.138 81.594
3369.458 0.139 81.52 0.989 -8.013 0.989 -8.013 0.139 81.52
3394.417 0.141 81.445 0.989 -8.092 0.989 -8.092 0.141 81.445
3419.375 0.142 81.371 0.989 -8.171 0.989 -8.171 0.142 81.371
3444.333 0.143 81.296 0.989 -8.25 0.989 -8.25 0.143 81.296
3469.292 0.145 81.222 0.988 -8.328 0.988 -8.328 0.145 81.222
3494.25 0.146 81.148 0.988 -8.407 0.988 -8.407 0.146 81.148
3519.208 0.148 81.074 0.988 -8.485 0.988 -8.485 0.148 81.074
3544.167 0.149 81 0.988 -8.563 0.988 -8.563 0.149 81
3569.125 0.15 80.926 0.988 -8.641 0.988 -8.641 0.15 80.926
3594.083 0.152 80.852 0.987 -8.719 0.987 -8.719 0.152 80.852
3619.042 0.153 80.778 0.987 -8.797 0.987 -8.797 0.153 80.778
3644 0.154 80.704 0.987 -8.874 0.987 -8.874 0.154 80.704
3668.958 0.156 80.631 0.987 -8.951 0.987 -8.951 0.156 80.631
3693.917 0.157 80.557 0.986 -9.029 0.986 -9.029 0.157 80.557
3718.875 0.158 80.484 0.986 -9.106 0.986 -9.106 0.158 80.484
3743.833 0.16 80.41 0.986 -9.182 0.986 -9.182 0.16 80.41
3768.792 0.161 80.337 0.986 -9.259 0.986 -9.259 0.161 80.337
3793.75 0.162 80.264 0.986 -9.336 0.986 -9.336 0.162 80.264
3818.708 0.164 80.191 0.985 -9.412 0.985 -9.412 0.164 80.191
3843.667 0.165 80.118 0.985 -9.489 0.985 -9.489 0.165 80.118
3868.625 0.166 80.045 0.985 -9.565 0.985 -9.565 0.166 80.045
3893.583 0.167 79.972 0.985 -9.641 0.985 -9.641 0.167 79.972
3918.542 0.169 79.899 0.985 -9.717 0.985 -9.717 0.169 79.899
3943.5 0.17 79.826 0.984 -9.792 0.984 -9.792 0.17 79.826
3968.458 0.171 79.753 0.984 -9.868 0.984 -9.868 0.171 79.753
3993.417 0.173 79.681 0.984 -9.944 0.984 -9.944 0.173 79.681
4018.375 0.174 79.608 0.984 -10.019 0.984 -10.019 0.174 79.608
4043.333 0.175 79.536 0.983 -10.094 0.983 -10.094 0.175 79.536
4068.292 0.177 79.464 0.983 -10.169 0.983 -10.169 0.177 79.464
4093.25 0.178 79.391 0.983 -10.245 0.983 -10.245 0.178 79.391
4118.208 0.179 79.319 0.983 -10.319 0.983 -10.319 0.179 79.319
4143.167 0.18 79.247 0.982 -10.394 0.982 -10.394 0.18 79.247
4168.125 0.182 79.175 0.982 -10.469 0.982 -10.469 0.182 79.175
4193.083 0.183 79.103 0.982 -10.543 0.982 -10.543 0.183 79.103
4218.042 0.184 79.031 0.982 -10.618 0.982 -10.618 0.184 79.031
4243 0.186 78.959 0.982 -10.692 0.982 -10.692 0.186 78.959
4267.958 0.187 78.887 0.981 -10.766 0.981 -10.766 0.187 78.887
4292.917 0.188 78.816 0.981 -10.841 0.981 -10.841 0.188 78.816
4317.875 0.189 78.744 0.981 -10.915 0.981 -10.915 0.189 78.744
4342.833 0.191 78.673 0.981 -10.988 0.981 -10.988 0.191 78.673
4367.792 0.192 78.601 0.98 -11.062 0.98 -11.062 0.192 78.601
4392.75 0.193 78.53 0.98 -11.136 0.98 -11.136 0.193 78.53
4417.708 0.194 78.458 0.98 -11.21 0.98 -11.21 0.194 78.458
4442.667 0.196 78.387 0.98 -11.283 0.98 -11.283 0.196 78.387
4467.625 0.197 78.316 0.979 -11.356 0.979 -11.356 0.197 78.316
4492.583 0.198 78.245 0.979 -11.43 0.979 -11.43 0.198 78.245
4517.542 0.199 78.174 0.979 -11.503 0.979 -11.503 0.199 78.174
4542.5 0.201 78.103 0.979 -11.576 0.979 -11.576 0.201 78.103
4567.458 0.202 78.032 0.978 -11.649 0.978 -11.649 0.202 78.032
4592.417 0.203 77.961 0.978 -11.722 0.978 -11.722 0.203 77.961
4617.375 0.204 77.89 0.978 -11.794 0.978 -11.794 0.204 77.89
4642.333 0.206 77.82 0.978 -11.867 0.978 -11.867 0.206 77.82
4667.292 0.207 77.749 0.977 -11.94 0.977 -11.94 0.207 77.749
4692.25 0.208 77.678 0.977 -12.012 0.977 -12.012 0.208 77.678
4717.208 0.209 77.608 0.977 -12.085 0.977 -12.085 0.209 77.608
4742.167 0.211 77.538 0.976 -12.157 0.976 -12.157 0.211 77.538
4767.125 0.212 77.467 0.976 -12.229 0.976 -12.229 0.212 77.467
4792.083 0.213 77.397 0.976 -12.301 0.976 -12.301 0.213 77.397
4817.042 0.214 77.327 0.976 -12.373 0.976 -12.373 0.214 77.327
4842 0.216 77.257 0.975 -12.445 0.975 -12.445 0.216 77.257
4866.958 0.217 77.187 0.975 -12.517 0.975 -12.517 0.217 77.187
4891.917 0.218 77.117 0.975 -12.589 0.975 -12.589 0.218 77.117
4916.875 0.219 77.047 0.975 -12.66 0.975 -12.66 0.219 77.047
4941.833 0.22 76.977 0.974 -12.732 0.974 -12.732 0.22 76.977
4966.792 0.222 76.907 0.974 -12.803 0.974 -12.803 0.222 76.907
4991.75 0.223 76.837 0.974 -12.875 0.974 -12.875 0.223 76.837
5016.708 0.224 76.767 0.973 -12.946 0.973 -12.946 0.224 76.767
5041.667 0.225 76.698 0.973 -13.017 0.973 -13.017 0.225 76.698
5066.625 0.226 76.628 0.973 -13.089 0.973 -13.089 0.226 76.628
5091.583 0.228 76.559 0.973 -13.16 0.973 -13.16 0.228 76.559
5116.542 0.229 76.489 0.972 -13.231 0.972 -13.231 0.229 76.489
5141.5 0.23 76.42 0.972 -13.301 0.972 -13.301 0.23 76.42
5166.458 0.231 76.351 0.972 -13.372 0.972 -13.372 0.231 76.351
5191.417 0.232 76.282 0.971 -13.443 0.971 -13.443 0.232 76.282
5216.375 0.234 76.212 0.971 -13.514 0.971 -13.514 0.234 76.212
5241.333 0.235 76.143 0.971 -13.584 0.971 -13.584 0.235 76.143
5266.292 0.236 76.074 0.971 -13.655 0.971 -13.655 0.236 76.074
5291.25 0.237 76.005 0.97 -13.725 0.97 -13.725 0.237 76.005
5316.208 0.238 75.937 0.97 -13.795 0.97 -13.795 0.238 75.937
5341.167 0.24 75.868 0.97 -13.866 0.97 -13.866 0.24 75.868
5366.125 0.241 75.799 0.969 -13.936 0.969 -13.936 0.241 75.799
5391.083 0.242 75.73 0.969 -14.006 0.969 -14.006 0.242 75.73
5416.042 0.243 75.662 0.969 -14.076 0.969 -14.076 0.243 75.662
5441 0.244 75.593 0.969 -14.146 0.969 -14.146 0.244 75.593
5465.958 0.246 75.525 0.968 -14.216 0.968 -14.216 0.246 75.525
5490.917 0.247 75.456 0.968 -14.285 0.968 -14.285 0.247 75.456
5515.875 0.248 75.388 0.968 -14.355 0.968 -14.355 0.248 75.388
5540.833 0.249 75.319 0.967 -14.425 0.967 -14.425 0.249 75.319
5565.792 0.25 75.251 0.967 -14.494 0.967 -14.494 0.25 75.251
5590.75 0.251 75.183 0.967 -14.564 0.967 -14.564 0.251 75.183
5615.708 0.253 75.115 0.966 -14.633 0.966 -14.633 0.253 75.115
5640.667 0.254 75.047 0.966 -14.702 0.966 -14.702 0.254 75.047
5665.625 0.255 74.979 0.966 -14.772 0.966 -14.772 0.255 74.979
5690.583 0.256 74.911 0.966 -14.841 0.966 -14.841 0.256 74.911
5715.542 0.257 74.843 0.965 -14.91 0.965 -14.91 0.257 74.843
5740.5 0.258 74.775 0.965 -14.979 0.965 -14.979 0.258 74.775
5765.458 0.26 74.707 0.965 -15.048 0.965 -15.048 0.26 74.707
5790.417 0.261 74.64 0.964 -15.117 0.964 -15.117 0.261 74.64
5815.375 0.262 74.572 0.964 -15.185 0.964 -15.185 0.262 74.572
5840.333 0.263 74.504 0.964 -15.254 0.964 -15.254 0.263 74.504
5865.292 0.264 74.437 0.963 -15.323 0.963 -15.323 0.264 74.437
5890.25 0.265 74.369 0.963 -15.391 0.963 -15.391 0.265 74.369
5915.208 0.267 74.302 0.963 -15.46 0.963 -15.46 0.267 74.302
5940.167 0.268 74.235 0.962 -15.528 0.962 -15.528 0.268 74.235
5965.125 0.269 74.168 0.962 -15.597 0.962 -15.597 0.269 74.168
5990.083 0.27 74.1 0.962 -15.665 0.962 -15.665 0.27 74.1
6015.042 0.271 74.033 0.961 -15.733 0.961 -15.733 0.271 74.033
6040 0.272 73.966 0.961 -15.801 0.961 -15.801 0.272 73.966
6064.958 0.273 73.899 0.961 -15.869 0.961 -15.869 0.273 73.899
6089.917 0.275 73.832 0.96 -15.937 0.96 -15.937 0.275 73.832
6114.875 0.276 73.765 0.96 -16.005 0.96 -16.005 0.276 73.765
6139.833 0.277 73.698 0.96 -16.073 0.96 -16.073 0.277 73.698
6164.792 0.278 73.632 0.959 -16.141 0.959 -16.141 0.278 73.632
6189.75 0.279 73.565 0.959 -16.209 0.959 -16.209 0.279 73.565
6214.708 0.28 73.498 0.959 -16.276 0.959 -16.276 0.28 73.498
6239.667 0.281 73.432 0.958 -16.344 0.958 -16.344 0.281 73.432
6264.625 0.283 73.365 0.958 -16.411 0.958 -16.411 0.283 73.365
6289.583 0.284 73.299 0.958 -16.479 0.958 -16.479 0.284 73.299
6314.542 0.285 73.232 0.957 -16.546 0.957 -16.546 0.285 73.232
6339.5 0.286 73.166 0.957 -16.614 0.957 -16.614 0.286 73.166
6364.458 0.287 73.1 0.957 -16.681 0.957 -16.681 0.287 73.1
6389.417 0.288 73.033 0.956 -16.748 0.956 -16.748 0.288 73.033
6414.375 0.289 72.967 0.956 -16.815 0.956 -16.815 0.289 72.967
6439.333 0.29 72.901 0.956 -16.882 0.956 -16.882 0.29 72.901
6464.292 0.292 72.835 0.955 -16.949 0.955 -16.949 0.292 72.835
6489.25 0.293 72.769 0.955 -17.016 0.955 -17.016 0.293 72.769
6514.208 0.294 72.703 0.955 -17.083 0.955 -17.083 0.294 72.703
6539.167 0.295 72.637 0.954 -17.149 0.954 -17.149 0.295 72.637
6564.125 0.296 72.571 0.954 -17.216 0.954 -17.216 0.296 72.571
6589.083 0.297 72.506 0.954 -17.283 0.954 -17.283 0.297 72.506
6614.042 0.298 72.44 0.953 -17.349 0.953 -17.349 0.298 72.44
6639 0.299 72.374 0.953 -17.416 0.953 -17.416 0.299 72.374
6663.958 0.3 72.309 0.953 -17.482 0.953 -17.482 0.3 72.309
6688.917 0.302 72.243 0.952 -17.549 0.952 -17.549 0.302 72.243
6713.875 0.303 72.178 0.952 -17.615 0.952 -17.615 0.303 72.178
6738.833 0.304 72.112 0.952 -17.681 0.952 -17.681 0.304 72.112
6763.792 0.305 72.047 0.951 -17.747 0.951 -17.747 0.305 72.047
6788.75 0.306 71.982 0.951 -17.813 0.951 -17.813 0.306 71.982
6813.708 0.307 71.917 0.951 -17.879 0.951 -17.879 0.307 71.917
6838.667 0.308 71.851 0.95 -17.945 0.95 -17.945 0.308 71.851
6863.625 0.309 71.786 0.95 -18.011 0.95 -18.011 0.309 71.786
6888.583 0.31 71.721 0.95 -18.077 0.95 -18.077 0.31 71.721
6913.542 0.311 71.656 0.949 -18.143 0.949 -18.143 0.311 71.656
6938.5 0.312 71.591 0.949 -18.209 0.949 -18.209 0.312 71.591
6963.458 0.314 71.526 0.948 -18.274 0.948 -18.274 0.314 71.526
6988.417 0.315 71.462 0.948 -18.34 0.948 -18.34 0.315 71.462
7013.375 0.316 71.397 0.948 -18.405 0.948 -18.405 0.316 71.397
7038.333 0.317 71.332 0.947 -18.471 0.947 -18.471 0.317 71.332
7063.292 0.318 71.268 0.947 -18.536 0.947 -18.536 0.318 71.268
7088.25 0.319 71.203 0.947 -18.601 0.947 -18.601 0.319 71.203
7113.208 0.32 71.139 0.946 -18.667 0.946 -18.667 0.32 71.139
7138.167 0.321 71.074 0.946 -18.732 0.946 -18.732 0.321 71.074
7163.125 0.322 71.01 0.946 -18.797 0.946 -18.797 0.322 71.01
7188.083 0.323 70.945 0.945 -18.862 0.945 -18.862 0.323 70.945
7213.042 0.324 70.881 0.945 -18.927 0.945 -18.927 0.324 70.881
7238 0.325 70.817 0.944 -18.992 0.944 -18.992 0.325 70.817
7262.958 0.327 70.753 0.944 -19.057 0.944 -19.057 0.327 70.753
7287.917 0.328 70.689 0.944 -19.121 0.944 -19.121 0.328 70.689
7312.875 0.329 70.625 0.943 -19.186 0.943 -19.186 0.329 70.625
7337.833 0.33 70.561 0.943 -19.251 0.943 -19.251 0.33 70.561
7362.792 0.331 70.497 0.943 -19.315 0.943 -19.315 0.331 70.497
7387.75 0.332 70.433 0.942 -19.38 0.942 -19.38 0.332 70.433
7412.708 0.333 70.369 0.942 -19.444 0.942 -19.444 0.333 70.369
7437.667 0.334 70.305 0.942 -19.509 0.942 -19.509 0.334 70.305
7462.625 0.335 70.242 0.941 -19.573 0.941 -19.573 0.335 70.242
7487.583 0.336 70.178 0.941 -19.637 0.941 -19.637 0.336 70.178
7512.542 0.337 70.115 0.94 -19.702 0.94 -19.702 0.337 70.115
7537.5 0.338 70.051 0.94 -19.766 0.94 -19.766 0.338 70.051
7562.458 0.339 69.988 0.94 -19.83 0.94 -19.83 0.339 69.988
7587.417 0.34 69.924 0.939 -19.894 0.939 -19.894 0.34 69.924
7612.375 0.341 69.861 0.939 -19.958 0.939 -19.958 0.341 69.861
7637.333 0.342 69.798 0.938 -20.022 0.938 -20.022 0.342 69.798
7662.292 0.343 69.735 0.938 -20.085 0.938 -20.085 0.343 69.735
7687.25 0.344 69.671 0.938 -20.149 0.938 -20.149 0.344 69.671
7712.208 0.346 69.608 0.937 -20.213 0.937 -20.213 0.346 69.608
7737.167 0.347 69.545 0.937 -20.277 0.937 -20.277 0.347 69.545
7762.125 0.348 69.482 0.937 -20.34 0.937 -20.34 0.348 69.482
7787.083 0.349 69.419 0.936 -20.404 0.936 -20.404 0.349 69.419
7812.042 0.35 69.357 0.936 -20.467 0.936 -20.467 0.35 69.357
7837 0.351 69.294 0.935 -20.53 0.935 -20.53 0.351 69.294
7861.958 0.352 69.231 0.935 -20.594 0.935 -20.594 0.352 69.231
7886.917 0.353 69.168 0.935 -20.657 0.935 -20.657 0.353 69.168
7911.875 0.354 69.106 0.934 -20.72 0.934 -20.72 0.354 69.106
7936.833 0.355 69.043 0.934 -20.783 0.934 -20.783 0.355 69.043
7961.792 0.356 68.981 0.933 -20.846 0.933 -20.846 0.356 68.981
7986.75 0.357 68.918 0.933 -20.909 0.933 -20.909 0.357 68.918
8011.708 0.358 68.856 0.933 -20.972 0.933 -20.972 0.358 68.856
8036.667 0.359 68.794 0.932 -21.035 0.932 -21.035 0.359 68.794
8061.625 0.36 68.731 0.932 -21.098 0.932 -21.098 0.36 68.731
8086.583 0.361 68.669 0.932 -21.161 0.932 -21.161 0.361 68.669
8111.542 0.362 68.607 0.931 -21.223 0.931 -21.223 0.362 68.607
8136.5 0.363 68.545 0.931 -21.286 0.931 -21.286 0.363 68.545
8161.458 0.364 68.483 0.93 -21.349 0.93 -21.349 0.364 68.483
8186.417 0.365 68.421 0.93 -21.411 0.93 -21.411 0.365 68.421
8211.375 0.366 68.359 0.93 -21.473 0.93 -21.473 0.366 68.359
8236.333 0.367 68.297 0.929 -21.536 0.929 -21.536 0.367 68.297
8261.292 0.368 68.236 0.929 -21.598 0.929 -21.598 0.368 68.236
8286.25 0.369 68.174 0.928 -21.66 0.928 -21.66 0.369 68.174
8311.208 0.37 68.112 0.928 -21.723 0.928 -21.723 0.37 68.112
8336.167 0.371 68.051 0.928 -21.785 0.928 -21.785 0.371 68.051
8361.125 0.372 67.989 0.927 -21.847 0.927 -21.847 0.372 67.989
8386.083 0.373 67.928 0.927 -21.909 0.927 -21.909 0.373 67.928
8411.042 0.374 67.866 0.926 -21.971 0.926 -21.971 0.374 67.866
8436 0.375 67.805 0.926 -22.033 0.926 -22.033 0.375 67.805
8460.958 0.376 67.743 0.926 -22.094 0.926 -22.094 0.376 67.743
8485.917 0.377 67.682 0.925 -22.156 0.925 -22.156 0.377 67.682
8510.875 0.378 67.621 0.925 -22.218 0.925 -22.218 0.378 67.621
8535.833 0.379 67.56 0.924 -22.279 0.924 -22.279 0.379 67.56
8560.792 0.38 67.499 0.924 -22.341 0.924 -22.341 0.38 67.499
8585.75 0.381 67.438 0.923 -22.402 0.923 -22.402 0.381 67.438
8610.708 0.382 67.377 0.923 -22.464 0.923 -22.464 0.382 67.377
8635.667 0.383 67.316 0.923 -22.525 0.923 -22.525 0.383 67.316
8660.625 0.384 67.255 0.922 -22.587 0.922 -22.587 0.384 67.255
8685.583 0.385 67.194 0.922 -22.648 0.922 -22.648 0.385 67.194
8710.542 0.386 67.134 0.921 -22.709 0.921 -22.709 0.386 67.134
8735.5 0.387 67.073 0.921 -22.77 0.921 -22.77 0.387 67.073
8760.458 0.388 67.013 0.921 -22.831 0.921 -22.831 0.388 67.013
8785.417 0.389 66.952 0.92 -22.892 0.92 -22.892 0.389 66.952
8810.375 0.39 66.892 0.92 -22.953 0.92 -22.953 0.39 66.892
8835.333 0.391 66.831 0.919 -23.014 0.919 -23.014 0.391 66.831
8860.292 0.392 66.771 0.919 -23.075 0.919 -23.075 0.392 66.771
8885.25 0.393 66.71 0.919 -23.135 0.919 -23.135 0.393 66.71
8910.208 0.394 66.65 0.918 -23.196 0.918 -23.196 0.394 66.65
8935.167 0.395 66.59 0.918 -23.257 0.918 -23.257 0.395 66.59
8960.125 0.396 66.53 0.917 -23.317 0.917 -23.317 0.396 66.53
8985.083 0.397 66.47 0.917 -23.378 0.917 -23.378 0.397 66.47
9010.042 0.398 66.41 0.916 -23.438 0.916 -23.438 0.398 66.41
9035 0.399 66.35 0.916 -23.499 0.916 -23.499 0.399 66.35
9059.958 0.4 66.29 0.916 -23.559 0.916 -23.559 0.4 66.29
9084.917 0.401 66.23 0.915 -23.619 0.915 -23.619 0.401 66.23
9109.875 0.402 66.171 0.915 -23.679 0.915 -23.679 0.402 66.171
9134.833 0.403 66.111 0.914 -23.739 0.914 -23.739 0.403 66.111
9159.792 0.404 66.051 0.914 -23.8 0.914 -23.8 0.404 66.051
9184.75 0.404 65.992 0.913 -23.86 0.913 -23.86 0.404 65.992
9209.708 0.405 65.932 0.913 -23.919 0.913 -23.919 0.405 65.932
9234.667 0.406 65.873 0.913 -23.979 0.913 -23.979 0.406 65.873
9259.625 0.407 65.813 0.912 -24.039 0.912 -24.039 0.407 65.813
9284.583 0.408 65.754 0.912 -24.099 0.912 -24.099 0.408 65.754
9309.542 0.409 65.695 0.911 -24.159 0.911 -24.159 0.409 65.695
9334.5 0.41 65.635 0.911 -24.218 0.911 -24.218 0.41 65.635
9359.458 0.411 65.576 0.911 -24.278 0.911 -24.278 0.411 65.576
9384.417 0.412 65.517 0.91 -24.337 0.91 -24.337 0.412 65.517
9409.375 0.413 65.458 0.91 -24.397 0.91 -24.397 0.413 65.458
9434.333 0.414 65.399 0.909 -24.456 0.909 -24.456 0.414 65.399
9459.292 0.415 65.34 0.909 -24.515 0.909 -24.515 0.415 65.34
9484.25 0.416 65.281 0.908 -24.575 0.908 -24.575 0.416 65.281
9509.208 0.417 65.223 0.908 -24.634 0.908 -24.634 0.417 65.223
9534.167 0.418 65.164 0.908 -24.693 0.908 -24.693 0.418 65.164
9559.125 0.419 65.105 0.907 -24.752 0.907 -24.752 0.419 65.105
9584.083 0.42 65.046 0.907 -24.811 0.907 -24.811 0.42 65.046
9609.042 0.421 64.988 0.906 -24.87 0.906 -24.87 0.421 64.988
9634 0.421 64.929 0.906 -24.929 0.906 -24.929 0.421 64.929
9658.958 0.422 64.871 0.905 -24.988 0.905 -24.988 0.422 64.871
9683.917 0.423 64.813 0.905 -25.047 0.905 -25.047 0.423 64.813
9708.875 0.424 64.754 0.904 -25.105 0.904 -25.105 0.424 64.754
9733.833 0.425 64.696 0.904 -25.164 0.904 -25.164 0.425 64.696
9758.792 0.426 64.638 0.904 -25.222 0.904 -25.222 0.426 64.638
9783.75 0.427 64.58 0.903 -25.281 0.903 -25.281 0.427 64.58
9808.708 0.428 64.522 0.903 -25.339 0.903 -25.339 0.428 64.522
9833.667 0.429 64.464 0.902 -25.398 0.902 -25.398 0.429 64.464
9858.625 0.43 64.406 0.902 -25.456 0.902 -25.456 0.43 64.406
9883.583 0.431 64.348 0.901 -25.514 0.901 -25.514 0.431 64.348
9908.542 0.432 64.29 0.901 -25.573 0.901 -25.573 0.432 64.29
9933.5 0.433 64.232 0.901 -25.631 0.901 -25.631 0.433 64.232
9958.458 0.433 64.174 0.9 -25.689 0.9 -25.689 0.433 64.174
9983.417 0.434 64.117 0.9 -25.747 0.9 -25.747 0.434 64.117
10008.375 0.435 64.059 0.899 -25.805 0.899 -25.805 0.435 64.059
10033.333 0.436 64.001 0.899 -25.863 0.899 -25.863 0.436 64.001
10058.292 0.437 63.944 0.898 -25.921 0.898 -25.921 0.437 63.944
10083.25 0.438 63.887 0.898 -25.978 0.898 -25.978 0.438 63.887
10108.208 0.439 63.829 0.897 -26.036 0.897 -26.036 0.439 63.829
10133.167 0.44 63.772 0.897 -26.094 0.897 -26.094 0.44 63.772
10158.125 0.441 63.715 0.897 -26.151 0.897 -26.151 0.441 63.715
10183.083 0.442 63.657 0.896 -26.209 0.896 -26.209 0.442 63.657
10208.042 0.443 63.6 0.896 -26.266 0.896 -26.266 0.443 63.6
10233 0.443 63.543 0.895 -26.324 0.895 -26.324 0.443 63.543
10257.958 0.444 63.486 0.895 -26.381 0.895 -26.381 0.444 63.486
10282.917 0.445 63.429 0.894 -26.438 0.894 -26.438 0.445 63.429
10307.875 0.446 63.372 0.894 -26.496 0.894 -26.496 0.446 63.372
10332.833 0.447 63.316 0.893 -26.553 0.893 -26.553 0.447 63.316
10357.792 0.448 63.259 0.893 -26.61 0.893 -26.61 0.448 63.259
10382.75 0.449 63.202 0.893 -26.667 0.893 -26.667 0.449 63.202
10407.708 0.45 63.145 0.892 -26.724 0.892 -26.724 0.45 63.145
10432.667 0.451 63.089 0.892 -26.781 0.892 -26.781 0.451 63.089
10457.625 0.451 63.032 0.891 -26.838 0.891 -26.838 0.451 63.032
10482.583 0.452 62.976 0.891 -26.894 0.891 -26.894 0.452 62.976
10507.542 0.453 62.919 0.89 -26.951 0.89 -26.951 0.453 62.919
10532.5 0.454 62.863 0.89 -27.008 0.89 -27.008 0.454 62.863
10557.458 0.455 62.807 0.889 -27.064 0.889 -27.064 0.455 62.807
10582.417 0.456 62.75 0.889 -27.121 0.889 -27.121 0.456 62.75
10607.375 0.457 62.694 0.889 -27.177 0.889 -27.177 0.457 62.694
10632.333 0.458 62.638 0.888 -27.234 0.888 -27.234 0.458 62.638
10657.292 0.459 62.582 0.888 -27.29 0.888 -27.29 0.459 62.582
10682.25 0.459 62.526 0.887 -27.347 0.887 -27.347 0.459 62.526
10707.208 0.46 62.47 0.887 -27.403 0.887 -27.403 0.46 62.47
10732.167 0.461 62.414 0.886 -27.459 0.886 -27.459 0.461 62.414
10757.125 0.462 62.358 0.886 -27.515 0.886 -27.515 0.462 62.358
10782.083 0.463 62.303 0.885 -27.571 0.885 -27.571 0.463 62.303
10807.042 0.464 62.247 0.885 -27.627 0.885 -27.627 0.464 62.247
10832 0.465 62.191 0.885 -27.683 0.885 -27.683 0.465 62.191
10856.958 0.465 62.136 0.884 -27.739 0.884 -27.739 0.465 62.136
10881.917 0.466 62.08 0.884 -27.795 0.884 -27.795 0.466 62.08
10906.875 0.467 62.025 0.883 -27.851 0.883 -27.851 0.467 62.025
10931.833 0.468 61.969 0.883 -27.906 0.883 -27.906 0.468 61.969
10956.792 0.469 61.914 0.882 -27.962 0.882 -27.962 0.469 61.914
10981.75 0.47 61.859 0.882 -28.018 0.882 -28.018 0.47 61.859
11006.708 0.471 61.803 0.881 -28.073 0.881 -28.073 0.471 61.803
11031.667 0.471 61.748 0.881 -28.129 0.881 -28.129 0.471 61.748
11056.625 0.472 61.693 0.88 -28.184 0.88 -28.184 0.472 61.693
11081.583 0.473 61.638 0.88 -28.239 0.88 -28.239 0.473 61.638
11106.542 0.474 61.583 0.88 -28.295 0.88 -28.295 0.474 61.583
11131.5 0.475 61.528 0.879 -28.35 0.879 -28.35 0.475 61.528
11156.458 0.476 61.473 0.879 -28.405 0.879 -28.405 0.476 61.473
11181.417 0.477 61.419 0.878 -28.46 0.878 -28.46 0.477 61.419
11206.375 0.477 61.364 0.878 -28.515 0.878 -28.515 0.477 61.364
11231.333 0.478 61.309 0.877 -28.57 0.877 -28.57 0.478 61.309
11256.292 0.479 61.254 0.877 -28.625 0.877 -28.625 0.479 61.254
11281.25 0.48 61.2 0.876 -28.68 0.876 -28.68 0.48 61.2
11306.208 0.481 61.145 0.876 -28.734 0.876 -28.734 0.481 61.145
11331.167 0.482 61.091 0.875 -28.789 0.875 -28.789 0.482 61.091
11356.125 0.482 61.037 0.875 -28.844 0.875 -28.844 0.482 61.037
11381.083 0.483 60.982 0.874 -28.898 0.874 -28.898 0.483 60.982
11406.042 0.484 60.928 0.874 -28.953 0.874 -28.953 0.484 60.928
11431 0.485 60.874 0.874 -29.008 0.874 -29.008 0.485 60.874
11455.958 0.486 60.82 0.873 -29.062 0.873 -29.062 0.486 60.82
11480.917 0.487 60.765 0.873 -29.116 0.873 -29.116 0.487 60.765
11505.875 0.487 60.711 0.872 -29.171 0.872 -29.171 0.487 60.711
11530.833 0.488 60.657 0.872 -29.225 0.872 -29.225 0.488 60.657
11555.792 0.489 60.604 0.871 -29.279 0.871 -29.279 0.489 60.604
11580.75 0.49 60.55 0.871 -29.333 0.871 -29.333 0.49 60.55
11605.708 0.491 60.496 0.87 -29.387 0.87 -29.387 0.491 60.496
11630.667 0.492 60.442 0.87 -29.441 0.87 -29.441 0.492 60.442
11655.625 0.492 60.388 0.869 -29.495 0.869 -29.495 0.492 60.388
11680.583 0.493 60.335 0.869 -29.549 0.869 -29.549 0.493 60.335
11705.542 0.494 60.281 0.868 -29.603 0.868 -29.603 0.494 60.281
11730.5 0.495 60.228 0.868 -29.657 0.868 -29.657 0.495 60.228
11755.458 0.496 60.174 0.868 -29.71 0.868 -29.71 0.496 60.174
11780.417 0.496 60.121 0.867 -29.764 0.867 -29.764 0.496 60.121
11805.375 0.497 60.068 0.867 -29.818 0.867 -29.818 0.497 60.068
11830.333 0.498 60.014 0.866 -29.871 0.866 -29.871 0.498 60.014
11855.292 0.499 59.961 0.866 -29.925 0.866 -29.925 0.499 59.961
11880.25 0.5 59.908 0.865 -29.978 0.865 -29.978 0.5 59.908
11905.208 0.5 59.855 0.865 -30.031 0.865 -30.031 0.5 59.855
11930.167 0.501 59.802 0.864 -30.085 0.864 -30.085 0.501 59.802
11955.125 0.502 59.749 0.864 -30.138 0.864 -30.138 0.502 59.749
11980.083 0.503 59.696 0.863 -30.191 0.863 -30.191 0.503 59.696
12005.042 0.504 59.643 0.863 -30.244 0.863 -30.244 0.504 59.643
12030 0.504 59.59 0.862 -30.297 0.862 -30.297 0.504 59.59
12054.958 0.505 59.537 0.862 -30.35 0.862 -30.35 0.505 59.537
12079.917 0.506 59.485 0.861 -30.403 0.861 -30.403 0.506 59.485
12104.875 0.507 59.432 0.861 -30.456 0.861 -30.456 0.507 59.432
12129.833 0.508 59.38 0.861 -30.509 0.861 -30.509 0.508 59.38
12154.792 0.508 59.327 0.86 -30.561 0.86 -30.561 0.508 59.327
12179.75 0.509 59.275 0.86 -30.614 0.86 -30.614 0.509 59.275
12204.708 0.51 59.222 0.859 -30.667 0.859 -30.667 0.51 59.222
12229.667 0.511 59.17 0.859 -30.719 0.859 -30.719 0.511 59.17
12254.625 0.512 59.118 0.858 -30.772 0.858 -30.772 0.512 59.118
12279.583 0.512 59.065 0.858 -30.824 0.858 -30.824 0.512 59.065
12304.542 0.513 59.013 0.857 -30.877 0.857 -30.877 0.513 59.013
12329.5 0.514 58.961 0.857 -30.929 0.857 -30.929 0.514 58.961
12354.458 0.515 58.909 0.856 -30.981 0.856 -30.981 0.515 58.909
12379.417 0.516 58.857 0.856 -31.033 0.856 -31.033 0.516 58.857
12404.375 0.516 58.805 0.855 -31.086 0.855 -31.086 0.516 58.805
12429.333 0.517 58.753 0.855 -31.138 0.855 -31.138 0.517 58.753
12454.292 0.518 58.702 0.854 -31.19 0.854 -31.19 0.518 58.702
12479.25 0.519 58.65 0.854 -31.242 0.854 -31.242 0.519 58.65
12504.208 0.519 58.598 0.854 -31.293 0.854 -31.293 0.519 58.598
12529.167 0.52 58.547 0.853 -31.345 0.853 -31.345 0.52 58.547
12554.125 0.521 58.495 0.853 -31.397 0.853 -31.397 0.521 58.495
12579.083 0.522 58.443 0.852 -31.449 0.852 -31.449 0.522 58.443
12604.042 0.523 58.392 0.852 -31.501 0.852 -31.501 0.523 58.392
12629 0.523 58.341 0.851 -31.552 0.851 -31.552 0.523 58.341
12653.958 0.524 58.289 0.851 -31.604 0.851 -31.604 0.524 58.289
12678.917 0.525 58.238 0.85 -31.655 0.85 -31.655 0.525 58.238
12703.875 0.526 58.187 0.85 -31.707 0.85 -31.707 0.526 58.187
12728.833 0.526 58.136 0.849 -31.758 0.849 -31.758 0.526 58.136
12753.792 0.527 58.085 0.849 -31.809 0.849 -31.809 0.527 58.085
12778.75 0.528 58.033 0.848 -31.861 0.848 -31.861 0.528 58.033
12803.708 0.529 57.982 0.848 -31.912 0.848 -31.912 0.529 57.982
12828.667 0.529 57.932 0.847 -31.963 0.847 -31.963 0.529 57.932
12853.625 0.53 57.881 0.847 -32.014 0.847 -32.014 0.53 57.881
12878.583 0.531 57.83 0.846 -32.065 0.846 -32.065 0.531 57.83
12903.542 0.532 57.779 0.846 -32.116 0.846 -32.116 0.532 57.779
12928.5 0.532 57.728 0.846 -32.167 0.846 -32.167 0.532 57.728
12953.458 0.533 57.678 0.845 -32.218 0.845 -32.218 0.533 57.678
12978.417 0.534 57.627 0.845 -32.268 0.845 -32.268 0.534 57.627
13003.375 0.535 57.577 0.844 -32.319 0.844 -32.319 0.535 57.577
13028.333 0.535 57.526 0.844 -32.37 0.844 -32.37 0.535 57.526
13053.292 0.536 57.476 0.843 -32.42 0.843 -32.42 0.536 57.476
13078.25 0.537 57.425 0.843 -32.471 0.843 -32.471 0.537 57.425
13103.208 0.538 57.375 0.842 -32.522 0.842 -32.522 0.538 57.375
13128.167 0.538 57.325 0.842 -32.572 0.842 -32.572 0.538 57.325
13153.125 0.539 57.275 0.841 -32.622 0.841 -32.622 0.539 57.275
13178.083 0.54 57.225 0.841 -32.673 0.841 -32.673 0.54 57.225
13203.042 0.541 57.175 0.84 -32.723 0.84 -32.723 0.541 57.175
13228 0.541 57.125 0.84 -32.773 0.84 -32.773 0.541 57.125
13252.958 0.542 57.075 0.839 -32.823 0.839 -32.823 0.542 57.075
13277.917 0.543 57.025 0.839 -32.873 0.839 -32.873 0.543 57.025
13302.875 0.544 56.975 0.838 -32.923 0.838 -32.923 0.544 56.975
13327.833 0.544 56.925 0.838 -32.973 0.838 -32.973 0.544 56.925
13352.792 0.545 56.875 0.837 -33.023 0.837 -33.023 0.545 56.875
13377.75 0.546 56.826 0.837 -33.073 0.837 -33.073 0.546 56.826
13402.708 0.546 56.776 0.837 -33.123 0.837 -33.123 0.546 56.776
13427.667 0.547 56.727 0.836 -33.173 0.836 -33.173 0.547 56.727
13452.625 0.548 56.677 0.836 -33.222 0.836 -33.222 0.548 56.677
13477.583 0.549 56.628 0.835 -33.272 0.835 -33.272 0.549 56.628
13502.542 0.549 56.578 0.835 -33.321 0.835 -33.321 0.549 56.578
13527.5 0.55 56.529 0.834 -33.371 0.834 -33.371 0.55 56.529
13552.458 0.551 56.48 0.834 -33.42 0.834 -33.42 0.551 56.48
13577.417 0.551 56.431 0.833 -33.47 0.833 -33.47 0.551 56.431
13602.375 0.552 56.381 0.833 -33.519 0.833 -33.519 0.552 56.381
13627.333 0.553 56.332 0.832 -33.568 0.832 -33.568 0.553 56.332
13652.292 0.554 56.283 0.832 -33.618 0.832 -33.618 0.554 56.283
13677.25 0.554 56.234 0.831 -33.667 0.831 -33.667 0.554 56.234
13702.208 0.555 56.185 0.831 -33.716 0.831 -33.716 0.555 56.185
13727.167 0.556 56.137 0.83 -33.765 0.83 -33.765 0.556 56.137
13752.125 0.556 56.088 0.83 -33.814 0.83 -33.814 0.556 56.088
13777.083 0.557 56.039 0.829 -33.863 0.829 -33.863 0.557 56.039
13802.042 0.558 55.99 0.829 -33.912 0.829 -33.912 0.558 55.99
13827 0.559 55.942 0.828 -33.96 0.828 -33.96 0.559 55.942
13851.958 0.559 55.893 0.828 -34.009 0.828 -34.009 0.559 55.893
13876.917 0.56 55.845 0.828 -34.058 0.828 -34.058 0.56 55.845
13901.875 0.561 55.796 0.827 -34.107 0.827 -34.107 0.561 55.796
13926.833 0.561 55.748 0.827 -34.155 0.827 -34.155 0.561 55.748
13951.792 0.562 55.699 0.826 -34.204 0.826 -34.204 0.562 55.699
13976.75 0.563 55.651 0.826 -34.252 0.826 -34.252 0.563 55.651
14001.708 0.564 55.603 0.825 -34.301 0.825 -34.301 0.564 55.603
14026.667 0.564 55.555 0.825 -34.349 0.825 -34.349 0.564 55.555
14051.625 0.565 55.507 0.824 -34.397 0.824 -34.397 0.565 55.507
14076.583 0.566 55.459 0.824 -34.445 0.824 -34.445 0.566 55.459
14101.542 0.566 55.411 0.823 -34.494 0.823 -34.494 0.566 55.411
14126.5 0.567 55.363 0.823 -34.542 0.823 -34.542 0.567 55.363
14151.458 0.568 55.315 0.822 -34.59 0.822 -34.59 0.568 55.315
14176.417 0.568 55.267 0.822 -34.638 0.822 -34.638 0.568 55.267
14201.375 0.569 55.219 0.821 -34.686 0.821 -34.686 0.569 55.219
14226.333 0.57 55.171 0.821 -34.734 0.821 -34.734 0.57 55.171
14251.292 0.57 55.124 0.82 -34.781 0.82 -34.781 0.57 55.124
14276.25 0.571 55.076 0.82 -34.829 0.82 -34.829 0.571 55.076
14301.208 0.572 55.029 0.819 -34.877 0.819 -34.877 0.572 55.029
14326.167 0.572 54.981 0.819 -34.925 0.819 -34.925 0.572 54.981
14351.125 0.573 54.934 0.818 -34.972 0.818 -34.972 0.573 54.934
14376.083 0.574 54.886 0.818 -35.02 0.818 -35.02 0.574 54.886
14401.042 0.575 54.839 0.818 -35.067 0.818 -35.067 0.575 54.839
14426 0.575 54.792 0.817 -35.115 0.817 -35.115 0.575 54.792
14450.958 0.576 54.744 0.817 -35.162 0.817 -35.162 0.576 54.744
14475.917 0.577 54.697 0.816 -35.209 0.816 -35.209 0.577 54.697
14500.875 0.577 54.65 0.816 -35.257 0.816 -35.257 0.577 54.65
14525.833 0.578 54.603 0.815 -35.304 0.815 -35.304 0.578 54.603
14550.792 0.579 54.556 0.815 -35.351 0.815 -35.351 0.579 54.556
14575.75 0.579 54.509 0.814 -35.398 0.814 -35.398 0.579 54.509
14600.708 0.58 54.462 0.814 -35.445 0.814 -35.445 0.58 54.462
14625.667 0.581 54.415 0.813 -35.492 0.813 -35.492 0.581 54.415
14650.625 0.581 54.369 0.813 -35.539 0.813 -35.539 0.581 54.369
14675.583 0.582 54.322 0.812 -35.586 0.812 -35.586 0.582 54.322
14700.542 0.583 54.275 0.812 -35.633 0.812 -35.633 0.583 54.275
14725.5 0.583 54.229 0.811 -35.68 0.811 -35.68 0.583 54.229
14750.458 0.584 54.182 0.811 -35.726 0.811 -35.726 0.584 54.182
14775.417 0.585 54.136 0.81 -35.773 0.81 -35.773 0.585 54.136
14800.375 0.585 54.089 0.81 -35.82 0.81 -35.82 0.585 54.089
14825.333 0.586 54.043 0.809 -35.866 0.809 -35.866 0.586 54.043
14850.292 0.587 53.996 0.809 -35.913 0.809 -35.913 0.587 53.996
14875.25 0.587 53.95 0.809 -35.959 0.809 -35.959 0.587 53.95
14900.208 0.588 53.904 0.808 -36.005 0.808 -36.005 0.588 53.904
14925.167 0.589 53.858 0.808 -36.052 0.808 -36.052 0.589 53.858
14950.125 0.589 53.812 0.807 -36.098 0.807 -36.098 0.589 53.812
14975.083 0.59 53.766 0.807 -36.144 0.807 -36.144 0.59 53.766
15000.042 0.59 53.72 0.806 -36.19 0.806 -36.19 0.59 53.72
15025 0.591 53.674 0.806 -36.236 0.806 -36.236 0.591 53.674
15049.958 0.592 53.628 0.805 -36.282 0.805 -36.282 0.592 53.628
15074.917 0.592 53.582 0.805 -36.328 0.805 -36.328 0.592 53.582
15099.875 0.593 53.536 0.804 -36.374 0.804 -36.374 0.593 53.536
15124.833 0.594 53.49 0.804 -36.42 0.804 -36.42 0.594 53.49
15149.792 0.594 53.445 0.803 -36.466 0.803 -36.466 0.594 53.445
15174.75 0.595 53.399 0.803 -36.512 0.803 -36.512 0.595 53.399
15199.708 0.596 53.354 0.802 -36.558 0.802 -36.558 0.596 53.354
15224.667 0.596 53.308 0.802 -36.603 0.802 -36.603 0.596 53.308
15249.625 0.597 53.263 0.801 -36.649 0.801 -36.649 0.597 53.263
15274.583 0.598 53.217 0.801 -36.694 0.801 -36.694 0.598 53.217
15299.542 0.598 53.172 0.8 -36.74 0.8 -36.74 0.598 53.172
15324.5 0.599 53.127 0.8 -36.785 0.8 -36.785 0.599 53.127
15349.458 0.599 53.081 0.799 -36.831 0.799 -36.831 0.599 53.081
15374.417 0.6 53.036 0.799 -36.876 0.799 -36.876 0.6 53.036
15399.375 0.601 52.991 0.799 -36.921 0.799 -36.921 0.601 52.991
15424.333 0.601 52.946 0.798 -36.966 0.798 -36.966 0.601 52.946
15449.292 0.602 52.901 0.798 -37.012 0.798 -37.012 0.602 52.901
15474.25 0.603 52.856 0.797 -37.057 0.797 -37.057 0.603 52.856
15499.208 0.603 52.811 0.797 -37.102 0.797 -37.102 0.603 52.811
15524.167 0.604 52.766 0.796 -37.147 0.796 -37.147 0.604 52.766
15549.125 0.604 52.722 0.796 -37.192 0.796 -37.192 0.604 52.722
15574.083 0.605 52.677 0.795 -37.237 0.795 -37.237 0.605 52.677
15599.042 0.606 52.632 0.795 -37.281 0.795 -37.281 0.606 52.632
15624 0.606 52.587 0.794 -37.326 0.794 -37.326 0.606 52.587
15648.958 0.607 52.543 0.794 -37.371 0.794 -37.371 0.607 52.543
15673.917 0.608 52.498 0.793 -37.416 0.793 -37.416 0.608 52.498
15698.875 0.608 52.454 0.793 -37.46 0.793 -37.46 0.608 52.454
15723.833 0.609 52.409 0.792 -37.505 0.792 -37.505 0.609 52.409
15748.792 0.609 52.365 0.792 -37.549 0.792 -37.549 0.609 52.365
15773.75 0.61 52.321 0.791 -37.594 0.791 -37.594 0.61 52.321
15798.708 0.611 52.276 0.791 -37.638 0.791 -37.638 0.611 52.276
15823.667 0.611 52.232 0.791 -37.682 0.791 -37.682 0.611 52.232
15848.625 0.612 52.188 0.79 -37.727 0.79 -37.727 0.612 52.188
15873.583 0.613 52.144 0.79 -37.771 0.79 -37.771 0.613 52.144
15898.542 0.613 52.1 0.789 -37.815 0.789 -37.815 0.613 52.1
15923.5 0.614 52.056 0.789 -37.859 0.789 -37.859 0.614 52.056
15948.458 0.614 52.012 0.788 -37.903 0.788 -37.903 0.614 52.012
15973.417 0.615 51.968 0.788 -37.947 0.788 -37.947 0.615 51.968
15998.375 0.616 51.924 0.787 -37.991 0.787 -37.991 0.616 51.924
16023.333 0.616 51.881 0.787 -38.035 0.787 -38.035 0.616 51.881
16048.292 0.617 51.837 0.786 -38.079 0.786 -38.079 0.617 51.837
16073.25 0.617 51.793 0.786 -38.123 0.786 -38.123 0.617 51.793
16098.208 0.618 51.749 0.785 -38.167 0.785 -38.167 0.618 51.749
16123.167 0.619 51.706 0.785 -38.21 0.785 -38.21 0.619 51.706
16148.125 0.619 51.662 0.784 -38.254 0.784 -38.254 0.619 51.662
16173.083 0.62 51.619 0.784 -38.298 0.784 -38.298 0.62 51.619
16198.042 0.62 51.576 0.783 -38.341 0.783 -38.341 0.62 51.576
16223 0.621 51.532 0.783 -38.385 0.783 -38.385 0.621 51.532
16247.958 0.622 51.489 0.782 -38.428 0.782 -38.428 0.622 51.489
16272.917 0.622 51.446 0.782 -38.472 0.782 -38.472 0.622 51.446
16297.875 0.623 51.402 0.782 -38.515 0.782 -38.515 0.623 51.402
16322.833 0.623 51.359 0.781 -38.558 0.781 -38.558 0.623 51.359
16347.792 0.624 51.316 0.781 -38.601 0.781 -38.601 0.624 51.316
16372.75 0.624 51.273 0.78 -38.645 0.78 -38.645 0.624 51.273
16397.708 0.625 51.23 0.78 -38.688 0.78 -38.688 0.625 51.23
16422.667 0.626 51.187 0.779 -38.731 0.779 -38.731 0.626 51.187
16447.625 0.626 51.144 0.779 -38.774 0.779 -38.774 0.626 51.144
16472.583 0.627 51.101 0.778 -38.817 0.778 -38.817 0.627 51.101
16497.542 0.627 51.059 0.778 -38.86 0.778 -38.86 0.627 51.059
16522.5 0.628 51.016 0.777 -38.902 0.777 -38.902 0.628 51.016
16547.458 0.629 50.973 0.777 -38.945 0.777 -38.945 0.629 50.973
16572.417 0.629 50.931 0.776 -38.988 0.776 -38.988 0.629 50.931
16597.375 0.63 50.888 0.776 -39.031 0.776 -39.031 0.63 50.888
16622.333 0.63 50.846 0.775 -39.073 0.775 -39.073 0.63 50.846
16647.292 0.631 50.803 0.775 -39.116 0.775 -39.116 0.631 50.803
16672.25 0.631 50.761 0.775 -39.158 0.775 -39.158 0.631 50.761
16697.208 0.632 50.718 0.774 -39.201 0.774 -39.201 0.632 50.718
16722.167 0.633 50.676 0.774 -39.243 0.774 -39.243 0.633 50.676
16747.125 0.633 50.634 0.773 -39.286 0.773 -39.286 0.633 50.634
16772.083 0.634 50.592 0.773 -39.328 0.773 -39.328 0.634 50.592
16797.042 0.634 50.549 0.772 -39.37 0.772 -39.37 0.634 50.549
16822 0.635 50.507 0.772 -39.413 0.772 -39.413 0.635 50.507
16846.958 0.635 50.465 0.771 -39.455 0.771 -39.455 0.635 50.465
16871.917 0.636 50.423 0.771 -39.497 0.771 -39.497 0.636 50.423
16896.875 0.637 50.381 0.77 -39.539 0.77 -39.539 0.637 50.381
16921.833 0.637 50.339 0.77 -39.581 0.77 -39.581 0.637 50.339
16946.792 0.638 50.297 0.769 -39.623 0.769 -39.623 0.638 50.297
16971.75 0.638 50.256 0.769 -39.665 0.769 -39.665 0.638 50.256
16996.708 0.639 50.214 0.768 -39.707 0.768 -39.707 0.639 50.214
17021.667 0.639 50.172 0.768 -39.749 0.768 -39.749 0.639 50.172
17046.625 0.64 50.131 0.768 -39.79 0.768 -39.79 0.64 50.131
17071.583 0.641 50.089 0.767 -39.832 0.767 -39.832 0.641 50.089
17096.542 0.641 50.047 0.767 -39.874 0.767 -39.874 0.641 50.047
17121.5 0.642 50.006 0.766 -39.915 0.766 -39.915 0.642 50.006
17146.458 0.642 49.964 0.766 -39.957 0.766 -39.957 0.642 49.964
17171.417 0.643 49.923 0.765 -39.998 0.765 -39.998 0.643 49.923
17196.375 0.643 49.882 0.765 -40.04 0.765 -40.04 0.643 49.882
17221.333 0.644 49.84 0.764 -40.081 0.764 -40.081 0.644 49.84
17246.292 0.644 49.799 0.764 -40.123 0.764 -40.123 0.644 49.799
17271.25 0.645 49.758 0.763 -40.164 0.763 -40.164 0.645 49.758
17296.208 0.646 49.717 0.763 -40.205 0.763 -40.205 0.646 49.717
17321.167 0.646 49.676 0.762 -40.246 0.762 -40.246 0.646 49.676
17346.125 0.647 49.635 0.762 -40.288 0.762 -40.288 0.647 49.635
17371.083 0.647 49.594 0.761 -40.329 0.761 -40.329 0.647 49.594
17396.042 0.648 49.553 0.761 -40.37 0.761 -40.37 0.648 49.553
17421 0.648 49.512 0.761 -40.411 0.761 -40.411 0.648 49.512
17445.958 0.649 49.471 0.76 -40.452 0.76 -40.452 0.649 49.471
17470.917 0.649 49.43 0.76 -40.493 0.76 -40.493 0.649 49.43
17495.875 0.65 49.39 0.759 -40.533 0.759 -40.533 0.65 49.39
17520.833 0.65 49.349 0.759 -40.574 0.759 -40.574 0.65 49.349
17545.792 0.651 49.308 0.758 -40.615 0.758 -40.615 0.651 49.308
17570.75 0.652 49.268 0.758 -40.656 0.758 -40.656 0.652 49.268
17595.708 0.652 49.227 0.757 -40.696 0.757 -40.696 0.652 49.227
17620.667 0.653 49.187 0.757 -40.737 0.757 -40.737 0.653 49.187
17645.625 0.653 49.146 0.756 -40.777 0.756 -40.777 0.653 49.146
17670.583 0.654 49.106 0.756 -40.818 0.756 -40.818 0.654 49.106
17695.542 0.654 49.066 0.755 -40.858 0.755 -40.858 0.654 49.066
17720.5 0.655 49.025 0.755 -40.899 0.755 -40.899 0.655 49.025
17745.458 0.655 48.985 0.755 -40.939 0.755 -40.939 0.655 48.985
17770.417 0.656 48.945 0.754 -40.979 0.754 -40.979 0.656 48.945
17795.375 0.656 48.905 0.754 -41.02 0.754 -41.02 0.656 48.905
17820.333 0.657 48.865 0.753 -41.06 0.753 -41.06 0.657 48.865
17845.292 0.657 48.825 0.753 -41.1 0.753 -41.1 0.657 48.825
17870.25 0.658 48.785 0.752 -41.14 0.752 -41.14 0.658 48.785
17895.208 0.658 48.745 0.752 -41.18 0.752 -41.18 0.658 48.745
17920.167 0.659 48.705 0.751 -41.22 0.751 -41.22 0.659 48.705
17945.125 0.659 48.665 0.751 -41.26 0.751 -41.26 0.659 48.665
17970.083 0.66 48.625 0.75 -41.3 0.75 -41.3 0.66 48.625
17995.042 0.661 48.585 0.75 -41.34 0.75 -41.34 0.661 48.585
18020 0.661 48.546 0.749 -41.38 0.749 -41.38 0.661 48.546
18044.958 0.662 48.506 0.749 -41.419 0.749 -41.419 0.662 48.506
18069.917 0.662 48.466 0.749 -41.459 0.749 -41.459 0.662 48.466
18094.875 0.663 48.427 0.748 -41.499 0.748 -41.499 0.663 48.427
18119.833 0.663 48.387 0.748 -41.538 0.748 -41.538 0.663 48.387
18144.792 0.664 48.348 0.747 -41.578 0.747 -41.578 0.664 48.348
18169.75 0.664 48.308 0.747 -41.617 0.747 -41.617 0.664 48.308
18194.708 0.665 48.269 0.746 -41.657 0.746 -41.657 0.665 48.269
18219.667 0.665 48.23 0.746 -41.696 0.746 -41.696 0.665 48.23
18244.625 0.666 48.191 0.745 -41.736 0.745 -41.736 0.666 48.191
18269.583 0.666 48.151 0.745 -41.775 0.745 -41.775 0.666 48.151
18294.542 0.667 48.112 0.744 -41.814 0.744 -41.814 0.667 48.112
18319.5 0.667 48.073 0.744 -41.853 0.744 -41.853 0.667 48.073
18344.458 0.668 48.034 0.744 -41.893 0.744 -41.893 0.668 48.034
18369.417 0.668 47.995 0.743 -41.932 0.743 -41.932 0.668 47.995
18394.375 0.669 47.956 0.743 -41.971 0.743 -41.971 0.669 47.956
18419.333 0.669 47.917 0.742 -42.01 0.742 -42.01 0.669 47.917
18444.292 0.67 47.878 0.742 -42.049 0.742 -42.049 0.67 47.878
18469.25 0.67 47.839 0.741 -42.088 0.741 -42.088 0.67 47.839
18494.208 0.671 47.801 0.741 -42.127 0.741 -42.127 0.671 47.801
18519.167 0.671 47.762 0.74 -42.165 0.74 -42.165 0.671 47.762
18544.125 0.672 47.723 0.74 -42.204 0.74 -42.204 0.672 47.723
18569.083 0.672 47.685 0.739 -42.243 0.739 -42.243 0.672 47.685
18594.042 0.673 47.646 0.739 -42.282 0.739 -42.282 0.673 47.646
18619 0.673 47.607 0.739 -42.32 0.739 -42.32 0.673 47.607
18643.958 0.674 47.569 0.738 -42.359 0.738 -42.359 0.674 47.569
18668.917 0.674 47.531 0.738 -42.397 0.738 -42.397 0.674 47.531
18693.875 0.675 47.492 0.737 -42.436 0.737 -42.436 0.675 47.492
18718.833 0.675 47.454 0.737 -42.474 0.737 -42.474 0.675 47.454
18743.792 0.676 47.415 0.736 -42.513 0.736 -42.513 0.676 47.415
18768.75 0.676 47.377 0.736 -42.551 0.736 -42.551 0.676 47.377
18793.708 0.677 47.339 0.735 -42.589 0.735 -42.589 0.677 47.339
18818.667 0.677 47.301 0.735 -42.628 0.735 -42.628 0.677 47.301
18843.625 0.678 47.263 0.734 -42.666 0.734 -42.666 0.678 47.263
18868.583 0.678 47.225 0.734 -42.704 0.734 -42.704 0.678 47.225
18893.542 0.679 47.187 0.734 -42.742 0.734 -42.742 0.679 47.187
18918.5 0.679 47.149 0.733 -42.78 0.733 -42.78 0.679 47.149
18943.458 0.68 47.111 0.733 -42.818 0.733 -42.818 0.68 47.111
18968.417 0.68 47.073 0.732 -42.856 0.732 -42.856 0.68 47.073
18993.375 0.681 47.035 0.732 -42.894 0.732 -42.894 0.681 47.035
19018.333 0.681 46.997 0.731 -42.932 0.731 -42.932 0.681 46.997
19043.292 0.682 46.96 0.731 -42.97 0.731 -42.97 0.682 46.96
19068.25 0.682 46.922 0.73 -43.008 0.73 -43.008 0.682 46.922
19093.208 0.683 46.884 0.73 -43.045 0.73 -43.045 0.683 46.884
19118.167 0.683 46.847 0.73 -43.083 0.73 -43.083 0.683 46.847
19143.125 0.684 46.809 0.729 -43.121 0.729 -43.121 0.684 46.809
19168.083 0.684 46.772 0.729 -43.158 0.729 -43.158 0.684 46.772
19193.042 0.684 46.734 0.728 -43.196 0.728 -43.196 0.684 46.734
19218 0.685 46.697 0.728 -43.233 0.728 -43.233 0.685 46.697
19242.958 0.685 46.659 0.727 -43.271 0.727 -43.271 0.685 46.659
19267.917 0.686 46.622 0.727 -43.308 0.727 -43.308 0.686 46.622
19292.875 0.686 46.585 0.726 -43.345 0.726 -43.345 0.686 46.585
19317.833 0.687 46.548 0.726 -43.383 0.726 -43.383 0.687 46.548
19342.792 0.687 46.51 0.725 -43.42 0.725 -43.42 0.687 46.51
19367.75 0.688 46.473 0.725 -43.457 0.725 -43.457 0.688 46.473
19392.708 0.688 46.436 0.725 -43.494 0.725 -43.494 0.688 46.436
19417.667 0.689 46.399 0.724 -43.532 0.724 -43.532 0.689 46.399
19442.625 0.689 46.362 0.724 -43.569 0.724 -43.569 0.689 46.362
19467.583 0.69 46.325 0.723 -43.606 0.723 -43.606 0.69 46.325
19492.542 0.69 46.288 0.723 -43.643 0.723 -43.643 0.69 46.288
19517.5 0.691 46.251 0.722 -43.68 0.722 -43.68 0.691 46.251
19542.458 0.691 46.215 0.722 -43.717 0.722 -43.717 0.691 46.215
19567.417 0.692 46.178 0.721 -43.753 0.721 -43.753 0.692 46.178
19592.375 0.692 46.141 0.721 -43.79 0.721 -43.79 0.692 46.141
19617.333 0.692 46.104 0.721 -43.827 0.721 -43.827 0.692 46.104
19642.292 0.693 46.068 0.72 -43.864 0.72 -43.864 0.693 46.068
19667.25 0.693 46.031 0.72 -43.9 0.72 -43.9 0.693 46.031
19692.208 0.694 45.995 0.719 -43.937 0.719 -43.937 0.694 45.995
19717.167 0.694 45.958 0.719 -43.974 0.719 -43.974 0.694 45.958
19742.125 0.695 45.922 0.718 -44.01 0.718 -44.01 0.695 45.922
19767.083 0.695 45.885 0.718 -44.047 0.718 -44.047 0.695 45.885
19792.042 0.696 45.849 0.718 -44.083 0.718 -44.083 0.696 45.849
19817 0.696 45.813 0.717 -44.119 0.717 -44.119 0.696 45.813
19841.958 0.697 45.776 0.717 -44.156 0.717 -44.156 0.697 45.776
19866.917 0.697 45.74 0.716 -44.192 0.716 -44.192 0.697 45.74
19891.875 0.698 45.704 0.716 -44.228 0.716 -44.228 0.698 45.704
19916.833 0.698 45.668 0.715 -44.265 0.715 -44.265 0.698 45.668
19941.792 0.698 45.632 0.715 -44.301 0.715 -44.301 0.698 45.632
19966.75 0.699 45.596 0.714 -44.337 0.714 -44.337 0.699 45.596
19991.708 0.699 45.56 0.714 -44.373 0.714 -44.373 0.699 45.56
20016.667 0.7 45.524 0.714 -44.409 0.714 -44.409 0.7 45.524
20041.625 0.7 45.488 0.713 -44.445 0.713 -44.445 0.7 45.488
20066.583 0.701 45.452 0.713 -44.481 0.713 -44.481 0.701 45.452
20091.542 0.701 45.416 0.712 -44.517 0.712 -44.517 0.701 45.416
20116.5 0.702 45.38 0.712 -44.553 0.712 -44.553 0.702 45.38
20141.458 0.702 45.345 0.711 -44.589 0.711 -44.589 0.702 45.345
20166.417 0.702 45.309 0.711 -44.624 0.711 -44.624 0.702 45.309
20191.375 0.703 45.273 0.71 -44.66 0.71 -44.66 0.703 45.273
20216.333 0.703 45.238 0.71 -44.696 0.71 -44.696 0.703 45.238
20241.292 0.704 45.202 0.71 -44.731 0.71 -44.731 0.704 45.202
20266.25 0.704 45.167 0.709 -44.767 0.709 -44.767 0.704 45.167
20291.208 0.705 45.131 0.709 -44.803 0.709 -44.803 0.705 45.131
20316.167 0.705 45.096 0.708 -44.838 0.708 -44.838 0.705 45.096
20341.125 0.706 45.06 0.708 -44.873 0.708 -44.873 0.706 45.06
20366.083 0.706 45.025 0.707 -44.909 0.707 -44.909 0.706 45.025
20391.042 0.706 44.99 0.707 -44.944 0.707 -44.944 0.706 44.99
20416 0.707 44.954 0.707 -44.98 0.707 -44.98 0.707 44.954
20440.958 0.707 44.919 0.706 -45.015 0.706 -45.015 0.707 44.919
20465.917 0.708 44.884 0.706 -45.05 0.706 -45.05 0.708 44.884
20490.875 0.708 44.849 0.705 -45.085 0.705 -45.085 0.708 44.849
20515.833 0.709 44.814 0.705 -45.12 0.705 -45.12 0.709 44.814
20540.792 0.709 44.779 0.704 -45.156 0.704 -45.156 0.709 44.779
20565.75 0.709 44.744 0.704 -45.191 0.704 -45.191 0.709 44.744
20590.708 0.71 44.709 0.704 -45.226 0.704 -45.226 0.71 44.709
20615.667 0.71 44.674 0.703 -45.261 0.703 -45.261 0.71 44.674
20640.625 0.711 44.639 0.703 -45.296 0.703 -45.296 0.711 44.639
20665.583 0.711 44.604 0.702 -45.331 0.702 -45.331 0.711 44.604
20690.542 0.712 44.57 0.702 -45.365 0.702 -45.365 0.712 44.57
20715.5 0.712 44.535 0.701 -45.4 0.701 -45.4 0.712 44.535
20740.458 0.712 44.5 0.701 -45.435 0.701 -45.435 0.712 44.5
20765.417 0.713 44.466 0.7 -45.47 0.7 -45.47 0.713 44.466
20790.375 0.713 44.431 0.7 -45.504 0.7 -45.504 0.713 44.431
20815.333 0.714 44.396 0.7 -45.539 0.7 -45.539 0.714 44.396
20840.292 0.714 44.362 0.699 -45.574 0.699 -45.574 0.714 44.362
20865.25 0.715 44.327 0.699 -45.608 0.699 -45.608 0.715 44.327
20890.208 0.715 44.293 0.698 -45.643 0.698 -45.643 0.715 44.293
20915.167 0.715 44.259 0.698 -45.677 0.698 -45.677 0.715 44.259
20940.125 0.716 44.224 0.697 -45.712 0.697 -45.712 0.716 44.224
20965.083 0.716 44.19 0.697 -45.746 0.697 -45.746 0.716 44.19
20990.042 0.717 44.156 0.697 -45.78 0.697 -45.78 0.717 44.156
21015 0.717 44.121 0.696 -45.815 0.696 -45.815 0.717 44.121
21039.958 0.718 44.087 0.696 -45.849 0.696 -45.849 0.718 44.087
21064.917 0.718 44.053 0.695 -45.883 0.695 -45.883 0.718 44.053
21089.875 0.718 44.019 0.695 -45.917 0.695 -45.917 0.718 44.019
21114.833 0.719 43.985 0.694 -45.951 0.694 -45.951 0.719 43.985
21139.792 0.719 43.951 0.694 -45.985 0.694 -45.985 0.719 43.951
21164.75 0.72 43.917 0.694 -46.019 0.694 -46.019 0.72 43.917
21189.708 0.72 43.883 0.693 -46.053 0.693 -46.053 0.72 43.883
21214.667 0.72 43.849 0.693 -46.087 0.693 -46.087 0.72 43.849
21239.625 0.721 43.815 0.692 -46.121 0.692 -46.121 0.721 43.815
21264.583 0.721 43.782 0.692 -46.155 0.692 -46.155 0.721 43.782
21289.542 0.722 43.748 0.691 -46.189 0.691 -46.189 0.722 43.748
21314.5 0.722 43.714 0.691 -46.223 0.691 -46.223 0.722 43.714
21339.458 0.722 43.68 0.691 -46.256 0.691 -46.256 0.722 43.68
21364.417 0.723 43.647 0.69 -46.29 0.69 -46.29 0.723 43.647
21389.375 0.723 43.613 0.69 -46.324 0.69 -46.324 0.723 43.613
21414.333 0.724 43.58 0.689 -46.357 0.689 -46.357 0.724 43.58
21439.292 0.724 43.546 0.689 -46.391 0.689 -46.391 0.724 43.546
21464.25 0.724 43.513 0.689 -46.425 0.689 -46.425 0.724 43.513
21489.208 0.725 43.479 0.688 -46.458 0.688 -46.458 0.725 43.479
21514.167 0.725 43.446 0.688 -46.492 0.688 -46.492 0.725 43.446
21539.125 0.726 43.413 0.687 -46.525 0.687 -46.525 0.726 43.413
21564.083 0.726 43.379 0.687 -46.558 0.687 -46.558 0.726 43.379
21589.042 0.726 43.346 0.686 -46.592 0.686 -46.592 0.726 43.346
21614 0.727 43.313 0.686 -46.625 0.686 -46.625 0.727 43.313
21638.958 0.727 43.28 0.686 -46.658 0.686 -46.658 0.727 43.28
21663.917 0.728 43.246 0.685 -46.691 0.685 -46.691 0.728 43.246
21688.875 0.728 43.213 0.685 -46.725 0.685 -46.725 0.728 43.213
21713.833 0.728 43.18 0.684 -46.758 0.684 -46.758 0.728 43.18
21738.792 0.729 43.147 0.684 -46.791 0.684 -46.791 0.729 43.147
21763.75 0.729 43.114 0.683 -46.824 0.683 -46.824 0.729 43.114
21788.708 0.73 43.081 0.683 -46.857 0.683 -46.857 0.73 43.081
21813.667 0.73 43.049 0.683 -46.89 0.683 -46.89 0.73 43.049
21838.625 0.73 43.016 0.682 -46.923 0.682 -46.923 0.73 43.016
21863.583 0.731 42.983 0.682 -46.956 0.682 -46.956 0.731 42.983
21888.542 0.731 42.95 0.681 -46.988 0.681 -46.988 0.731 42.95
21913.5 0.732 42.917 0.681 -47.021 0.681 -47.021 0.732 42.917
21938.458 0.732 42.885 0.681 -47.054 0.681 -47.054 0.732 42.885
21963.417 0.732 42.852 0.68 -47.087 0.68 -47.087 0.732 42.852
21988.375 0.733 42.819 0.68 -47.119 0.68 -47.119 0.733 42.819
22013.333 0.733 42.787 0.679 -47.152 0.679 -47.152 0.733 42.787
22038.292 0.734 42.754 0.679 -47.185 0.679 -47.185 0.734 42.754
22063.25 0.734 42.722 0.678 -47.217 0.678 -47.217 0.734 42.722
22088.208 0.734 42.689 0.678 -47.25 0.678 -47.25 0.734 42.689
22113.167 0.735 42.657 0.678 -47.282 0.678 -47.282 0.735 42.657
22138.125 0.735 42.625 0.677 -47.315 0.677 -47.315 0.735 42.625
22163.083 0.735 42.592 0.677 -47.347 0.677 -47.347 0.735 42.592
22188.042 0.736 42.56 0.676 -47.379 0.676 -47.379 0.736 42.56
22213 0.736 42.528 0.676 -47.412 0.676 -47.412 0.736 42.528
22237.958 0.737 42.496 0.676 -47.444 0.676 -47.444 0.737 42.496
22262.917 0.737 42.463 0.675 -47.476 0.675 -47.476 0.737 42.463
22287.875 0.737 42.431 0.675 -47.508 0.675 -47.508 0.737 42.431
22312.833 0.738 42.399 0.674 -47.541 0.674 -47.541 0.738 42.399
22337.792 0.738 42.367 0.674 -47.573 0.674 -47.573 0.738 42.367
22362.75 0.739 42.335 0.673 -47.605 0.673 -47.605 0.739 42.335
22387.708 0.739 42.303 0.673 -47.637 0.673 -47.637 0.739 42.303
22412.667 0.739 42.271 0.673 -47.669 0.673 -47.669 0.739 42.271
22437.625 0.74 42.239 0.672 -47.701 0.672 -47.701 0.74 42.239
22462.583 0.74 42.207 0.672 -47.733 0.672 -47.733 0.74 42.207
22487.542 0.74 42.176 0.671 -47.765 0.671 -47.765 0.74 42.176
22512.5 0.741 42.144 0.671 -47.796 0.671 -47.796 0.741 42.144
22537.458 0.741 42.112 0.671 -47.828 0.671 -47.828 0.741 42.112
22562.417 0.742 42.08 0.67 -47.86 0.67 -47.86 0.742 42.08
22587.375 0.742 42.049 0.67 -47.892 0.67 -47.892 0.742 42.049
22612.333 0.742 42.017 0.669 -47.923 0.669 -47.923 0.742 42.017
22637.292 0.743 41.986 0.669 -47.955 0.669 -47.955 0.743 41.986
22662.25 0.743 41.954 0.669 -47.987 0.669 -47.987 0.743 41.954
22687.208 0.743 41.923 0.668 -48.018 0.668 -48.018 0.743 41.923
22712.167 0.744 41.891 0.668 -48.05 0.668 -48.05 0.744 41.891
22737.125 0.744 41.86 0.667 -48.081 0.667 -48.081 0.744 41.86
22762.083 0.744 41.828 0.667 -48.113 0.667 -48.113 0.744 41.828
22787.042 0.745 41.797 0.666 -48.144 0.666 -48.144 0.745 41.797
22812 0.745 41.766 0.666 -48.175 0.666 -48.175 0.745 41.766
22836.958 0.746 41.734 0.666 -48.207 0.666 -48.207 0.746 41.734
22861.917 0.746 41.703 0.665 -48.238 0.665 -48.238 0.746 41.703
22886.875 0.746 41.672 0.665 -48.269 0.665 -48.269 0.746 41.672
22911.833 0.747 41.641 0.664 -48.301 0.664 -48.301 0.747 41.641
22936.792 0.747 41.61 0.664 -48.332 0.664 -48.332 0.747 41.61
22961.75 0.747 41.579 0.664 -48.363 0.664 -48.363 0.747 41.579
22986.708 0.748 41.548 0.663 -48.394 0.663 -48.394 0.748 41.548
23011.667 0.748 41.517 0.663 -48.425 0.663 -48.425 0.748 41.517
23036.625 0.748 41.486 0.662 -48.456 0.662 -48.456 0.748 41.486
23061.583 0.749 41.455 0.662 -48.487 0.662 -48.487 0.749 41.455
23086.542 0.749 41.424 0.662 -48.518 0.662 -48.518 0.749 41.424
23111.5 0.75 41.393 0.661 -48.549 0.661 -48.549 0.75 41.393
23136.458 0.75 41.362 0.661 -48.58 0.661 -48.58 0.75 41.362
23161.417 0.75 41.331 0.66 -48.611 0.66 -48.611 0.75 41.331
23186.375 0.751 41.301 0.66 -48.641 0.66 -48.641 0.751 41.301
23211.333 0.751 41.27 0.66 -48.672 0.66 -48.672 0.751 41.27
23236.292 0.751 41.239 0.659 -48.703 0.659 -48.703 0.751 41.239
23261.25 0.752 41.209 0.659 -48.734 0.659 -48.734 0.752 41.209
23286.208 0.752 41.178 0.658 -48.764 0.658 -48.764 0.752 41.178
23311.167 0.752 41.147 0.658 -48.795 0.658 -48.795 0.752 41.147
23336.125 0.753 41.117 0.658 -48.825 0.658 -48.825 0.753 41.117
23361.083 0.753 41.086 0.657 -48.856 0.657 -48.856 0.753 41.086
23386.042 0.753 41.056 0.657 -48.887 0.657 -48.887 0.753 41.056
23411 0.754 41.026 0.656 -48.917 0.656 -48.917 0.754 41.026
23435.958 0.754 40.995 0.656 -48.947 0.656 -48.947 0.754 40.995
23460.917 0.754 40.965 0.656 -48.978 0.656 -48.978 0.754 40.965
23485.875 0.755 40.935 0.655 -49.008 0.655 -49.008 0.755 40.935
23510.833 0.755 40.904 0.655 -49.038 0.655 -49.038 0.755 40.904
23535.792 0.755 40.874 0.654 -49.069 0.654 -49.069 0.755 40.874
23560.75 0.756 40.844 0.654 -49.099 0.654 -49.099 0.756 40.844
23585.708 0.756 40.814 0.654 -49.129 0.654 -49.129 0.756 40.814
23610.667 0.757 40.784 0.653 -49.159 0.653 -49.159 0.757 40.784
23635.625 0.757 40.754 0.653 -49.189 0.653 -49.189 0.757 40.754
23660.583 0.757 40.724 0.652 -49.22 0.652 -49.22 0.757 40.724
23685.542 0.758 40.694 0.652 -49.25 0.652 -49.25 0.758 40.694
23710.5 0.758 40.664 0.652 -49.28 0.652 -49.28 0.758 40.664
23735.458 0.758 40.634 0.651 -49.31 0.651 -49.31 0.758 40.634
23760.417 0.759 40.604 0.651 -49.34 0.651 -49.34 0.759 40.604
23785.375 0.759 40.574 0.65 -49.369 0.65 -49.369 0.759 40.574
23810.333 0.759 40.544 0.65 -49.399 0.65 -49.399 0.759 40.544
23835.292 0.76 40.514 0.65 -49.429 0.65 -49.429 0.76 40.514
23860.25 0.76 40.485 0.649 -49.459 0.649 -49.459 0.76 40.485
23885.208 0.76 40.455 0.649 -49.489 0.649 -49.489 0.76 40.455
23910.167 0.761 40.425 0.648 -49.518 0.648 -49.518 0.761 40.425
23935.125 0.761 40.396 0.648 -49.548 0.648 -49.548 0.761 40.396
23960.083 0.761 40.366 0.648 -49.578 0.648 -49.578 0.761 40.366
23985.042 0.762 40.336 0.647 -49.607 0.647 -49.607 0.762 40.336
24010 0.762 40.307 0.647 -49.637 0.647 -49.637 0.762 40.307
24034.958 0.762 40.277 0.646 -49.667 0.646 -49.667 0.762 40.277
24059.917 0.763 40.248 0.646 -49.696 0.646 -49.696 0.763 40.248
24084.875 0.763 40.219 0.646 -49.726 0.646 -49.726 0.763 40.219
24109.833 0.763 40.189 0.645 -49.755 0.645 -49.755 0.763 40.189
24134.792 0.764 40.16 0.645 -49.784 0.645 -49.784 0.764 40.16
24159.75 0.764 40.131 0.645 -49.814 0.645 -49.814 0.764 40.131
24184.708 0.764 40.101 0.644 -49.843 0.644 -49.843 0.764 40.101
24209.667 0.765 40.072 0.644 -49.872 0.644 -49.872 0.765 40.072
24234.625 0.765 40.043 0.643 -49.902 0.643 -49.902 0.765 40.043
24259.583 0.765 40.014 0.643 -49.931 0.643 -49.931 0.765 40.014
24284.542 0.766 39.985 0.643 -49.96 0.643 -49.96 0.766 39.985
24309.5 0.766 39.955 0.642 -49.989 0.642 -49.989 0.766 39.955
24334.458 0.766 39.926 0.642 -50.018 0.642 -50.018 0.766 39.926
24359.417 0.767 39.897 0.641 -50.047 0.641 -50.047 0.767 39.897
24384.375 0.767 39.868 0.641 -50.076 0.641 -50.076 0.767 39.868
24409.333 0.767 39.839 0.641 -50.105 0.641 -50.105 0.767 39.839
24434.292 0.768 39.811 0.64 -50.134 0.64 -50.134 0.768 39.811
24459.25 0.768 39.782 0.64 -50.163 0.64 -50.163 0.768 39.782
24484.208 0.768 39.753 0.639 -50.192 0.639 -50.192 0.768 39.753
24509.167 0.769 39.724 0.639 -50.221 0.639 -50.221 0.769 39.724
24534.125 0.769 39.695 0.639 -50.25 0.639 -50.25 0.769 39.695
24559.083 0.769 39.666 0.638 -50.279 0.638 -50.279 0.769 39.666
24584.042 0.769 39.638 0.638 -50.308 0.638 -50.308 0.769 39.638
24609 0.77 39.609 0.638 -50.336 0.638 -50.336 0.77 39.609
24633.958 0.77 39.58 0.637 -50.365 0.637 -50.365 0.77 39.58
24658.917 0.77 39.552 0.637 -50.394 0.637 -50.394 0.77 39.552
24683.875 0.771 39.523 0.636 -50.422 0.636 -50.422 0.771 39.523
24708.833 0.771 39.495 0.636 -50.451 0.636 -50.451 0.771 39.495
24733.792 0.771 39.466 0.636 -50.479 0.636 -50.479 0.771 39.466
24758.75 0.772 39.438 0.635 -50.508 0.635 -50.508 0.772 39.438
24783.708 0.772 39.409 0.635 -50.536 0.635 -50.536 0.772 39.409
24808.667 0.772 39.381 0.634 -50.565 0.634 -50.565 0.772 39.381
24833.625 0.773 39.353 0.634 -50.593 0.634 -50.593 0.773 39.353
24858.583 0.773 39.324 0.634 -50.622 0.634 -50.622 0.773 39.324
24883.542 0.773 39.296 0.633 -50.65 0.633 -50.65 0.773 39.296
24908.5 0.774 39.268 0.633 -50.678 0.633 -50.678 0.774 39.268
24933.458 0.774 39.239 0.633 -50.707 0.633 -50.707 0.774 39.239
24958.417 0.774 39.211 0.632 -50.735 0.632 -50.735 0.774 39.211
24983.375 0.775 39.183 0.632 -50.763 0.632 -50.763 0.775 39.183
25008.333 0.775 39.155 0.631 -50.791 0.631 -50.791 0.775 39.155
25033.292 0.775 39.127 0.631 -50.819 0.631 -50.819 0.775 39.127
25058.25 0.775 39.099 0.631 -50.848 0.631 -50.848 0.775 39.099
25083.208 0.776 39.071 0.63 -50.876 0.63 -50.876 0.776 39.071
25108.167 0.776 39.043 0.63 -50.904 0.63 -50.904 0.776 39.043
25133.125 0.776 39.015 0.63 -50.932 0.63 -50.932 0.776 39.015
25158.083 0.777 38.987 0.629 -50.96 0.629 -50.96 0.777 38.987
25183.042 0.777 38.959 0.629 -50.988 0.629 -50.988 0.777 38.959
25208 0.777 38.931 0.628 -51.015 0.628 -51.015 0.777 38.931
25232.958 0.778 38.903 0.628 -51.043 0.628 -51.043 0.778 38.903
25257.917 0.778 38.876 0.628 -51.071 0.628 -51.071 0.778 38.876
25282.875 0.778 38.848 0.627 -51.099 0.627 -51.099 0.778 38.848
25307.833 0.779 38.82 0.627 -51.127 0.627 -51.127 0.779 38.82
25332.792 0.779 38.792 0.627 -51.155 0.627 -51.155 0.779 38.792
25357.75 0.779 38.765 0.626 -51.182 0.626 -51.182 0.779 38.765
25382.708 0.779 38.737 0.626 -51.21 0.626 -51.21 0.779 38.737
25407.667 0.78 38.71 0.625 -51.238 0.625 -51.238 0.78 38.71
25432.625 0.78 38.682 0.625 -51.265 0.625 -51.265 0.78 38.682
25457.583 0.78 38.654 0.625 -51.293 0.625 -51.293 0.78 38.654
25482.542 0.781 38.627 0.624 -51.32 0.624 -51.32 0.781 38.627
25507.5 0.781 38.6 0.624 -51.348 0.624 -51.348 0.781 38.6
25532.458 0.781 38.572 0.623 -51.375 0.623 -51.375 0.781 38.572
25557.417 0.782 38.545 0.623 -51.403 0.623 -51.403 0.782 38.545
25582.375 0.782 38.517 0.623 -51.43 0.623 -51.43 0.782 38.517
25607.333 0.782 38.49 0.622 -51.457 0.622 -51.457 0.782 38.49
25632.292 0.782 38.463 0.622 -51.485 0.622 -51.485 0.782 38.463
25657.25 0.783 38.436 0.622 -51.512 0.622 -51.512 0.783 38.436
25682.208 0.783 38.408 0.621 -51.539 0.621 -51.539 0.783 38.408
25707.167 0.783 38.381 0.621 -51.567 0.621 -51.567 0.783 38.381
25732.125 0.784 38.354 0.621 -51.594 0.621 -51.594 0.784 38.354
25757.083 0.784 38.327 0.62 -51.621 0.62 -51.621 0.784 38.327
25782.042 0.784 38.3 0.62 -51.648 0.62 -51.648 0.784 38.3
25807 0.785 38.273 0.619 -51.675 0.619 -51.675 0.785 38.273
25831.958 0.785 38.246 0.619 -51.702 0.619 -51.702 0.785 38.246
25856.917 0.785 38.219 0.619 -51.729 0.619 -51.729 0.785 38.219
25881.875 0.785 38.192 0.618 -51.756 0.618 -51.756 0.785 38.192
25906.833 0.786 38.165 0.618 -51.783 0.618 -51.783 0.786 38.165
25931.792 0.786 38.138 0.618 -51.81 0.618 -51.81 0.786 38.138
25956.75 0.786 38.111 0.617 -51.837 0.617 -51.837 0.786 38.111
25981.708 0.787 38.084 0.617 -51.864 0.617 -51.864 0.787 38.084
26006.667 0.787 38.057 0.616 -51.891 0.616 -51.891 0.787 38.057
26031.625 0.787 38.031 0.616 -51.918 0.616 -51.918 0.787 38.031
26056.583 0.787 38.004 0.616 -51.945 0.616 -51.945 0.787 38.004
26081.542 0.788 37.977 0.615 -51.971 0.615 -51.971 0.788 37.977
26106.5 0.788 37.95 0.615 -51.998 0.615 -51.998 0.788 37.95
26131.458 0.788 37.924 0.615 -52.025 0.615 -52.025 0.788 37.924
26156.417 0.789 37.897 0.614 -52.051 0.614 -52.051 0.789 37.897
26181.375 0.789 37.871 0.614 -52.078 0.614 -52.078 0.789 37.871
26206.333 0.789 37.844 0.614 -52.105 0.614 -52.105 0.789 37.844
26231.292 0.789 37.818 0.613 -52.131 0.613 -52.131 0.789 37.818
26256.25 0.79 37.791 0.613 -52.158 0.613 -52.158 0.79 37.791
26281.208 0.79 37.765 0.612 -52.184 0.612 -52.184 0.79 37.765
26306.167 0.79 37.738 0.612 -52.211 0.612 -52.211 0.79 37.738
26331.125 0.791 37.712 0.612 -52.237 0.612 -52.237 0.791 37.712
26356.083 0.791 37.685 0.611 -52.264 0.611 -52.264 0.791 37.685
26381.042 0.791 37.659 0.611 -52.29 0.611 -52.29 0.791 37.659
26406 0.791 37.633 0.611 -52.316 0.611 -52.316 0.791 37.633
26430.958 0.792 37.607 0.61 -52.343 0.61 -52.343 0.792 37.607
26455.917 0.792 37.58 0.61 -52.369 0.61 -52.369 0.792 37.58
26480.875 0.792 37.554 0.61 -52.395 0.61 -52.395 0.792 37.554
26505.833 0.793 37.528 0.609 -52.421 0.609 -52.421 0.793 37.528
26530.792 0.793 37.502 0.609 -52.448 0.609 -52.448 0.793 37.502
26555.75 0.793 37.476 0.608 -52.474 0.608 -52.474 0.793 37.476
26580.708 0.793 37.45 0.608 -52.5 0.608 -52.5 0.793 37.45
26605.667 0.794 37.424 0.608 -52.526 0.608 -52.526 0.794 37.424
26630.625 0.794 37.398 0.607 -52.552 0.607 -52.552 0.794 37.398
26655.583 0.794 37.372 0.607 -52.578 0.607 -52.578 0.794 37.372
26680.542 0.794 37.346 0.607 -52.604 0.607 -52.604 0.794 37.346
26705.5 0.795 37.32 0.606 -52.63 0.606 -52.63 0.795 37.32
26730.458 0.795 37.294 0.606 -52.656 0.606 -52.656 0.795 37.294
26755.417 0.795 37.268 0.606 -52.682 0.606 -52.682 0.795 37.268
26780.375 0.796 37.242 0.605 -52.708 0.605 -52.708 0.796 37.242
26805.333 0.796 37.216 0.605 -52.734 0.605 -52.734 0.796 37.216
26830.292 0.796 37.191 0.604 -52.759 0.604 -52.759 0.796 37.191
26855.25 0.796 37.165 0.604 -52.785 0.604 -52.785 0.796 37.165
26880.208 0.797 37.139 0.604 -52.811 0.604 -52.811 0.797 37.139
26905.167 0.797 37.113 0.603 -52.837 0.603 -52.837 0.797 37.113
26930.125 0.797 37.088 0.603 -52.862 0.603 -52.862 0.797 37.088
26955.083 0.797 37.062 0.603 -52.888 0.603 -52.888 0.797 37.062
26980.042 0.798 37.037 0.602 -52.914 0.602 -52.914 0.798 37.037
27005 0.798 37.011 0.602 -52.939 0.602 -52.939 0.798 37.011
27029.958 0.798 36.986 0.602 -52.965 0.602 -52.965 0.798 36.986
27054.917 0.799 36.96 0.601 -52.99 0.601 -52.99 0.799 36.96
27079.875 0.799 36.935 0.601 -53.016 0.601 -53.016 0.799 36.935
27104.833 0.799 36.909 0.601 -53.041 0.601 -53.041 0.799 36.909
27129.792 0.799 36.884 0.6 -53.067 0.6 -53.067 0.799 36.884
27154.75 0.8 36.858 0.6 -53.092 0.6 -53.092 0.8 36.858
27179.708 0.8 36.833 0.599 -53.118 0.599 -53.118 0.8 36.833
27204.667 0.8 36.808 0.599 -53.143 0.599 -53.143 0.8 36.808
27229.625 0.8 36.782 0.599 -53.168 0.599 -53.168 0.8 36.782
27254.583 0.801 36.757 0.598 -53.194 0.598 -53.194 0.801 36.757
27279.542 0.801 36.732 0.598 -53.219 0.598 -53.219 0.801 36.732
27304.5 0.801 36.707 0.598 -53.244 0.598 -53.244 0.801 36.707
27329.458 0.801 36.682 0.597 -53.269 0.597 -53.269 0.801 36.682
27354.417 0.802 36.656 0.597 -53.294 0.597 -53.294 0.802 36.656
27379.375 0.802 36.631 0.597 -53.32 0.597 -53.32 0.802 36.631
27404.333 0.802 36.606 0.596 -53.345 0.596 -53.345 0.802 36.606
27429.292 0.803 36.581 0.596 -53.37 0.596 -53.37 0.803 36.581
27454.25 0.803 36.556 0.596 -53.395 0.596 -53.395 0.803 36.556
27479.208 0.803 36.531 0.595 -53.42 0.595 -53.42 0.803 36.531
27504.167 0.803 36.506 0.595 -53.445 0.595 -53.445 0.803 36.506
27529.125 0.804 36.481 0.595 -53.47 0.595 -53.47 0.804 36.481
27554.083 0.804 36.456 0.594 -53.495 0.594 -53.495 0.804 36.456
27579.042 0.804 36.432 0.594 -53.52 0.594 -53.52 0.804 36.432
27604 0.804 36.407 0.594 -53.545 0.594 -53.545 0.804 36.407
27628.958 0.805 36.382 0.593 -53.569 0.593 -53.569 0.805 36.382
27653.917 0.805 36.357 0.593 -53.594 0.593 -53.594 0.805 36.357
27678.875 0.805 36.332 0.592 -53.619 0.592 -53.619 0.805 36.332
27703.833 0.805 36.308 0.592 -53.644 0.592 -53.644 0.805 36.308
27728.792 0.806 36.283 0.592 -53.669 0.592 -53.669 0.806 36.283
27753.75 0.806 36.258 0.591 -53.693 0.591 -53.693 0.806 36.258
27778.708 0.806 36.234 0.591 -53.718 0.591 -53.718 0.806 36.234
27803.667 0.806 36.209 0.591 -53.743 0.591 -53.743 0.806 36.209
27828.625 0.807 36.184 0.59 -53.767 0.59 -53.767 0.807 36.184
27853.583 0.807 36.16 0.59 -53.792 0.59 -53.792 0.807 36.16
27878.542 0.807 36.135 0.59 -53.816 0.59 -53.816 0.807 36.135
27903.5 0.807 36.111 0.589 -53.841 0.589 -53.841 0.807 36.111
27928.458 0.808 36.086 0.589 -53.865 0.589 -53.865 0.808 36.086
27953.417 0.808 36.062 0.589 -53.89 0.589 -53.89 0.808 36.062
27978.375 0.808 36.038 0.588 -53.914 0.588 -53.914 0.808 36.038
28003.333 0.808 36.013 0.588 -53.939 0.588 -53.939 0.808 36.013
28028.292 0.809 35.989 0.588 -53.963 0.588 -53.963 0.809 35.989
28053.25 0.809 35.965 0.587 -53.988 0.587 -53.988 0.809 35.965
28078.208 0.809 35.94 0.587 -54.012 0.587 -54.012 0.809 35.94
28103.167 0.809 35.916 0.587 -54.036 0.587 -54.036 0.809 35.916
28128.125 0.81 35.892 0.586 -54.06 0.586 -54.06 0.81 35.892
28153.083 0.81 35.868 0.586 -54.085 0.586 -54.085 0.81 35.868
28178.042 0.81 35.843 0.586 -54.109 0.586 -54.109 0.81 35.843
28203 0.81 35.819 0.585 -54.133 0.585 -54.133 0.81 35.819
28227.958 0.811 35.795 0.585 -54.157 0.585 -54.157 0.811 35.795
28252.917 0.811 35.771 0.585 -54.181 0.585 -54.181 0.811 35.771
28277.875 0.811 35.747 0.584 -54.206 0.584 -54.206 0.811 35.747
28302.833 0.811 35.723 0.584 -54.23 0.584 -54.23 0.811 35.723
28327.792 0.812 35.699 0.584 -54.254 0.584 -54.254 0.812 35.699
28352.75 0.812 35.675 0.583 -54.278 0.583 -54.278 0.812 35.675
28377.708 0.812 35.651 0.583 -54.302 0.583 -54.302 0.812 35.651
28402.667 0.812 35.627 0.583 -54.326 0.583 -54.326 0.812 35.627
28427.625 0.813 35.603 0.582 -54.35 0.582 -54.35 0.813 35.603
28452.583 0.813 35.579 0.582 -54.373 0.582 -54.373 0.813 35.579
28477.542 0.813 35.555 0.581 -54.397 0.581 -54.397 0.813 35.555
28502.5 0.813 35.532 0.581 -54.421 0.581 -54.421 0.813 35.532
28527.458 0.814 35.508 0.581 -54.445 0.581 -54.445 0.814 35.508
28552.417 0.814 35.484 0.58 -54.469 0.58 -54.469 0.814 35.484
28577.375 0.814 35.46 0.58 -54.493 0.58 -54.493 0.814 35.46
28602.333 0.814 35.437 0.58 -54.516 0.58 -54.516 0.814 35.437
28627.292 0.815 35.413 0.579 -54.54 0.579 -54.54 0.815 35.413
28652.25 0.815 35.389 0.579 -54.564 0.579 -54.564 0.815 35.389
28677.208 0.815 35.366 0.579 -54.587 0.579 -54.587 0.815 35.366
28702.167 0.815 35.342 0.578 -54.611 0.578 -54.611 0.815 35.342
28727.125 0.815 35.319 0.578 -54.635 0.578 -54.635 0.815 35.319
28752.083 0.816 35.295 0.578 -54.658 0.578 -54.658 0.816 35.295
28777.042 0.816 35.272 0.577 -54.682 0.577 -54.682 0.816 35.272
28802 0.816 35.248 0.577 -54.705 0.577 -54.705 0.816 35.248
28826.958 0.816 35.225 0.577 -54.729 0.577 -54.729 0.816 35.225
28851.917 0.817 35.201 0.576 -54.752 0.576 -54.752 0.817 35.201
28876.875 0.817 35.178 0.576 -54.776 0.576 -54.776 0.817 35.178
28901.833 0.817 35.154 0.576 -54.799 0.576 -54.799 0.817 35.154
28926.792 0.817 35.131 0.575 -54.823 0.575 -54.823 0.817 35.131
28951.75 0.818 35.108 0.575 -54.846 0.575 -54.846 0.818 35.108
28976.708 0.818 35.084 0.575 -54.869 0.575 -54.869 0.818 35.084
29001.667 0.818 35.061 0.574 -54.893 0.574 -54.893 0.818 35.061
29026.625 0.818 35.038 0.574 -54.916 0.574 -54.916 0.818 35.038
29051.583 0.819 35.015 0.574 -54.939 0.574 -54.939 0.819 35.015
29076.542 0.819 34.992 0.573 -54.962 0.573 -54.962 0.819 34.992
29101.5 0.819 34.968 0.573 -54.985 0.573 -54.985 0.819 34.968
29126.458 0.819 34.945 0.573 -55.009 0.573 -55.009 0.819 34.945
29151.417 0.819 34.922 0.572 -55.032 0.572 -55.032 0.819 34.922
29176.375 0.82 34.899 0.572 -55.055 0.572 -55.055 0.82 34.899
29201.333 0.82 34.876 0.572 -55.078 0.572 -55.078 0.82 34.876
29226.292 0.82 34.853 0.571 -55.101 0.571 -55.101 0.82 34.853
29251.25 0.82 34.83 0.571 -55.124 0.571 -55.124 0.82 34.83
29276.208 0.821 34.807 0.571 -55.147 0.571 -55.147 0.821 34.807
29301.167 0.821 34.784 0.57 -55.17 0.57 -55.17 0.821 34.784
29326.125 0.821 34.761 0.57 -55.193 0.57 -55.193 0.821 34.761
29351.083 0.821 34.738 0.57 -55.216 0.57 -55.216 0.821 34.738
29376.042 0.822 34.715 0.57 -55.239 0.57 -55.239 0.822 34.715
29401 0.822 34.693 0.569 -55.262 0.569 -55.262 0.822 34.693
29425.958 0.822 34.67 0.569 -55.285 0.569 -55.285 0.822 34.67
29450.917 0.822 34.647 0.569 -55.307 0.569 -55.307 0.822 34.647
29475.875 0.822 34.624 0.568 -55.33 0.568 -55.33 0.822 34.624
29500.833 0.823 34.601 0.568 -55.353 0.568 -55.353 0.823 34.601
29525.792 0.823 34.579 0.568 -55.376 0.568 -55.376 0.823 34.579
29550.75 0.823 34.556 0.567 -55.398 0.567 -55.398 0.823 34.556
29575.708 0.823 34.533 0.567 -55.421 0.567 -55.421 0.823 34.533
29600.667 0.824 34.511 0.567 -55.444 0.567 -55.444 0.824 34.511
29625.625 0.824 34.488 0.566 -55.466 0.566 -55.466 0.824 34.488
29650.583 0.824 34.466 0.566 -55.489 0.566 -55.489 0.824 34.466
29675.542 0.824 34.443 0.566 -55.512 0.566 -55.512 0.824 34.443
29700.5 0.824 34.421 0.565 -55.534 0.565 -55.534 0.824 34.421
29725.458 0.825 34.398 0.565 -55.557 0.565 -55.557 0.825 34.398
29750.417 0.825 34.376 0.565 -55.579 0.565 -55.579 0.825 34.376
29775.375 0.825 34.353 0.564 -55.602 0.564 -55.602 0.825 34.353
29800.333 0.825 34.331 0.564 -55.624 0.564 -55.624 0.825 34.331
29825.292 0.826 34.308 0.564 -55.647 0.564 -55.647 0.826 34.308
29850.25 0.826 34.286 0.563 -55.669 0.563 -55.669 0.826 34.286
29875.208 0.826 34.264 0.563 -55.691 0.563 -55.691 0.826 34.264
29900.167 0.826 34.241 0.563 -55.714 0.563 -55.714 0.826 34.241
29925.125 0.826 34.219 0.562 -55.736 0.562 -55.736 0.826 34.219
29950.083 0.827 34.197 0.562 -55.758 0.562 -55.758 0.827 34.197
29975.042 0.827 34.174 0.562 -55.781 0.562 -55.781 0.827 34.174
30000 0.827 34.152 0.561 -55.803 0.561 -55.803 0.827 34.152
