!	AVX Thin Film Operation 	Date: April 2014		
!	Description: Accu-P® Series, Thin Film  SMD RF Capacitor
!	Part Number: 06031JR15ZBSTR					
!								
# MHZ S MA R 50

50 1 -0.27 4.712e-3 89.729 4.712e-3 89.729 1 -0.27
74.958 1 -0.405 7.065e-3 89.593 7.065e-3 89.593 1 -0.405
99.917 1 -0.54 9.417e-3 89.458 9.417e-3 89.458 1 -0.54
124.875 1 -0.674 0.012 89.322 0.012 89.322 1 -0.674
149.833 1 -0.809 0.014 89.187 0.014 89.187 1 -0.809
174.792 1 -0.944 0.016 89.051 0.016 89.051 1 -0.944
199.75 1 -1.079 0.019 88.915 0.019 88.915 1 -1.079
224.708 1 -1.214 0.021 88.78 0.021 88.78 1 -1.214
249.667 1 -1.348 0.024 88.644 0.024 88.644 1 -1.348
274.625 1 -1.483 0.026 88.509 0.026 88.509 1 -1.483
299.583 1 -1.618 0.028 88.373 0.028 88.373 1 -1.618
324.542 1 -1.753 0.031 88.238 0.031 88.238 1 -1.753
349.5 0.999 -1.888 0.033 88.102 0.033 88.102 0.999 -1.888
374.458 0.999 -2.023 0.035 87.967 0.035 87.967 0.999 -2.023
399.417 0.999 -2.157 0.038 87.831 0.038 87.831 0.999 -2.157
424.375 0.999 -2.292 0.04 87.695 0.04 87.695 0.999 -2.292
449.333 0.999 -2.427 0.042 87.56 0.042 87.56 0.999 -2.427
474.292 0.999 -2.562 0.045 87.424 0.045 87.424 0.999 -2.562
499.25 0.999 -2.697 0.047 87.289 0.047 87.289 0.999 -2.697
524.208 0.999 -2.832 0.049 87.153 0.049 87.153 0.999 -2.832
549.167 0.999 -2.967 0.052 87.017 0.052 87.017 0.999 -2.967
574.125 0.999 -3.102 0.054 86.882 0.054 86.882 0.999 -3.102
599.083 0.998 -3.237 0.056 86.746 0.056 86.746 0.998 -3.237
624.042 0.998 -3.372 0.059 86.61 0.059 86.61 0.998 -3.372
649 0.998 -3.507 0.061 86.474 0.061 86.474 0.998 -3.507
673.958 0.998 -3.642 0.064 86.339 0.064 86.339 0.998 -3.642
698.917 0.998 -3.777 0.066 86.203 0.066 86.203 0.998 -3.777
723.875 0.998 -3.912 0.068 86.067 0.068 86.067 0.998 -3.912
748.833 0.997 -4.047 0.071 85.931 0.071 85.931 0.997 -4.047
773.792 0.997 -4.182 0.073 85.795 0.073 85.795 0.997 -4.182
798.75 0.997 -4.318 0.075 85.659 0.075 85.659 0.997 -4.318
823.708 0.997 -4.453 0.078 85.523 0.078 85.523 0.997 -4.453
848.667 0.997 -4.588 0.08 85.388 0.08 85.388 0.997 -4.588
873.625 0.997 -4.723 0.082 85.252 0.082 85.252 0.997 -4.723
898.583 0.996 -4.858 0.085 85.116 0.085 85.116 0.996 -4.858
923.542 0.996 -4.994 0.087 84.98 0.087 84.98 0.996 -4.994
948.5 0.996 -5.129 0.089 84.843 0.089 84.843 0.996 -5.129
973.458 0.996 -5.264 0.092 84.707 0.092 84.707 0.996 -5.264
998.417 0.996 -5.4 0.094 84.571 0.094 84.571 0.996 -5.4
1023.375 0.995 -5.535 0.096 84.435 0.096 84.435 0.995 -5.535
1048.333 0.995 -5.671 0.099 84.299 0.099 84.299 0.995 -5.671
1073.292 0.995 -5.806 0.101 84.163 0.101 84.163 0.995 -5.806
1098.25 0.995 -5.942 0.104 84.027 0.104 84.027 0.995 -5.942
1123.208 0.994 -6.077 0.106 83.89 0.106 83.89 0.994 -6.077
1148.167 0.994 -6.213 0.108 83.754 0.108 83.754 0.994 -6.213
1173.125 0.994 -6.348 0.111 83.618 0.111 83.618 0.994 -6.348
1198.083 0.994 -6.484 0.113 83.481 0.113 83.481 0.994 -6.484
1223.042 0.993 -6.62 0.115 83.345 0.115 83.345 0.993 -6.62
1248 0.993 -6.755 0.118 83.208 0.118 83.208 0.993 -6.755
1272.958 0.993 -6.891 0.12 83.072 0.12 83.072 0.993 -6.891
1297.917 0.992 -7.027 0.122 82.935 0.122 82.935 0.992 -7.027
1322.875 0.992 -7.163 0.125 82.799 0.125 82.799 0.992 -7.163
1347.833 0.992 -7.299 0.127 82.662 0.127 82.662 0.992 -7.299
1372.792 0.992 -7.435 0.129 82.525 0.129 82.525 0.992 -7.435
1397.75 0.991 -7.571 0.132 82.389 0.132 82.389 0.991 -7.571
1422.708 0.991 -7.707 0.134 82.252 0.134 82.252 0.991 -7.707
1447.667 0.991 -7.843 0.136 82.115 0.136 82.115 0.991 -7.843
1472.625 0.99 -7.979 0.139 81.978 0.139 81.978 0.99 -7.979
1497.583 0.99 -8.115 0.141 81.841 0.141 81.841 0.99 -8.115
1522.542 0.99 -8.251 0.144 81.704 0.144 81.704 0.99 -8.251
1547.5 0.989 -8.387 0.146 81.567 0.146 81.567 0.989 -8.387
1572.458 0.989 -8.524 0.148 81.43 0.148 81.43 0.989 -8.524
1597.417 0.988 -8.66 0.151 81.293 0.151 81.293 0.988 -8.66
1622.375 0.988 -8.796 0.153 81.156 0.153 81.156 0.988 -8.796
1647.333 0.988 -8.933 0.155 81.019 0.155 81.019 0.988 -8.933
1672.292 0.987 -9.069 0.158 80.882 0.158 80.882 0.987 -9.069
1697.25 0.987 -9.206 0.16 80.744 0.16 80.744 0.987 -9.206
1722.208 0.987 -9.343 0.162 80.607 0.162 80.607 0.987 -9.343
1747.167 0.986 -9.479 0.165 80.47 0.165 80.47 0.986 -9.479
1772.125 0.986 -9.616 0.167 80.332 0.167 80.332 0.986 -9.616
1797.083 0.985 -9.753 0.169 80.195 0.169 80.195 0.985 -9.753
1822.042 0.985 -9.889 0.172 80.057 0.172 80.057 0.985 -9.889
1847 0.985 -10.026 0.174 79.92 0.174 79.92 0.985 -10.026
1871.958 0.984 -10.163 0.176 79.782 0.176 79.782 0.984 -10.163
1896.917 0.984 -10.3 0.179 79.644 0.179 79.644 0.984 -10.3
1921.875 0.983 -10.437 0.181 79.506 0.181 79.506 0.983 -10.437
1946.833 0.983 -10.574 0.184 79.369 0.184 79.369 0.983 -10.574
1971.792 0.982 -10.711 0.186 79.231 0.186 79.231 0.982 -10.711
1996.75 0.982 -10.849 0.188 79.093 0.188 79.093 0.982 -10.849
2021.708 0.981 -10.986 0.191 78.955 0.191 78.955 0.981 -10.986
2046.667 0.981 -11.123 0.193 78.817 0.193 78.817 0.981 -11.123
2071.625 0.981 -11.261 0.195 78.678 0.195 78.678 0.981 -11.261
2096.583 0.98 -11.398 0.198 78.54 0.198 78.54 0.98 -11.398
2121.542 0.98 -11.536 0.2 78.402 0.2 78.402 0.98 -11.536
2146.5 0.979 -11.673 0.202 78.264 0.202 78.264 0.979 -11.673
2171.458 0.979 -11.811 0.205 78.125 0.205 78.125 0.979 -11.811
2196.417 0.978 -11.949 0.207 77.987 0.207 77.987 0.978 -11.949
2221.375 0.978 -12.086 0.209 77.848 0.209 77.848 0.978 -12.086
2246.333 0.977 -12.224 0.212 77.71 0.212 77.71 0.977 -12.224
2271.292 0.977 -12.362 0.214 77.571 0.214 77.571 0.977 -12.362
2296.25 0.976 -12.5 0.216 77.432 0.216 77.432 0.976 -12.5
2321.208 0.976 -12.638 0.219 77.293 0.219 77.293 0.976 -12.638
2346.167 0.975 -12.776 0.221 77.154 0.221 77.154 0.975 -12.776
2371.125 0.974 -12.914 0.223 77.015 0.223 77.015 0.974 -12.914
2396.083 0.974 -13.053 0.226 76.876 0.226 76.876 0.974 -13.053
2421.042 0.973 -13.191 0.228 76.737 0.228 76.737 0.973 -13.191
2446 0.973 -13.329 0.231 76.598 0.231 76.598 0.973 -13.329
2470.958 0.972 -13.468 0.233 76.459 0.233 76.459 0.972 -13.468
2495.917 0.972 -13.606 0.235 76.32 0.235 76.32 0.972 -13.606
2520.875 0.971 -13.745 0.238 76.18 0.238 76.18 0.971 -13.745
2545.833 0.97 -13.884 0.24 76.041 0.24 76.041 0.97 -13.884
2570.792 0.97 -14.023 0.242 75.901 0.242 75.901 0.97 -14.023
2595.75 0.969 -14.161 0.245 75.761 0.245 75.761 0.969 -14.161
2620.708 0.969 -14.3 0.247 75.622 0.247 75.622 0.969 -14.3
2645.667 0.968 -14.439 0.249 75.482 0.249 75.482 0.968 -14.439
2670.625 0.967 -14.578 0.252 75.342 0.252 75.342 0.967 -14.578
2695.583 0.967 -14.718 0.254 75.202 0.254 75.202 0.967 -14.718
2720.542 0.966 -14.857 0.256 75.062 0.256 75.062 0.966 -14.857
2745.5 0.966 -14.996 0.259 74.922 0.259 74.922 0.966 -14.996
2770.458 0.965 -15.136 0.261 74.782 0.261 74.782 0.965 -15.136
2795.417 0.964 -15.275 0.263 74.642 0.263 74.642 0.964 -15.275
2820.375 0.964 -15.415 0.266 74.501 0.266 74.501 0.964 -15.415
2845.333 0.963 -15.554 0.268 74.361 0.268 74.361 0.963 -15.554
2870.292 0.962 -15.694 0.27 74.22 0.27 74.22 0.962 -15.694
2895.25 0.962 -15.834 0.273 74.08 0.273 74.08 0.962 -15.834
2920.208 0.961 -15.974 0.275 73.939 0.275 73.939 0.961 -15.974
2945.167 0.96 -16.114 0.278 73.798 0.278 73.798 0.96 -16.114
2970.125 0.96 -16.254 0.28 73.657 0.28 73.657 0.96 -16.254
2995.083 0.959 -16.394 0.282 73.516 0.282 73.516 0.959 -16.394
3020.042 0.958 -16.534 0.285 73.375 0.285 73.375 0.958 -16.534
3045 0.957 -16.674 0.287 73.234 0.287 73.234 0.957 -16.674
3069.958 0.957 -16.815 0.289 73.093 0.289 73.093 0.957 -16.815
3094.917 0.956 -16.955 0.292 72.952 0.292 72.952 0.956 -16.955
3119.875 0.955 -17.096 0.294 72.81 0.294 72.81 0.955 -17.096
3144.833 0.955 -17.236 0.296 72.669 0.296 72.669 0.955 -17.236
3169.792 0.954 -17.377 0.299 72.527 0.299 72.527 0.954 -17.377
3194.75 0.953 -17.518 0.301 72.385 0.301 72.385 0.953 -17.518
3219.708 0.952 -17.659 0.303 72.244 0.303 72.244 0.952 -17.659
3244.667 0.952 -17.8 0.306 72.102 0.306 72.102 0.952 -17.8
3269.625 0.951 -17.941 0.308 71.96 0.308 71.96 0.951 -17.941
3294.583 0.95 -18.082 0.31 71.818 0.31 71.818 0.95 -18.082
3319.542 0.949 -18.224 0.313 71.676 0.313 71.676 0.949 -18.224
3344.5 0.949 -18.365 0.315 71.533 0.315 71.533 0.949 -18.365
3369.458 0.948 -18.507 0.317 71.391 0.317 71.391 0.948 -18.507
3394.417 0.947 -18.648 0.32 71.249 0.32 71.249 0.947 -18.648
3419.375 0.946 -18.79 0.322 71.106 0.322 71.106 0.946 -18.79
3444.333 0.945 -18.932 0.324 70.963 0.324 70.963 0.945 -18.932
3469.292 0.944 -19.074 0.327 70.821 0.327 70.821 0.944 -19.074
3494.25 0.944 -19.216 0.329 70.678 0.329 70.678 0.944 -19.216
3519.208 0.943 -19.358 0.331 70.535 0.331 70.535 0.943 -19.358
3544.167 0.942 -19.5 0.334 70.392 0.334 70.392 0.942 -19.5
3569.125 0.941 -19.642 0.336 70.249 0.336 70.249 0.941 -19.642
3594.083 0.94 -19.784 0.338 70.106 0.338 70.106 0.94 -19.784
3619.042 0.939 -19.927 0.341 69.962 0.341 69.962 0.939 -19.927
3644 0.939 -20.069 0.343 69.819 0.343 69.819 0.939 -20.069
3668.958 0.938 -20.212 0.345 69.675 0.345 69.675 0.938 -20.212
3693.917 0.937 -20.355 0.348 69.532 0.348 69.532 0.937 -20.355
3718.875 0.936 -20.498 0.35 69.388 0.35 69.388 0.936 -20.498
3743.833 0.935 -20.641 0.353 69.244 0.353 69.244 0.935 -20.641
3768.792 0.934 -20.784 0.355 69.1 0.355 69.1 0.934 -20.784
3793.75 0.933 -20.927 0.357 68.956 0.357 68.956 0.933 -20.927
3818.708 0.932 -21.07 0.36 68.812 0.36 68.812 0.932 -21.07
3843.667 0.931 -21.213 0.362 68.668 0.362 68.668 0.931 -21.213
3868.625 0.931 -21.357 0.364 68.523 0.364 68.523 0.931 -21.357
3893.583 0.93 -21.501 0.367 68.379 0.367 68.379 0.93 -21.501
3918.542 0.929 -21.644 0.369 68.234 0.369 68.234 0.929 -21.644
3943.5 0.928 -21.788 0.371 68.09 0.371 68.09 0.928 -21.788
3968.458 0.927 -21.932 0.374 67.945 0.374 67.945 0.927 -21.932
3993.417 0.926 -22.076 0.376 67.8 0.376 67.8 0.926 -22.076
4018.375 0.925 -22.22 0.378 67.655 0.378 67.655 0.925 -22.22
4043.333 0.924 -22.364 0.38 67.51 0.38 67.51 0.924 -22.364
4068.292 0.923 -22.509 0.383 67.365 0.383 67.365 0.923 -22.509
4093.25 0.922 -22.653 0.385 67.219 0.385 67.219 0.922 -22.653
4118.208 0.921 -22.797 0.387 67.074 0.387 67.074 0.921 -22.797
4143.167 0.92 -22.942 0.39 66.928 0.39 66.928 0.92 -22.942
4168.125 0.919 -23.087 0.392 66.783 0.392 66.783 0.919 -23.087
4193.083 0.918 -23.232 0.394 66.637 0.394 66.637 0.918 -23.232
4218.042 0.917 -23.377 0.397 66.491 0.397 66.491 0.917 -23.377
4243 0.916 -23.522 0.399 66.345 0.399 66.345 0.916 -23.522
4267.958 0.915 -23.667 0.401 66.199 0.401 66.199 0.915 -23.667
4292.917 0.914 -23.812 0.404 66.053 0.404 66.053 0.914 -23.812
4317.875 0.913 -23.958 0.406 65.906 0.406 65.906 0.913 -23.958
4342.833 0.912 -24.103 0.408 65.76 0.408 65.76 0.912 -24.103
4367.792 0.911 -24.249 0.411 65.613 0.411 65.613 0.911 -24.249
4392.75 0.91 -24.394 0.413 65.467 0.413 65.467 0.91 -24.394
4417.708 0.909 -24.54 0.415 65.32 0.415 65.32 0.909 -24.54
4442.667 0.908 -24.686 0.418 65.173 0.418 65.173 0.908 -24.686
4467.625 0.907 -24.832 0.42 65.026 0.42 65.026 0.907 -24.832
4492.583 0.905 -24.979 0.422 64.879 0.422 64.879 0.905 -24.979
4517.542 0.904 -25.125 0.425 64.732 0.425 64.732 0.904 -25.125
4542.5 0.903 -25.271 0.427 64.584 0.427 64.584 0.903 -25.271
4567.458 0.902 -25.418 0.429 64.437 0.429 64.437 0.902 -25.418
4592.417 0.901 -25.564 0.432 64.289 0.432 64.289 0.901 -25.564
4617.375 0.9 -25.711 0.434 64.142 0.434 64.142 0.9 -25.711
4642.333 0.899 -25.858 0.436 63.994 0.436 63.994 0.899 -25.858
4667.292 0.898 -26.005 0.438 63.846 0.438 63.846 0.898 -26.005
4692.25 0.896 -26.152 0.441 63.698 0.441 63.698 0.896 -26.152
4717.208 0.895 -26.299 0.443 63.55 0.443 63.55 0.895 -26.299
4742.167 0.894 -26.447 0.445 63.401 0.445 63.401 0.894 -26.447
4767.125 0.893 -26.594 0.448 63.253 0.448 63.253 0.893 -26.594
4792.083 0.892 -26.741 0.45 63.104 0.45 63.104 0.892 -26.741
4817.042 0.891 -26.889 0.452 62.956 0.452 62.956 0.891 -26.889
4842 0.889 -27.037 0.455 62.807 0.455 62.807 0.889 -27.037
4866.958 0.888 -27.185 0.457 62.658 0.457 62.658 0.888 -27.185
4891.917 0.887 -27.333 0.459 62.509 0.459 62.509 0.887 -27.333
4916.875 0.886 -27.481 0.461 62.36 0.461 62.36 0.886 -27.481
4941.833 0.885 -27.629 0.464 62.211 0.464 62.211 0.885 -27.629
4966.792 0.883 -27.778 0.466 62.061 0.466 62.061 0.883 -27.778
4991.75 0.882 -27.926 0.468 61.912 0.468 61.912 0.882 -27.926
5016.708 0.881 -28.075 0.471 61.762 0.471 61.762 0.881 -28.075
5041.667 0.88 -28.223 0.473 61.612 0.473 61.612 0.88 -28.223
5066.625 0.879 -28.372 0.475 61.463 0.475 61.463 0.879 -28.372
5091.583 0.877 -28.521 0.477 61.313 0.477 61.313 0.877 -28.521
5116.542 0.876 -28.67 0.48 61.163 0.48 61.163 0.876 -28.67
5141.5 0.875 -28.819 0.482 61.012 0.482 61.012 0.875 -28.819
5166.458 0.873 -28.969 0.484 60.862 0.484 60.862 0.873 -28.969
5191.417 0.872 -29.118 0.487 60.712 0.487 60.712 0.872 -29.118
5216.375 0.871 -29.267 0.489 60.561 0.489 60.561 0.871 -29.267
5241.333 0.87 -29.417 0.491 60.41 0.491 60.41 0.87 -29.417
5266.292 0.868 -29.567 0.493 60.26 0.493 60.26 0.868 -29.567
5291.25 0.867 -29.717 0.496 60.109 0.496 60.109 0.867 -29.717
5316.208 0.866 -29.867 0.498 59.958 0.498 59.958 0.866 -29.867
5341.167 0.864 -30.017 0.5 59.806 0.5 59.806 0.864 -30.017
5366.125 0.863 -30.167 0.503 59.655 0.503 59.655 0.863 -30.167
5391.083 0.862 -30.317 0.505 59.504 0.505 59.504 0.862 -30.317
5416.042 0.86 -30.468 0.507 59.352 0.507 59.352 0.86 -30.468
5441 0.859 -30.618 0.509 59.2 0.509 59.2 0.859 -30.618
5465.958 0.858 -30.769 0.512 59.049 0.512 59.049 0.858 -30.769
5490.917 0.856 -30.92 0.514 58.897 0.514 58.897 0.856 -30.92
5515.875 0.855 -31.071 0.516 58.745 0.516 58.745 0.855 -31.071
5540.833 0.853 -31.222 0.518 58.593 0.518 58.593 0.853 -31.222
5565.792 0.852 -31.373 0.521 58.44 0.521 58.44 0.852 -31.373
5590.75 0.851 -31.524 0.523 58.288 0.523 58.288 0.851 -31.524
5615.708 0.849 -31.676 0.525 58.135 0.525 58.135 0.849 -31.676
5640.667 0.848 -31.827 0.527 57.983 0.527 57.983 0.848 -31.827
5665.625 0.846 -31.979 0.53 57.83 0.53 57.83 0.846 -31.979
5690.583 0.845 -32.131 0.532 57.677 0.532 57.677 0.845 -32.131
5715.542 0.844 -32.283 0.534 57.524 0.534 57.524 0.844 -32.283
5740.5 0.842 -32.434 0.536 57.371 0.536 57.371 0.842 -32.434
5765.458 0.841 -32.587 0.539 57.218 0.539 57.218 0.841 -32.587
5790.417 0.839 -32.739 0.541 57.064 0.541 57.064 0.839 -32.739
5815.375 0.838 -32.891 0.543 56.911 0.543 56.911 0.838 -32.891
5840.333 0.836 -33.044 0.545 56.757 0.545 56.757 0.836 -33.044
5865.292 0.835 -33.196 0.548 56.603 0.548 56.603 0.835 -33.196
5890.25 0.833 -33.349 0.55 56.45 0.55 56.45 0.833 -33.349
5915.208 0.832 -33.502 0.552 56.296 0.552 56.296 0.832 -33.502
5940.167 0.83 -33.655 0.554 56.142 0.554 56.142 0.83 -33.655
5965.125 0.829 -33.808 0.556 55.987 0.556 55.987 0.829 -33.808
5990.083 0.827 -33.961 0.559 55.833 0.559 55.833 0.827 -33.961
6015.042 0.826 -34.114 0.561 55.679 0.561 55.679 0.826 -34.114
6040 0.824 -34.267 0.563 55.524 0.563 55.524 0.824 -34.267
6064.958 0.823 -34.421 0.565 55.369 0.565 55.369 0.823 -34.421
6089.917 0.821 -34.574 0.567 55.214 0.567 55.214 0.821 -34.574
6114.875 0.82 -34.728 0.57 55.06 0.57 55.06 0.82 -34.728
6139.833 0.818 -34.882 0.572 54.904 0.572 54.904 0.818 -34.882
6164.792 0.817 -35.036 0.574 54.749 0.574 54.749 0.817 -35.036
6189.75 0.815 -35.19 0.576 54.594 0.576 54.594 0.815 -35.19
6214.708 0.813 -35.344 0.578 54.439 0.578 54.439 0.813 -35.344
6239.667 0.812 -35.498 0.581 54.283 0.581 54.283 0.812 -35.498
6264.625 0.81 -35.653 0.583 54.127 0.583 54.127 0.81 -35.653
6289.583 0.809 -35.807 0.585 53.972 0.585 53.972 0.809 -35.807
6314.542 0.807 -35.962 0.587 53.816 0.587 53.816 0.807 -35.962
6339.5 0.806 -36.117 0.589 53.66 0.589 53.66 0.806 -36.117
6364.458 0.804 -36.272 0.592 53.504 0.592 53.504 0.804 -36.272
6389.417 0.802 -36.427 0.594 53.347 0.594 53.347 0.802 -36.427
6414.375 0.801 -36.582 0.596 53.191 0.596 53.191 0.801 -36.582
6439.333 0.799 -36.737 0.598 53.035 0.598 53.035 0.799 -36.737
6464.292 0.797 -36.892 0.6 52.878 0.6 52.878 0.797 -36.892
6489.25 0.796 -37.047 0.602 52.721 0.602 52.721 0.796 -37.047
6514.208 0.794 -37.203 0.605 52.564 0.605 52.564 0.794 -37.203
6539.167 0.792 -37.359 0.607 52.407 0.607 52.407 0.792 -37.359
6564.125 0.791 -37.514 0.609 52.25 0.609 52.25 0.791 -37.514
6589.083 0.789 -37.67 0.611 52.093 0.611 52.093 0.789 -37.67
6614.042 0.787 -37.826 0.613 51.936 0.613 51.936 0.787 -37.826
6639 0.786 -37.982 0.615 51.779 0.615 51.779 0.786 -37.982
6663.958 0.784 -38.138 0.618 51.621 0.618 51.621 0.784 -38.138
6688.917 0.782 -38.295 0.62 51.463 0.62 51.463 0.782 -38.295
6713.875 0.78 -38.451 0.622 51.306 0.622 51.306 0.78 -38.451
6738.833 0.779 -38.607 0.624 51.148 0.624 51.148 0.779 -38.607
6763.792 0.777 -38.764 0.626 50.99 0.626 50.99 0.777 -38.764
6788.75 0.775 -38.921 0.628 50.832 0.628 50.832 0.775 -38.921
6813.708 0.774 -39.077 0.63 50.674 0.63 50.674 0.774 -39.077
6838.667 0.772 -39.234 0.632 50.515 0.632 50.515 0.772 -39.234
6863.625 0.77 -39.391 0.635 50.357 0.635 50.357 0.77 -39.391
6888.583 0.768 -39.548 0.637 50.198 0.637 50.198 0.768 -39.548
6913.542 0.766 -39.706 0.639 50.04 0.639 50.04 0.766 -39.706
6938.5 0.765 -39.863 0.641 49.881 0.641 49.881 0.765 -39.863
6963.458 0.763 -40.02 0.643 49.722 0.643 49.722 0.763 -40.02
6988.417 0.761 -40.178 0.645 49.563 0.645 49.563 0.761 -40.178
7013.375 0.759 -40.335 0.647 49.404 0.647 49.404 0.759 -40.335
7038.333 0.758 -40.493 0.649 49.245 0.649 49.245 0.758 -40.493
7063.292 0.756 -40.651 0.651 49.086 0.651 49.086 0.756 -40.651
7088.25 0.754 -40.809 0.654 48.927 0.654 48.927 0.754 -40.809
7113.208 0.752 -40.967 0.656 48.767 0.656 48.767 0.752 -40.967
7138.167 0.75 -41.125 0.658 48.607 0.658 48.607 0.75 -41.125
7163.125 0.748 -41.283 0.66 48.448 0.66 48.448 0.748 -41.283
7188.083 0.747 -41.441 0.662 48.288 0.662 48.288 0.747 -41.441
7213.042 0.745 -41.599 0.664 48.128 0.664 48.128 0.745 -41.599
7238 0.743 -41.758 0.666 47.968 0.666 47.968 0.743 -41.758
7262.958 0.741 -41.916 0.668 47.808 0.668 47.808 0.741 -41.916
7287.917 0.739 -42.075 0.67 47.648 0.67 47.648 0.739 -42.075
7312.875 0.737 -42.234 0.672 47.488 0.672 47.488 0.737 -42.234
7337.833 0.735 -42.393 0.674 47.327 0.674 47.327 0.735 -42.393
7362.792 0.733 -42.552 0.676 47.167 0.676 47.167 0.733 -42.552
7387.75 0.731 -42.711 0.678 47.006 0.678 47.006 0.731 -42.711
7412.708 0.73 -42.87 0.68 46.845 0.68 46.845 0.73 -42.87
7437.667 0.728 -43.029 0.682 46.685 0.682 46.685 0.728 -43.029
7462.625 0.726 -43.188 0.684 46.524 0.684 46.524 0.726 -43.188
7487.583 0.724 -43.347 0.686 46.363 0.686 46.363 0.724 -43.347
7512.542 0.722 -43.507 0.688 46.202 0.688 46.202 0.722 -43.507
7537.5 0.72 -43.666 0.69 46.041 0.69 46.041 0.72 -43.666
7562.458 0.718 -43.826 0.692 45.879 0.692 45.879 0.718 -43.826
7587.417 0.716 -43.986 0.694 45.718 0.694 45.718 0.716 -43.986
7612.375 0.714 -44.145 0.696 45.557 0.696 45.557 0.714 -44.145
7637.333 0.712 -44.305 0.698 45.395 0.698 45.395 0.712 -44.305
7662.292 0.71 -44.465 0.7 45.233 0.7 45.233 0.71 -44.465
7687.25 0.708 -44.625 0.702 45.072 0.702 45.072 0.708 -44.625
7712.208 0.706 -44.785 0.704 44.91 0.704 44.91 0.706 -44.785
7737.167 0.704 -44.945 0.706 44.748 0.706 44.748 0.704 -44.945
7762.125 0.702 -45.106 0.708 44.586 0.708 44.586 0.702 -45.106
7787.083 0.7 -45.266 0.71 44.424 0.71 44.424 0.7 -45.266
7812.042 0.698 -45.426 0.712 44.262 0.712 44.262 0.698 -45.426
7837 0.696 -45.587 0.714 44.1 0.714 44.1 0.696 -45.587
7861.958 0.694 -45.747 0.716 43.937 0.716 43.937 0.694 -45.747
7886.917 0.692 -45.908 0.718 43.775 0.718 43.775 0.692 -45.908
7911.875 0.69 -46.068 0.72 43.613 0.72 43.613 0.69 -46.068
7936.833 0.688 -46.229 0.722 43.45 0.722 43.45 0.688 -46.229
7961.792 0.686 -46.39 0.724 43.287 0.724 43.287 0.686 -46.39
7986.75 0.684 -46.551 0.726 43.125 0.726 43.125 0.684 -46.551
8011.708 0.682 -46.712 0.728 42.962 0.728 42.962 0.682 -46.712
8036.667 0.679 -46.873 0.73 42.799 0.73 42.799 0.679 -46.873
8061.625 0.677 -47.034 0.732 42.636 0.732 42.636 0.677 -47.034
8086.583 0.675 -47.195 0.734 42.473 0.734 42.473 0.675 -47.195
8111.542 0.673 -47.356 0.736 42.31 0.736 42.31 0.673 -47.356
8136.5 0.671 -47.517 0.737 42.147 0.737 42.147 0.671 -47.517
8161.458 0.669 -47.679 0.739 41.984 0.739 41.984 0.669 -47.679
8186.417 0.667 -47.84 0.741 41.82 0.741 41.82 0.667 -47.84
8211.375 0.665 -48.001 0.743 41.657 0.743 41.657 0.665 -48.001
8236.333 0.663 -48.163 0.745 41.493 0.745 41.493 0.663 -48.163
8261.292 0.66 -48.325 0.747 41.33 0.747 41.33 0.66 -48.325
8286.25 0.658 -48.486 0.749 41.166 0.749 41.166 0.658 -48.486
8311.208 0.656 -48.648 0.751 41.003 0.751 41.003 0.656 -48.648
8336.167 0.654 -48.809 0.753 40.839 0.753 40.839 0.654 -48.809
8361.125 0.652 -48.971 0.754 40.675 0.754 40.675 0.652 -48.971
8386.083 0.65 -49.133 0.756 40.511 0.756 40.511 0.65 -49.133
8411.042 0.647 -49.295 0.758 40.348 0.758 40.348 0.647 -49.295
8436 0.645 -49.457 0.76 40.184 0.76 40.184 0.645 -49.457
8460.958 0.643 -49.619 0.762 40.02 0.762 40.02 0.643 -49.619
8485.917 0.641 -49.781 0.764 39.855 0.764 39.855 0.641 -49.781
8510.875 0.639 -49.943 0.765 39.691 0.765 39.691 0.639 -49.943
8535.833 0.636 -50.105 0.767 39.527 0.767 39.527 0.636 -50.105
8560.792 0.634 -50.267 0.769 39.363 0.769 39.363 0.634 -50.267
8585.75 0.632 -50.429 0.771 39.198 0.771 39.198 0.632 -50.429
8610.708 0.63 -50.591 0.773 39.034 0.773 39.034 0.63 -50.591
8635.667 0.628 -50.753 0.774 38.87 0.774 38.87 0.628 -50.753
8660.625 0.625 -50.916 0.776 38.705 0.776 38.705 0.625 -50.916
8685.583 0.623 -51.078 0.778 38.541 0.778 38.541 0.623 -51.078
8710.542 0.621 -51.24 0.78 38.376 0.78 38.376 0.621 -51.24
8735.5 0.619 -51.403 0.782 38.212 0.782 38.212 0.619 -51.403
8760.458 0.616 -51.565 0.783 38.047 0.783 38.047 0.616 -51.565
8785.417 0.614 -51.727 0.785 37.882 0.785 37.882 0.614 -51.727
8810.375 0.612 -51.89 0.787 37.717 0.787 37.717 0.612 -51.89
8835.333 0.61 -52.052 0.789 37.553 0.789 37.553 0.61 -52.052
8860.292 0.607 -52.215 0.79 37.388 0.79 37.388 0.607 -52.215
8885.25 0.605 -52.377 0.792 37.223 0.792 37.223 0.605 -52.377
8910.208 0.603 -52.54 0.794 37.058 0.794 37.058 0.603 -52.54
8935.167 0.6 -52.702 0.796 36.893 0.796 36.893 0.6 -52.702
8960.125 0.598 -52.865 0.797 36.728 0.797 36.728 0.598 -52.865
8985.083 0.596 -53.027 0.799 36.563 0.799 36.563 0.596 -53.027
9010.042 0.593 -53.19 0.801 36.398 0.801 36.398 0.593 -53.19
9035 0.591 -53.353 0.802 36.233 0.802 36.233 0.591 -53.353
9059.958 0.589 -53.515 0.804 36.068 0.804 36.068 0.589 -53.515
9084.917 0.586 -53.678 0.806 35.902 0.806 35.902 0.586 -53.678
9109.875 0.584 -53.841 0.807 35.737 0.807 35.737 0.584 -53.841
9134.833 0.582 -54.003 0.809 35.572 0.809 35.572 0.582 -54.003
9159.792 0.579 -54.166 0.811 35.407 0.811 35.407 0.579 -54.166
9184.75 0.577 -54.329 0.812 35.241 0.812 35.241 0.577 -54.329
9209.708 0.575 -54.491 0.814 35.076 0.814 35.076 0.575 -54.491
9234.667 0.572 -54.654 0.816 34.911 0.816 34.911 0.572 -54.654
9259.625 0.57 -54.817 0.817 34.745 0.817 34.745 0.57 -54.817
9284.583 0.568 -54.979 0.819 34.58 0.819 34.58 0.568 -54.979
9309.542 0.565 -55.142 0.821 34.415 0.821 34.415 0.565 -55.142
9334.5 0.563 -55.305 0.822 34.249 0.822 34.249 0.563 -55.305
9359.458 0.56 -55.467 0.824 34.084 0.824 34.084 0.56 -55.467
9384.417 0.558 -55.63 0.825 33.918 0.825 33.918 0.558 -55.63
9409.375 0.556 -55.793 0.827 33.753 0.827 33.753 0.556 -55.793
9434.333 0.553 -55.955 0.829 33.587 0.829 33.587 0.553 -55.955
9459.292 0.551 -56.118 0.83 33.422 0.83 33.422 0.551 -56.118
9484.25 0.548 -56.28 0.832 33.256 0.832 33.256 0.548 -56.28
9509.208 0.546 -56.443 0.833 33.091 0.833 33.091 0.546 -56.443
9534.167 0.544 -56.606 0.835 32.925 0.835 32.925 0.544 -56.606
9559.125 0.541 -56.768 0.836 32.76 0.836 32.76 0.541 -56.768
9584.083 0.539 -56.931 0.838 32.594 0.838 32.594 0.539 -56.931
9609.042 0.536 -57.093 0.84 32.429 0.84 32.429 0.536 -57.093
9634 0.534 -57.256 0.841 32.263 0.841 32.263 0.534 -57.256
9658.958 0.531 -57.418 0.843 32.098 0.843 32.098 0.531 -57.418
9683.917 0.529 -57.58 0.844 31.932 0.844 31.932 0.529 -57.58
9708.875 0.526 -57.743 0.846 31.766 0.846 31.766 0.526 -57.743
9733.833 0.524 -57.905 0.847 31.601 0.847 31.601 0.524 -57.905
9758.792 0.522 -58.068 0.849 31.435 0.849 31.435 0.522 -58.068
9783.75 0.519 -58.23 0.85 31.27 0.85 31.27 0.519 -58.23
9808.708 0.517 -58.392 0.852 31.104 0.852 31.104 0.517 -58.392
9833.667 0.514 -58.554 0.853 30.939 0.853 30.939 0.514 -58.554
9858.625 0.512 -58.716 0.855 30.773 0.855 30.773 0.512 -58.716
9883.583 0.509 -58.879 0.856 30.608 0.856 30.608 0.509 -58.879
9908.542 0.507 -59.041 0.858 30.442 0.858 30.442 0.507 -59.041
9933.5 0.504 -59.203 0.859 30.277 0.859 30.277 0.504 -59.203
9958.458 0.502 -59.365 0.86 30.111 0.86 30.111 0.502 -59.365
9983.417 0.499 -59.527 0.862 29.946 0.862 29.946 0.499 -59.527
10008.375 0.497 -59.688 0.863 29.781 0.863 29.781 0.497 -59.688
10033.333 0.494 -59.85 0.865 29.615 0.865 29.615 0.494 -59.85
10058.292 0.492 -60.012 0.866 29.45 0.866 29.45 0.492 -60.012
10083.25 0.489 -60.174 0.868 29.284 0.868 29.284 0.489 -60.174
10108.208 0.487 -60.335 0.869 29.119 0.869 29.119 0.487 -60.335
10133.167 0.484 -60.497 0.87 28.954 0.87 28.954 0.484 -60.497
10158.125 0.482 -60.659 0.872 28.788 0.872 28.788 0.482 -60.659
10183.083 0.479 -60.82 0.873 28.623 0.873 28.623 0.479 -60.82
10208.042 0.477 -60.981 0.875 28.458 0.875 28.458 0.477 -60.981
10233 0.474 -61.143 0.876 28.293 0.876 28.293 0.474 -61.143
10257.958 0.471 -61.304 0.877 28.128 0.877 28.128 0.471 -61.304
10282.917 0.469 -61.465 0.879 27.963 0.879 27.963 0.469 -61.465
10307.875 0.466 -61.626 0.88 27.797 0.88 27.797 0.466 -61.626
10332.833 0.464 -61.787 0.881 27.632 0.881 27.632 0.464 -61.787
10357.792 0.461 -61.948 0.883 27.467 0.883 27.467 0.461 -61.948
10382.75 0.459 -62.109 0.884 27.302 0.884 27.302 0.459 -62.109
10407.708 0.456 -62.27 0.885 27.137 0.885 27.137 0.456 -62.27
10432.667 0.454 -62.43 0.886 26.973 0.886 26.973 0.454 -62.43
10457.625 0.451 -62.591 0.888 26.808 0.888 26.808 0.451 -62.591
10482.583 0.448 -62.751 0.889 26.643 0.889 26.643 0.448 -62.751
10507.542 0.446 -62.912 0.89 26.478 0.89 26.478 0.446 -62.912
10532.5 0.443 -63.072 0.892 26.313 0.892 26.313 0.443 -63.072
10557.458 0.441 -63.232 0.893 26.149 0.893 26.149 0.441 -63.232
10582.417 0.438 -63.392 0.894 25.984 0.894 25.984 0.438 -63.392
10607.375 0.436 -63.552 0.895 25.82 0.895 25.82 0.436 -63.552
10632.333 0.433 -63.712 0.897 25.655 0.897 25.655 0.433 -63.712
10657.292 0.43 -63.872 0.898 25.491 0.898 25.491 0.43 -63.872
10682.25 0.428 -64.032 0.899 25.326 0.899 25.326 0.428 -64.032
10707.208 0.425 -64.191 0.9 25.162 0.9 25.162 0.425 -64.191
10732.167 0.423 -64.351 0.902 24.998 0.902 24.998 0.423 -64.351
10757.125 0.42 -64.51 0.903 24.834 0.903 24.834 0.42 -64.51
10782.083 0.417 -64.669 0.904 24.669 0.904 24.669 0.417 -64.669
10807.042 0.415 -64.828 0.905 24.505 0.905 24.505 0.415 -64.828
10832 0.412 -64.987 0.906 24.341 0.906 24.341 0.412 -64.987
10856.958 0.41 -65.146 0.907 24.177 0.907 24.177 0.41 -65.146
10881.917 0.407 -65.305 0.909 24.013 0.909 24.013 0.407 -65.305
10906.875 0.404 -65.463 0.91 23.85 0.91 23.85 0.404 -65.463
10931.833 0.402 -65.621 0.911 23.686 0.911 23.686 0.402 -65.621
10956.792 0.399 -65.78 0.912 23.522 0.912 23.522 0.399 -65.78
10981.75 0.397 -65.938 0.913 23.359 0.913 23.359 0.397 -65.938
11006.708 0.394 -66.096 0.914 23.195 0.914 23.195 0.394 -66.096
11031.667 0.391 -66.254 0.915 23.032 0.915 23.032 0.391 -66.254
11056.625 0.389 -66.411 0.917 22.868 0.917 22.868 0.389 -66.411
11081.583 0.386 -66.569 0.918 22.705 0.918 22.705 0.386 -66.569
11106.542 0.383 -66.726 0.919 22.542 0.919 22.542 0.383 -66.726
11131.5 0.381 -66.883 0.92 22.379 0.92 22.379 0.381 -66.883
11156.458 0.378 -67.04 0.921 22.216 0.921 22.216 0.378 -67.04
11181.417 0.375 -67.197 0.922 22.053 0.922 22.053 0.375 -67.197
11206.375 0.373 -67.354 0.923 21.89 0.923 21.89 0.373 -67.354
11231.333 0.37 -67.51 0.924 21.727 0.924 21.727 0.37 -67.51
11256.292 0.368 -67.667 0.925 21.565 0.925 21.565 0.368 -67.667
11281.25 0.365 -67.823 0.926 21.402 0.926 21.402 0.365 -67.823
11306.208 0.362 -67.979 0.927 21.24 0.927 21.24 0.362 -67.979
11331.167 0.36 -68.135 0.928 21.077 0.928 21.077 0.36 -68.135
11356.125 0.357 -68.29 0.929 20.915 0.929 20.915 0.357 -68.29
11381.083 0.354 -68.445 0.93 20.753 0.93 20.753 0.354 -68.445
11406.042 0.352 -68.601 0.931 20.591 0.931 20.591 0.352 -68.601
11431 0.349 -68.756 0.932 20.429 0.932 20.429 0.349 -68.756
11455.958 0.346 -68.91 0.933 20.267 0.933 20.267 0.346 -68.91
11480.917 0.344 -69.065 0.934 20.105 0.934 20.105 0.344 -69.065
11505.875 0.341 -69.219 0.935 19.943 0.935 19.943 0.341 -69.219
11530.833 0.338 -69.374 0.936 19.782 0.936 19.782 0.338 -69.374
11555.792 0.336 -69.528 0.937 19.62 0.937 19.62 0.336 -69.528
11580.75 0.333 -69.681 0.938 19.459 0.938 19.459 0.333 -69.681
11605.708 0.331 -69.835 0.939 19.298 0.939 19.298 0.331 -69.835
11630.667 0.328 -69.988 0.94 19.136 0.94 19.136 0.328 -69.988
11655.625 0.325 -70.141 0.941 18.975 0.941 18.975 0.325 -70.141
11680.583 0.323 -70.294 0.942 18.814 0.942 18.814 0.323 -70.294
11705.542 0.32 -70.446 0.942 18.654 0.942 18.654 0.32 -70.446
11730.5 0.317 -70.599 0.943 18.493 0.943 18.493 0.317 -70.599
11755.458 0.315 -70.751 0.944 18.332 0.944 18.332 0.315 -70.751
11780.417 0.312 -70.902 0.945 18.172 0.945 18.172 0.312 -70.902
11805.375 0.309 -71.054 0.946 18.012 0.946 18.012 0.309 -71.054
11830.333 0.307 -71.205 0.947 17.852 0.947 17.852 0.307 -71.205
11855.292 0.304 -71.356 0.948 17.691 0.948 17.691 0.304 -71.356
11880.25 0.301 -71.507 0.948 17.531 0.948 17.531 0.301 -71.507
11905.208 0.299 -71.657 0.949 17.372 0.949 17.372 0.299 -71.657
11930.167 0.296 -71.807 0.95 17.212 0.95 17.212 0.296 -71.807
11955.125 0.293 -71.957 0.951 17.052 0.951 17.052 0.293 -71.957
11980.083 0.291 -72.107 0.952 16.893 0.952 16.893 0.291 -72.107
12005.042 0.288 -72.256 0.953 16.734 0.953 16.734 0.288 -72.256
12030 0.285 -72.405 0.953 16.575 0.953 16.575 0.285 -72.405
12054.958 0.283 -72.553 0.954 16.415 0.954 16.415 0.283 -72.553
12079.917 0.28 -72.702 0.955 16.257 0.955 16.257 0.28 -72.702
12104.875 0.277 -72.849 0.956 16.098 0.956 16.098 0.277 -72.849
12129.833 0.275 -72.997 0.956 15.939 0.956 15.939 0.275 -72.997
12154.792 0.272 -73.144 0.957 15.781 0.957 15.781 0.272 -73.144
12179.75 0.269 -73.291 0.958 15.622 0.958 15.622 0.269 -73.291
12204.708 0.267 -73.438 0.959 15.464 0.959 15.464 0.267 -73.438
12229.667 0.264 -73.584 0.959 15.306 0.959 15.306 0.264 -73.584
12254.625 0.261 -73.73 0.96 15.148 0.96 15.148 0.261 -73.73
12279.583 0.259 -73.875 0.961 14.99 0.961 14.99 0.259 -73.875
12304.542 0.256 -74.02 0.962 14.833 0.962 14.833 0.256 -74.02
12329.5 0.253 -74.165 0.962 14.675 0.962 14.675 0.253 -74.165
12354.458 0.251 -74.309 0.963 14.518 0.963 14.518 0.251 -74.309
12379.417 0.248 -74.452 0.964 14.361 0.964 14.361 0.248 -74.452
12404.375 0.245 -74.596 0.964 14.204 0.964 14.204 0.245 -74.596
12429.333 0.243 -74.739 0.965 14.047 0.965 14.047 0.243 -74.739
12454.292 0.24 -74.881 0.966 13.89 0.966 13.89 0.24 -74.881
12479.25 0.237 -75.023 0.966 13.734 0.966 13.734 0.237 -75.023
12504.208 0.235 -75.165 0.967 13.577 0.967 13.577 0.235 -75.165
12529.167 0.232 -75.306 0.968 13.421 0.968 13.421 0.232 -75.306
12554.125 0.23 -75.446 0.968 13.265 0.968 13.265 0.23 -75.446
12579.083 0.227 -75.586 0.969 13.109 0.969 13.109 0.227 -75.586
12604.042 0.224 -75.726 0.969 12.953 0.969 12.953 0.224 -75.726
12629 0.222 -75.865 0.97 12.798 0.97 12.798 0.222 -75.865
12653.958 0.219 -76.003 0.971 12.642 0.971 12.642 0.219 -76.003
12678.917 0.216 -76.141 0.971 12.487 0.971 12.487 0.216 -76.141
12703.875 0.214 -76.278 0.972 12.332 0.972 12.332 0.214 -76.278
12728.833 0.211 -76.415 0.972 12.177 0.972 12.177 0.211 -76.415
12753.792 0.208 -76.551 0.973 12.022 0.973 12.022 0.208 -76.551
12778.75 0.206 -76.687 0.973 11.868 0.973 11.868 0.206 -76.687
12803.708 0.203 -76.822 0.974 11.713 0.974 11.713 0.203 -76.822
12828.667 0.2 -76.956 0.975 11.559 0.975 11.559 0.2 -76.956
12853.625 0.198 -77.089 0.975 11.405 0.975 11.405 0.198 -77.089
12878.583 0.195 -77.222 0.976 11.251 0.976 11.251 0.195 -77.222
12903.542 0.193 -77.354 0.976 11.097 0.976 11.097 0.193 -77.354
12928.5 0.19 -77.485 0.977 10.944 0.977 10.944 0.19 -77.485
12953.458 0.187 -77.616 0.977 10.79 0.977 10.79 0.187 -77.616
12978.417 0.185 -77.745 0.978 10.637 0.978 10.637 0.185 -77.745
13003.375 0.182 -77.874 0.978 10.484 0.978 10.484 0.182 -77.874
13028.333 0.179 -78.002 0.979 10.331 0.979 10.331 0.179 -78.002
13053.292 0.177 -78.129 0.979 10.179 0.979 10.179 0.177 -78.129
13078.25 0.174 -78.256 0.98 10.026 0.98 10.026 0.174 -78.256
13103.208 0.172 -78.381 0.98 9.874 0.98 9.874 0.172 -78.381
13128.167 0.169 -78.505 0.98 9.722 0.98 9.722 0.169 -78.505
13153.125 0.166 -78.628 0.981 9.57 0.981 9.57 0.166 -78.628
13178.083 0.164 -78.751 0.981 9.418 0.981 9.418 0.164 -78.751
13203.042 0.161 -78.872 0.982 9.267 0.982 9.267 0.161 -78.872
13228 0.159 -78.992 0.982 9.115 0.982 9.115 0.159 -78.992
13252.958 0.156 -79.11 0.983 8.964 0.983 8.964 0.156 -79.11
13277.917 0.153 -79.228 0.983 8.813 0.983 8.813 0.153 -79.228
13302.875 0.151 -79.344 0.983 8.662 0.983 8.662 0.151 -79.344
13327.833 0.148 -79.459 0.984 8.512 0.984 8.512 0.148 -79.459
13352.792 0.146 -79.572 0.984 8.361 0.984 8.361 0.146 -79.572
13377.75 0.143 -79.684 0.984 8.211 0.984 8.211 0.143 -79.684
13402.708 0.14 -79.795 0.985 8.061 0.985 8.061 0.14 -79.795
13427.667 0.138 -79.903 0.985 7.911 0.985 7.911 0.138 -79.903
13452.625 0.135 -80.01 0.986 7.762 0.986 7.762 0.135 -80.01
13477.583 0.133 -80.115 0.986 7.612 0.986 7.612 0.133 -80.115
13502.542 0.13 -80.219 0.986 7.463 0.986 7.463 0.13 -80.219
13527.5 0.127 -80.32 0.987 7.314 0.987 7.314 0.127 -80.32
13552.458 0.125 -80.419 0.987 7.165 0.987 7.165 0.125 -80.419
13577.417 0.122 -80.516 0.987 7.017 0.987 7.017 0.122 -80.516
13602.375 0.12 -80.611 0.988 6.868 0.988 6.868 0.12 -80.611
13627.333 0.117 -80.703 0.988 6.72 0.988 6.72 0.117 -80.703
13652.292 0.115 -80.793 0.988 6.572 0.988 6.572 0.115 -80.793
13677.25 0.112 -80.879 0.988 6.424 0.988 6.424 0.112 -80.879
13702.208 0.109 -80.963 0.989 6.276 0.989 6.276 0.109 -80.963
13727.167 0.107 -81.044 0.989 6.129 0.989 6.129 0.107 -81.044
13752.125 0.104 -81.121 0.989 5.982 0.989 5.982 0.104 -81.121
13777.083 0.102 -81.194 0.99 5.835 0.99 5.835 0.102 -81.194
13802.042 0.099 -81.264 0.99 5.688 0.99 5.688 0.099 -81.264
13827 0.097 -81.33 0.99 5.541 0.99 5.541 0.097 -81.33
13851.958 0.094 -81.391 0.99 5.395 0.99 5.395 0.094 -81.391
13876.917 0.092 -81.447 0.991 5.249 0.991 5.249 0.092 -81.447
13901.875 0.089 -81.498 0.991 5.103 0.991 5.103 0.089 -81.498
13926.833 0.087 -81.544 0.991 4.957 0.991 4.957 0.087 -81.544
13951.792 0.084 -81.583 0.991 4.812 0.991 4.812 0.084 -81.583
13976.75 0.082 -81.616 0.991 4.666 0.991 4.666 0.082 -81.616
14001.708 0.079 -81.642 0.992 4.521 0.992 4.521 0.079 -81.642
14026.667 0.076 -81.66 0.992 4.376 0.992 4.376 0.076 -81.66
14051.625 0.074 -81.669 0.992 4.232 0.992 4.232 0.074 -81.669
14076.583 0.071 -81.668 0.992 4.087 0.992 4.087 0.071 -81.668
14101.542 0.069 -81.657 0.992 3.943 0.992 3.943 0.069 -81.657
14126.5 0.066 -81.635 0.993 3.799 0.993 3.799 0.066 -81.635
14151.458 0.064 -81.599 0.993 3.655 0.993 3.655 0.064 -81.599
14176.417 0.061 -81.549 0.993 3.512 0.993 3.512 0.061 -81.549
14201.375 0.059 -81.483 0.993 3.368 0.993 3.368 0.059 -81.483
14226.333 0.057 -81.399 0.993 3.225 0.993 3.225 0.057 -81.399
14251.292 0.054 -81.293 0.993 3.082 0.993 3.082 0.054 -81.293
14276.25 0.052 -81.164 0.993 2.94 0.993 2.94 0.052 -81.164
14301.208 0.049 -81.008 0.994 2.797 0.994 2.797 0.049 -81.008
14326.167 0.047 -80.821 0.994 2.655 0.994 2.655 0.047 -80.821
14351.125 0.044 -80.597 0.994 2.513 0.994 2.513 0.044 -80.597
14376.083 0.042 -80.331 0.994 2.371 0.994 2.371 0.042 -80.331
14401.042 0.039 -80.014 0.994 2.23 0.994 2.23 0.039 -80.014
14426 0.037 -79.637 0.994 2.088 0.994 2.088 0.037 -79.637
14450.958 0.034 -79.187 0.994 1.947 0.994 1.947 0.034 -79.187
14475.917 0.032 -78.648 0.994 1.806 0.994 1.806 0.032 -78.648
14500.875 0.03 -77.998 0.994 1.665 0.994 1.665 0.03 -77.998
14525.833 0.027 -77.21 0.994 1.525 0.994 1.525 0.027 -77.21
14550.792 0.025 -76.242 0.994 1.385 0.994 1.385 0.025 -76.242
14575.75 0.022 -75.04 0.994 1.245 0.994 1.245 0.022 -75.04
14600.708 0.02 -73.523 0.995 1.105 0.995 1.105 0.02 -73.523
14625.667 0.018 -71.567 0.995 0.966 0.995 0.966 0.018 -71.567
14650.625 0.015 -68.984 0.995 0.826 0.995 0.826 0.015 -68.984
14675.583 0.013 -65.459 0.995 0.687 0.995 0.687 0.013 -65.459
14700.542 0.011 -60.459 0.995 0.548 0.995 0.548 0.011 -60.459
14725.5 8.902e-3 -53.028 0.995 0.41 0.995 0.41 8.902e-3 -53.028
14750.458 7.109e-3 -41.489 0.995 0.271 0.995 0.271 7.109e-3 -41.489
14775.417 5.79e-3 -23.529 0.995 0.133 0.995 0.133 5.79e-3 -23.529
14800.375 5.304e-3 0.897 0.995 -4.781e-3 0.995 -4.781e-3 5.304e-3 0.897
14825.333 5.857e-3 24.979 0.995 -0.142 0.995 -0.142 5.857e-3 24.979
14850.292 7.211e-3 42.374 0.995 -0.28 0.995 -0.28 7.211e-3 42.374
14875.25 9.007e-3 53.514 0.995 -0.417 0.995 -0.417 9.007e-3 53.514
14900.208 0.011 60.71 0.995 -0.554 0.995 -0.554 0.011 60.71
14925.167 0.013 65.571 0.995 -0.691 0.995 -0.691 0.013 65.571
14950.125 0.015 69.009 0.995 -0.827 0.995 -0.827 0.015 69.009
14975.083 0.018 71.538 0.995 -0.964 0.995 -0.964 0.018 71.538
15000.042 0.02 73.457 0.995 -1.1 0.995 -1.1 0.02 73.457
15025 0.022 74.951 0.994 -1.236 0.994 -1.236 0.022 74.951
15049.958 0.025 76.136 0.994 -1.371 0.994 -1.371 0.025 76.136
15074.917 0.027 77.093 0.994 -1.506 0.994 -1.506 0.027 77.093
15099.875 0.029 77.875 0.994 -1.642 0.994 -1.642 0.029 77.875
15124.833 0.031 78.521 0.994 -1.776 0.994 -1.776 0.031 78.521
15149.792 0.034 79.058 0.994 -1.911 0.994 -1.911 0.034 79.058
15174.75 0.036 79.509 0.994 -2.046 0.994 -2.046 0.036 79.509
15199.708 0.038 79.888 0.994 -2.18 0.994 -2.18 0.038 79.888
15224.667 0.041 80.208 0.994 -2.314 0.994 -2.314 0.041 80.208
15249.625 0.043 80.479 0.994 -2.447 0.994 -2.447 0.043 80.479
15274.583 0.045 80.709 0.994 -2.581 0.994 -2.581 0.045 80.709
15299.542 0.048 80.903 0.994 -2.714 0.994 -2.714 0.048 80.903
15324.5 0.05 81.066 0.993 -2.847 0.993 -2.847 0.05 81.066
15349.458 0.052 81.203 0.993 -2.98 0.993 -2.98 0.052 81.203
15374.417 0.055 81.317 0.993 -3.112 0.993 -3.112 0.055 81.317
15399.375 0.057 81.411 0.993 -3.244 0.993 -3.244 0.057 81.411
15424.333 0.059 81.487 0.993 -3.376 0.993 -3.376 0.059 81.487
15449.292 0.061 81.548 0.993 -3.508 0.993 -3.508 0.061 81.548
15474.25 0.064 81.595 0.993 -3.64 0.993 -3.64 0.064 81.595
15499.208 0.066 81.629 0.993 -3.771 0.993 -3.771 0.066 81.629
15524.167 0.068 81.652 0.992 -3.902 0.992 -3.902 0.068 81.652
15549.125 0.071 81.666 0.992 -4.033 0.992 -4.033 0.071 81.666
15574.083 0.073 81.67 0.992 -4.163 0.992 -4.163 0.073 81.67
15599.042 0.075 81.666 0.992 -4.294 0.992 -4.294 0.075 81.666
15624 0.077 81.655 0.992 -4.424 0.992 -4.424 0.077 81.655
15648.958 0.08 81.637 0.992 -4.554 0.992 -4.554 0.08 81.637
15673.917 0.082 81.613 0.991 -4.683 0.991 -4.683 0.082 81.613
15698.875 0.084 81.583 0.991 -4.812 0.991 -4.812 0.084 81.583
15723.833 0.086 81.549 0.991 -4.942 0.991 -4.942 0.086 81.549
15748.792 0.089 81.509 0.991 -5.07 0.991 -5.07 0.089 81.509
15773.75 0.091 81.465 0.991 -5.199 0.991 -5.199 0.091 81.465
15798.708 0.093 81.418 0.99 -5.327 0.99 -5.327 0.093 81.418
15823.667 0.095 81.366 0.99 -5.456 0.99 -5.456 0.095 81.366
15848.625 0.097 81.311 0.99 -5.583 0.99 -5.583 0.097 81.311
15873.583 0.1 81.254 0.99 -5.711 0.99 -5.711 0.1 81.254
15898.542 0.102 81.193 0.99 -5.839 0.99 -5.839 0.102 81.193
15923.5 0.104 81.129 0.989 -5.966 0.989 -5.966 0.104 81.129
15948.458 0.106 81.063 0.989 -6.093 0.989 -6.093 0.106 81.063
15973.417 0.108 80.995 0.989 -6.219 0.989 -6.219 0.108 80.995
15998.375 0.111 80.924 0.989 -6.346 0.989 -6.346 0.111 80.924
16023.333 0.113 80.852 0.988 -6.472 0.988 -6.472 0.113 80.852
16048.292 0.115 80.777 0.988 -6.598 0.988 -6.598 0.115 80.777
16073.25 0.117 80.701 0.988 -6.724 0.988 -6.724 0.117 80.701
16098.208 0.119 80.623 0.988 -6.849 0.988 -6.849 0.119 80.623
16123.167 0.122 80.543 0.987 -6.974 0.987 -6.974 0.122 80.543
16148.125 0.124 80.463 0.987 -7.099 0.987 -7.099 0.124 80.463
16173.083 0.126 80.38 0.987 -7.224 0.987 -7.224 0.126 80.38
16198.042 0.128 80.297 0.987 -7.348 0.987 -7.348 0.128 80.297
16223 0.13 80.212 0.986 -7.473 0.986 -7.473 0.13 80.212
16247.958 0.132 80.126 0.986 -7.597 0.986 -7.597 0.132 80.126
16272.917 0.134 80.039 0.986 -7.72 0.986 -7.72 0.134 80.039
16297.875 0.137 79.952 0.985 -7.844 0.985 -7.844 0.137 79.952
16322.833 0.139 79.863 0.985 -7.967 0.985 -7.967 0.139 79.863
16347.792 0.141 79.773 0.985 -8.09 0.985 -8.09 0.141 79.773
16372.75 0.143 79.683 0.984 -8.213 0.984 -8.213 0.143 79.683
16397.708 0.145 79.592 0.984 -8.336 0.984 -8.336 0.145 79.592
16422.667 0.147 79.5 0.984 -8.458 0.984 -8.458 0.147 79.5
16447.625 0.149 79.407 0.984 -8.58 0.984 -8.58 0.149 79.407
16472.583 0.151 79.314 0.983 -8.702 0.983 -8.702 0.151 79.314
16497.542 0.153 79.22 0.983 -8.823 0.983 -8.823 0.153 79.22
16522.5 0.156 79.126 0.983 -8.945 0.983 -8.945 0.156 79.126
16547.458 0.158 79.031 0.982 -9.066 0.982 -9.066 0.158 79.031
16572.417 0.16 78.935 0.982 -9.186 0.982 -9.186 0.16 78.935
16597.375 0.162 78.84 0.982 -9.307 0.982 -9.307 0.162 78.84
16622.333 0.164 78.743 0.981 -9.427 0.981 -9.427 0.164 78.743
16647.292 0.166 78.647 0.981 -9.547 0.981 -9.547 0.166 78.647
16672.25 0.168 78.55 0.981 -9.667 0.981 -9.667 0.168 78.55
16697.208 0.17 78.452 0.98 -9.787 0.98 -9.787 0.17 78.452
16722.167 0.172 78.354 0.98 -9.906 0.98 -9.906 0.172 78.354
16747.125 0.174 78.256 0.98 -10.025 0.98 -10.025 0.174 78.256
16772.083 0.176 78.158 0.979 -10.144 0.979 -10.144 0.176 78.158
16797.042 0.178 78.059 0.979 -10.263 0.979 -10.263 0.178 78.059
16822 0.18 77.961 0.978 -10.381 0.978 -10.381 0.18 77.961
16846.958 0.182 77.862 0.978 -10.499 0.978 -10.499 0.182 77.862
16871.917 0.184 77.762 0.978 -10.617 0.978 -10.617 0.184 77.762
16896.875 0.186 77.663 0.977 -10.735 0.977 -10.735 0.186 77.663
16921.833 0.188 77.563 0.977 -10.852 0.977 -10.852 0.188 77.563
16946.792 0.19 77.463 0.977 -10.97 0.977 -10.97 0.19 77.463
16971.75 0.192 77.363 0.976 -11.087 0.976 -11.087 0.192 77.363
16996.708 0.194 77.263 0.976 -11.203 0.976 -11.203 0.194 77.263
17021.667 0.196 77.163 0.975 -11.32 0.975 -11.32 0.196 77.163
17046.625 0.198 77.062 0.975 -11.436 0.975 -11.436 0.198 77.062
17071.583 0.2 76.962 0.975 -11.552 0.975 -11.552 0.2 76.962
17096.542 0.202 76.861 0.974 -11.668 0.974 -11.668 0.202 76.861
17121.5 0.204 76.761 0.974 -11.783 0.974 -11.783 0.204 76.761
17146.458 0.206 76.66 0.973 -11.898 0.973 -11.898 0.206 76.66
17171.417 0.208 76.559 0.973 -12.013 0.973 -12.013 0.208 76.559
17196.375 0.21 76.458 0.972 -12.128 0.972 -12.128 0.21 76.458
17221.333 0.212 76.357 0.972 -12.243 0.972 -12.243 0.212 76.357
17246.292 0.214 76.256 0.972 -12.357 0.972 -12.357 0.214 76.256
17271.25 0.216 76.155 0.971 -12.471 0.971 -12.471 0.216 76.155
17296.208 0.218 76.054 0.971 -12.585 0.971 -12.585 0.218 76.054
17321.167 0.22 75.953 0.97 -12.698 0.97 -12.698 0.22 75.953
17346.125 0.222 75.852 0.97 -12.812 0.97 -12.812 0.222 75.852
17371.083 0.224 75.751 0.969 -12.925 0.969 -12.925 0.224 75.751
17396.042 0.226 75.65 0.969 -13.038 0.969 -13.038 0.226 75.65
17421 0.228 75.549 0.969 -13.15 0.969 -13.15 0.228 75.549
17445.958 0.229 75.448 0.968 -13.263 0.968 -13.263 0.229 75.448
17470.917 0.231 75.348 0.968 -13.375 0.968 -13.375 0.231 75.348
17495.875 0.233 75.247 0.967 -13.487 0.967 -13.487 0.233 75.247
17520.833 0.235 75.146 0.967 -13.598 0.967 -13.598 0.235 75.146
17545.792 0.237 75.045 0.966 -13.71 0.966 -13.71 0.237 75.045
17570.75 0.239 74.944 0.966 -13.821 0.966 -13.821 0.239 74.944
17595.708 0.241 74.843 0.965 -13.932 0.965 -13.932 0.241 74.843
17620.667 0.243 74.743 0.965 -14.043 0.965 -14.043 0.243 74.743
17645.625 0.245 74.642 0.965 -14.153 0.965 -14.153 0.245 74.642
17670.583 0.246 74.542 0.964 -14.263 0.964 -14.263 0.246 74.542
17695.542 0.248 74.441 0.964 -14.373 0.964 -14.373 0.248 74.441
17720.5 0.25 74.341 0.963 -14.483 0.963 -14.483 0.25 74.341
17745.458 0.252 74.24 0.963 -14.593 0.963 -14.593 0.252 74.24
17770.417 0.254 74.14 0.962 -14.702 0.962 -14.702 0.254 74.14
17795.375 0.256 74.04 0.962 -14.811 0.962 -14.811 0.256 74.04
17820.333 0.258 73.94 0.961 -14.92 0.961 -14.92 0.258 73.94
17845.292 0.259 73.84 0.961 -15.028 0.961 -15.028 0.259 73.84
17870.25 0.261 73.74 0.96 -15.137 0.96 -15.137 0.261 73.74
17895.208 0.263 73.64 0.96 -15.245 0.96 -15.245 0.263 73.64
17920.167 0.265 73.541 0.959 -15.353 0.959 -15.353 0.265 73.541
17945.125 0.267 73.441 0.959 -15.46 0.959 -15.46 0.267 73.441
17970.083 0.268 73.342 0.958 -15.568 0.958 -15.568 0.268 73.342
17995.042 0.27 73.242 0.958 -15.675 0.958 -15.675 0.27 73.242
18020 0.272 73.143 0.957 -15.782 0.957 -15.782 0.272 73.143
18044.958 0.274 73.044 0.957 -15.889 0.957 -15.889 0.274 73.044
18069.917 0.276 72.945 0.956 -15.995 0.956 -15.995 0.276 72.945
18094.875 0.277 72.846 0.956 -16.102 0.956 -16.102 0.277 72.846
18119.833 0.279 72.747 0.955 -16.208 0.955 -16.208 0.279 72.747
18144.792 0.281 72.648 0.955 -16.313 0.955 -16.313 0.281 72.648
18169.75 0.283 72.55 0.954 -16.419 0.954 -16.419 0.283 72.55
18194.708 0.284 72.452 0.954 -16.524 0.954 -16.524 0.284 72.452
18219.667 0.286 72.353 0.953 -16.629 0.953 -16.629 0.286 72.353
18244.625 0.288 72.255 0.953 -16.734 0.953 -16.734 0.288 72.255
18269.583 0.29 72.157 0.952 -16.839 0.952 -16.839 0.29 72.157
18294.542 0.291 72.059 0.952 -16.943 0.952 -16.943 0.291 72.059
18319.5 0.293 71.962 0.951 -17.048 0.951 -17.048 0.293 71.962
18344.458 0.295 71.864 0.95 -17.152 0.95 -17.152 0.295 71.864
18369.417 0.297 71.766 0.95 -17.255 0.95 -17.255 0.297 71.766
18394.375 0.298 71.669 0.949 -17.359 0.949 -17.359 0.298 71.669
18419.333 0.3 71.572 0.949 -17.462 0.949 -17.462 0.3 71.572
18444.292 0.302 71.475 0.948 -17.565 0.948 -17.565 0.302 71.475
18469.25 0.304 71.378 0.948 -17.668 0.948 -17.668 0.304 71.378
18494.208 0.305 71.281 0.947 -17.771 0.947 -17.771 0.305 71.281
18519.167 0.307 71.185 0.947 -17.873 0.947 -17.873 0.307 71.185
18544.125 0.309 71.088 0.946 -17.975 0.946 -17.975 0.309 71.088
18569.083 0.31 70.992 0.946 -18.077 0.946 -18.077 0.31 70.992
18594.042 0.312 70.896 0.945 -18.179 0.945 -18.179 0.312 70.896
18619 0.314 70.8 0.944 -18.28 0.944 -18.28 0.314 70.8
18643.958 0.315 70.704 0.944 -18.382 0.944 -18.382 0.315 70.704
18668.917 0.317 70.608 0.943 -18.483 0.943 -18.483 0.317 70.608
18693.875 0.319 70.513 0.943 -18.584 0.943 -18.584 0.319 70.513
18718.833 0.32 70.417 0.942 -18.684 0.942 -18.684 0.32 70.417
18743.792 0.322 70.322 0.942 -18.785 0.942 -18.785 0.322 70.322
18768.75 0.324 70.227 0.941 -18.885 0.941 -18.885 0.324 70.227
18793.708 0.325 70.132 0.941 -18.985 0.941 -18.985 0.325 70.132
18818.667 0.327 70.037 0.94 -19.084 0.94 -19.084 0.327 70.037
18843.625 0.329 69.943 0.939 -19.184 0.939 -19.184 0.329 69.943
18868.583 0.33 69.848 0.939 -19.283 0.939 -19.283 0.33 69.848
18893.542 0.332 69.754 0.938 -19.382 0.938 -19.382 0.332 69.754
18918.5 0.334 69.66 0.938 -19.481 0.938 -19.481 0.334 69.66
18943.458 0.335 69.566 0.937 -19.58 0.937 -19.58 0.335 69.566
18968.417 0.337 69.472 0.937 -19.678 0.937 -19.678 0.337 69.472
18993.375 0.338 69.379 0.936 -19.776 0.936 -19.776 0.338 69.379
19018.333 0.34 69.285 0.935 -19.874 0.935 -19.874 0.34 69.285
19043.292 0.342 69.192 0.935 -19.972 0.935 -19.972 0.342 69.192
19068.25 0.343 69.099 0.934 -20.069 0.934 -20.069 0.343 69.099
19093.208 0.345 69.006 0.934 -20.167 0.934 -20.167 0.345 69.006
19118.167 0.346 68.913 0.933 -20.264 0.933 -20.264 0.346 68.913
19143.125 0.348 68.821 0.933 -20.361 0.933 -20.361 0.348 68.821
19168.083 0.35 68.728 0.932 -20.457 0.932 -20.457 0.35 68.728
19193.042 0.351 68.636 0.931 -20.554 0.931 -20.554 0.351 68.636
19218 0.353 68.544 0.931 -20.65 0.931 -20.65 0.353 68.544
19242.958 0.354 68.452 0.93 -20.746 0.93 -20.746 0.354 68.452
19267.917 0.356 68.36 0.93 -20.842 0.93 -20.842 0.356 68.36
19292.875 0.357 68.269 0.929 -20.937 0.929 -20.937 0.357 68.269
19317.833 0.359 68.177 0.928 -21.033 0.928 -21.033 0.359 68.177
19342.792 0.36 68.086 0.928 -21.128 0.928 -21.128 0.36 68.086
19367.75 0.362 67.995 0.927 -21.223 0.927 -21.223 0.362 67.995
19392.708 0.364 67.904 0.927 -21.318 0.927 -21.318 0.364 67.904
19417.667 0.365 67.813 0.926 -21.412 0.926 -21.412 0.365 67.813
19442.625 0.367 67.722 0.925 -21.506 0.925 -21.506 0.367 67.722
19467.583 0.368 67.632 0.925 -21.601 0.925 -21.601 0.368 67.632
19492.542 0.37 67.542 0.924 -21.694 0.924 -21.694 0.37 67.542
19517.5 0.371 67.452 0.924 -21.788 0.924 -21.788 0.371 67.452
19542.458 0.373 67.362 0.923 -21.882 0.923 -21.882 0.373 67.362
19567.417 0.374 67.272 0.922 -21.975 0.922 -21.975 0.374 67.272
19592.375 0.376 67.183 0.922 -22.068 0.922 -22.068 0.376 67.183
19617.333 0.377 67.093 0.921 -22.161 0.921 -22.161 0.377 67.093
19642.292 0.379 67.004 0.921 -22.253 0.921 -22.253 0.379 67.004
19667.25 0.38 66.915 0.92 -22.346 0.92 -22.346 0.38 66.915
19692.208 0.382 66.826 0.919 -22.438 0.919 -22.438 0.382 66.826
19717.167 0.383 66.738 0.919 -22.53 0.919 -22.53 0.383 66.738
19742.125 0.385 66.649 0.918 -22.622 0.918 -22.622 0.385 66.649
19767.083 0.386 66.561 0.918 -22.713 0.918 -22.713 0.386 66.561
19792.042 0.388 66.473 0.917 -22.805 0.917 -22.805 0.388 66.473
19817 0.389 66.385 0.916 -22.896 0.916 -22.896 0.389 66.385
19841.958 0.391 66.297 0.916 -22.987 0.916 -22.987 0.391 66.297
19866.917 0.392 66.209 0.915 -23.078 0.915 -23.078 0.392 66.209
19891.875 0.393 66.122 0.914 -23.168 0.914 -23.168 0.393 66.122
19916.833 0.395 66.034 0.914 -23.259 0.914 -23.259 0.395 66.034
19941.792 0.396 65.947 0.913 -23.349 0.913 -23.349 0.396 65.947
19966.75 0.398 65.86 0.913 -23.439 0.913 -23.439 0.398 65.86
19991.708 0.399 65.774 0.912 -23.529 0.912 -23.529 0.399 65.774
20016.667 0.401 65.687 0.911 -23.618 0.911 -23.618 0.401 65.687
20041.625 0.402 65.6 0.911 -23.708 0.911 -23.708 0.402 65.6
20066.583 0.404 65.514 0.91 -23.797 0.91 -23.797 0.404 65.514
20091.542 0.405 65.428 0.91 -23.886 0.91 -23.886 0.405 65.428
20116.5 0.406 65.342 0.909 -23.975 0.909 -23.975 0.406 65.342
20141.458 0.408 65.257 0.908 -24.063 0.908 -24.063 0.408 65.257
20166.417 0.409 65.171 0.908 -24.151 0.908 -24.151 0.409 65.171
20191.375 0.411 65.086 0.907 -24.24 0.907 -24.24 0.411 65.086
20216.333 0.412 65 0.906 -24.328 0.906 -24.328 0.412 65
20241.292 0.413 64.915 0.906 -24.415 0.906 -24.415 0.413 64.915
20266.25 0.415 64.83 0.905 -24.503 0.905 -24.503 0.415 64.83
20291.208 0.416 64.746 0.904 -24.59 0.904 -24.59 0.416 64.746
20316.167 0.418 64.661 0.904 -24.678 0.904 -24.678 0.418 64.661
20341.125 0.419 64.577 0.903 -24.765 0.903 -24.765 0.419 64.577
20366.083 0.42 64.493 0.903 -24.851 0.903 -24.851 0.42 64.493
20391.042 0.422 64.409 0.902 -24.938 0.902 -24.938 0.422 64.409
20416 0.423 64.325 0.901 -25.024 0.901 -25.024 0.423 64.325
20440.958 0.424 64.241 0.901 -25.111 0.901 -25.111 0.424 64.241
20465.917 0.426 64.158 0.9 -25.197 0.9 -25.197 0.426 64.158
20490.875 0.427 64.074 0.899 -25.282 0.899 -25.282 0.427 64.074
20515.833 0.428 63.991 0.899 -25.368 0.899 -25.368 0.428 63.991
20540.792 0.43 63.908 0.898 -25.453 0.898 -25.453 0.43 63.908
20565.75 0.431 63.825 0.898 -25.539 0.898 -25.539 0.431 63.825
20590.708 0.432 63.743 0.897 -25.624 0.897 -25.624 0.432 63.743
20615.667 0.434 63.66 0.896 -25.709 0.896 -25.709 0.434 63.66
20640.625 0.435 63.578 0.896 -25.793 0.896 -25.793 0.435 63.578
20665.583 0.436 63.496 0.895 -25.878 0.895 -25.878 0.436 63.496
20690.542 0.438 63.414 0.894 -25.962 0.894 -25.962 0.438 63.414
20715.5 0.439 63.332 0.894 -26.046 0.894 -26.046 0.439 63.332
20740.458 0.44 63.251 0.893 -26.13 0.893 -26.13 0.44 63.251
20765.417 0.442 63.169 0.892 -26.214 0.892 -26.214 0.442 63.169
20790.375 0.443 63.088 0.892 -26.297 0.892 -26.297 0.443 63.088
20815.333 0.444 63.007 0.891 -26.381 0.891 -26.381 0.444 63.007
20840.292 0.446 62.926 0.89 -26.464 0.89 -26.464 0.446 62.926
20865.25 0.447 62.845 0.89 -26.547 0.89 -26.547 0.447 62.845
20890.208 0.448 62.764 0.889 -26.63 0.889 -26.63 0.448 62.764
20915.167 0.45 62.684 0.889 -26.712 0.889 -26.712 0.45 62.684
20940.125 0.451 62.604 0.888 -26.795 0.888 -26.795 0.451 62.604
20965.083 0.452 62.524 0.887 -26.877 0.887 -26.877 0.452 62.524
20990.042 0.453 62.444 0.887 -26.959 0.887 -26.959 0.453 62.444
21015 0.455 62.364 0.886 -27.041 0.886 -27.041 0.455 62.364
21039.958 0.456 62.284 0.885 -27.122 0.885 -27.122 0.456 62.284
21064.917 0.457 62.205 0.885 -27.204 0.885 -27.204 0.457 62.205
21089.875 0.458 62.126 0.884 -27.285 0.884 -27.285 0.458 62.126
21114.833 0.46 62.047 0.883 -27.366 0.883 -27.366 0.46 62.047
21139.792 0.461 61.968 0.883 -27.447 0.883 -27.447 0.461 61.968
21164.75 0.462 61.889 0.882 -27.528 0.882 -27.528 0.462 61.889
21189.708 0.463 61.81 0.881 -27.609 0.881 -27.609 0.463 61.81
21214.667 0.465 61.732 0.881 -27.689 0.881 -27.689 0.465 61.732
21239.625 0.466 61.654 0.88 -27.769 0.88 -27.769 0.466 61.654
21264.583 0.467 61.575 0.879 -27.849 0.879 -27.849 0.467 61.575
21289.542 0.468 61.498 0.879 -27.929 0.879 -27.929 0.468 61.498
21314.5 0.47 61.42 0.878 -28.009 0.878 -28.009 0.47 61.42
21339.458 0.471 61.342 0.878 -28.089 0.878 -28.089 0.471 61.342
21364.417 0.472 61.265 0.877 -28.168 0.877 -28.168 0.472 61.265
21389.375 0.473 61.187 0.876 -28.247 0.876 -28.247 0.473 61.187
21414.333 0.475 61.11 0.876 -28.326 0.876 -28.326 0.475 61.11
21439.292 0.476 61.033 0.875 -28.405 0.875 -28.405 0.476 61.033
21464.25 0.477 60.957 0.874 -28.483 0.874 -28.483 0.477 60.957
21489.208 0.478 60.88 0.874 -28.562 0.874 -28.562 0.478 60.88
21514.167 0.479 60.803 0.873 -28.64 0.873 -28.64 0.479 60.803
21539.125 0.481 60.727 0.872 -28.718 0.872 -28.718 0.481 60.727
21564.083 0.482 60.651 0.872 -28.796 0.872 -28.796 0.482 60.651
21589.042 0.483 60.575 0.871 -28.874 0.871 -28.874 0.483 60.575
21614 0.484 60.499 0.87 -28.952 0.87 -28.952 0.484 60.499
21638.958 0.485 60.424 0.87 -29.029 0.87 -29.029 0.485 60.424
21663.917 0.486 60.348 0.869 -29.106 0.869 -29.106 0.486 60.348
21688.875 0.488 60.273 0.868 -29.183 0.868 -29.183 0.488 60.273
21713.833 0.489 60.197 0.868 -29.26 0.868 -29.26 0.489 60.197
21738.792 0.49 60.122 0.867 -29.337 0.867 -29.337 0.49 60.122
21763.75 0.491 60.048 0.866 -29.413 0.866 -29.413 0.491 60.048
21788.708 0.492 59.973 0.866 -29.49 0.866 -29.49 0.492 59.973
21813.667 0.493 59.898 0.865 -29.566 0.865 -29.566 0.493 59.898
21838.625 0.495 59.824 0.865 -29.642 0.865 -29.642 0.495 59.824
21863.583 0.496 59.75 0.864 -29.718 0.864 -29.718 0.496 59.75
21888.542 0.497 59.676 0.863 -29.794 0.863 -29.794 0.497 59.676
21913.5 0.498 59.602 0.863 -29.869 0.863 -29.869 0.498 59.602
21938.458 0.499 59.528 0.862 -29.945 0.862 -29.945 0.499 59.528
21963.417 0.5 59.454 0.861 -30.02 0.861 -30.02 0.5 59.454
21988.375 0.501 59.381 0.861 -30.095 0.861 -30.095 0.501 59.381
22013.333 0.503 59.308 0.86 -30.17 0.86 -30.17 0.503 59.308
22038.292 0.504 59.235 0.859 -30.244 0.859 -30.244 0.504 59.235
22063.25 0.505 59.162 0.859 -30.319 0.859 -30.319 0.505 59.162
22088.208 0.506 59.089 0.858 -30.393 0.858 -30.393 0.506 59.089
22113.167 0.507 59.016 0.857 -30.467 0.857 -30.467 0.507 59.016
22138.125 0.508 58.944 0.857 -30.541 0.857 -30.541 0.508 58.944
22163.083 0.509 58.871 0.856 -30.615 0.856 -30.615 0.509 58.871
22188.042 0.51 58.799 0.855 -30.689 0.855 -30.689 0.51 58.799
22213 0.512 58.727 0.855 -30.763 0.855 -30.763 0.512 58.727
22237.958 0.513 58.655 0.854 -30.836 0.854 -30.836 0.513 58.655
22262.917 0.514 58.583 0.853 -30.909 0.853 -30.909 0.514 58.583
22287.875 0.515 58.512 0.853 -30.982 0.853 -30.982 0.515 58.512
22312.833 0.516 58.44 0.852 -31.055 0.852 -31.055 0.516 58.44
22337.792 0.517 58.369 0.851 -31.128 0.851 -31.128 0.517 58.369
22362.75 0.518 58.298 0.851 -31.2 0.851 -31.2 0.518 58.298
22387.708 0.519 58.227 0.85 -31.273 0.85 -31.273 0.519 58.227
22412.667 0.52 58.156 0.85 -31.345 0.85 -31.345 0.52 58.156
22437.625 0.521 58.085 0.849 -31.417 0.849 -31.417 0.521 58.085
22462.583 0.522 58.015 0.848 -31.489 0.848 -31.489 0.522 58.015
22487.542 0.523 57.944 0.848 -31.561 0.848 -31.561 0.523 57.944
22512.5 0.524 57.874 0.847 -31.633 0.847 -31.633 0.524 57.874
22537.458 0.526 57.804 0.846 -31.704 0.846 -31.704 0.526 57.804
22562.417 0.527 57.734 0.846 -31.775 0.846 -31.775 0.527 57.734
22587.375 0.528 57.664 0.845 -31.847 0.845 -31.847 0.528 57.664
22612.333 0.529 57.595 0.844 -31.917 0.844 -31.917 0.529 57.595
22637.292 0.53 57.525 0.844 -31.988 0.844 -31.988 0.53 57.525
22662.25 0.531 57.456 0.843 -32.059 0.843 -32.059 0.531 57.456
22687.208 0.532 57.387 0.842 -32.13 0.842 -32.13 0.532 57.387
22712.167 0.533 57.318 0.842 -32.2 0.842 -32.2 0.533 57.318
22737.125 0.534 57.249 0.841 -32.27 0.841 -32.27 0.534 57.249
22762.083 0.535 57.18 0.84 -32.34 0.84 -32.34 0.535 57.18
22787.042 0.536 57.111 0.84 -32.41 0.84 -32.41 0.536 57.111
22812 0.537 57.043 0.839 -32.48 0.839 -32.48 0.537 57.043
22836.958 0.538 56.975 0.838 -32.549 0.838 -32.549 0.538 56.975
22861.917 0.539 56.906 0.838 -32.619 0.838 -32.619 0.539 56.906
22886.875 0.54 56.838 0.837 -32.688 0.837 -32.688 0.54 56.838
22911.833 0.541 56.77 0.837 -32.757 0.837 -32.757 0.541 56.77
22936.792 0.542 56.703 0.836 -32.826 0.836 -32.826 0.542 56.703
22961.75 0.543 56.635 0.835 -32.895 0.835 -32.895 0.543 56.635
22986.708 0.544 56.568 0.835 -32.964 0.835 -32.964 0.544 56.568
23011.667 0.545 56.5 0.834 -33.032 0.834 -33.032 0.545 56.5
23036.625 0.546 56.433 0.833 -33.101 0.833 -33.101 0.546 56.433
23061.583 0.547 56.366 0.833 -33.169 0.833 -33.169 0.547 56.366
23086.542 0.548 56.299 0.832 -33.237 0.832 -33.237 0.548 56.299
23111.5 0.549 56.232 0.831 -33.305 0.831 -33.305 0.549 56.232
23136.458 0.55 56.166 0.831 -33.373 0.831 -33.373 0.55 56.166
23161.417 0.551 56.099 0.83 -33.44 0.83 -33.44 0.551 56.099
23186.375 0.552 56.033 0.829 -33.508 0.829 -33.508 0.552 56.033
23211.333 0.553 55.967 0.829 -33.575 0.829 -33.575 0.553 55.967
23236.292 0.554 55.901 0.828 -33.643 0.828 -33.643 0.554 55.901
23261.25 0.555 55.835 0.827 -33.71 0.827 -33.71 0.555 55.835
23286.208 0.556 55.769 0.827 -33.776 0.827 -33.776 0.556 55.769
23311.167 0.557 55.704 0.826 -33.843 0.826 -33.843 0.557 55.704
23336.125 0.558 55.638 0.826 -33.91 0.826 -33.91 0.558 55.638
23361.083 0.559 55.573 0.825 -33.976 0.825 -33.976 0.559 55.573
23386.042 0.56 55.508 0.824 -34.043 0.824 -34.043 0.56 55.508
23411 0.561 55.442 0.824 -34.109 0.824 -34.109 0.561 55.442
23435.958 0.562 55.378 0.823 -34.175 0.823 -34.175 0.562 55.378
23460.917 0.563 55.313 0.822 -34.241 0.822 -34.241 0.563 55.313
23485.875 0.564 55.248 0.822 -34.307 0.822 -34.307 0.564 55.248
23510.833 0.565 55.184 0.821 -34.372 0.821 -34.372 0.565 55.184
23535.792 0.566 55.119 0.82 -34.438 0.82 -34.438 0.566 55.119
23560.75 0.566 55.055 0.82 -34.503 0.82 -34.503 0.566 55.055
23585.708 0.567 54.991 0.819 -34.568 0.819 -34.568 0.567 54.991
23610.667 0.568 54.927 0.818 -34.633 0.818 -34.633 0.568 54.927
23635.625 0.569 54.863 0.818 -34.698 0.818 -34.698 0.569 54.863
23660.583 0.57 54.799 0.817 -34.763 0.817 -34.763 0.57 54.799
23685.542 0.571 54.736 0.817 -34.828 0.817 -34.828 0.571 54.736
23710.5 0.572 54.672 0.816 -34.892 0.816 -34.892 0.572 54.672
23735.458 0.573 54.609 0.815 -34.956 0.815 -34.956 0.573 54.609
23760.417 0.574 54.546 0.815 -35.021 0.815 -35.021 0.574 54.546
23785.375 0.575 54.483 0.814 -35.085 0.814 -35.085 0.575 54.483
23810.333 0.576 54.42 0.813 -35.149 0.813 -35.149 0.576 54.42
23835.292 0.577 54.357 0.813 -35.212 0.813 -35.212 0.577 54.357
23860.25 0.578 54.294 0.812 -35.276 0.812 -35.276 0.578 54.294
23885.208 0.578 54.232 0.811 -35.34 0.811 -35.34 0.578 54.232
23910.167 0.579 54.17 0.811 -35.403 0.811 -35.403 0.579 54.17
23935.125 0.58 54.107 0.81 -35.466 0.81 -35.466 0.58 54.107
23960.083 0.581 54.045 0.81 -35.529 0.81 -35.529 0.581 54.045
23985.042 0.582 53.983 0.809 -35.592 0.809 -35.592 0.582 53.983
24010 0.583 53.921 0.808 -35.655 0.808 -35.655 0.583 53.921
24034.958 0.584 53.86 0.808 -35.718 0.808 -35.718 0.584 53.86
24059.917 0.585 53.798 0.807 -35.78 0.807 -35.78 0.585 53.798
24084.875 0.586 53.736 0.806 -35.843 0.806 -35.843 0.586 53.736
24109.833 0.586 53.675 0.806 -35.905 0.806 -35.905 0.586 53.675
24134.792 0.587 53.614 0.805 -35.967 0.805 -35.967 0.587 53.614
24159.75 0.588 53.553 0.804 -36.029 0.804 -36.029 0.588 53.553
24184.708 0.589 53.492 0.804 -36.091 0.804 -36.091 0.589 53.492
24209.667 0.59 53.431 0.803 -36.153 0.803 -36.153 0.59 53.431
24234.625 0.591 53.37 0.803 -36.215 0.803 -36.215 0.591 53.37
24259.583 0.592 53.31 0.802 -36.276 0.802 -36.276 0.592 53.31
24284.542 0.593 53.249 0.801 -36.338 0.801 -36.338 0.593 53.249
24309.5 0.593 53.189 0.801 -36.399 0.801 -36.399 0.593 53.189
24334.458 0.594 53.129 0.8 -36.46 0.8 -36.46 0.594 53.129
24359.417 0.595 53.069 0.799 -36.521 0.799 -36.521 0.595 53.069
24384.375 0.596 53.009 0.799 -36.582 0.799 -36.582 0.596 53.009
24409.333 0.597 52.949 0.798 -36.643 0.798 -36.643 0.597 52.949
24434.292 0.598 52.889 0.797 -36.703 0.797 -36.703 0.598 52.889
24459.25 0.599 52.83 0.797 -36.764 0.797 -36.764 0.599 52.83
24484.208 0.599 52.77 0.796 -36.824 0.796 -36.824 0.599 52.77
24509.167 0.6 52.711 0.796 -36.884 0.796 -36.884 0.6 52.711
24534.125 0.601 52.652 0.795 -36.944 0.795 -36.944 0.601 52.652
24559.083 0.602 52.592 0.794 -37.004 0.794 -37.004 0.602 52.592
24584.042 0.603 52.534 0.794 -37.064 0.794 -37.064 0.603 52.534
24609 0.604 52.475 0.793 -37.124 0.793 -37.124 0.604 52.475
24633.958 0.604 52.416 0.792 -37.184 0.792 -37.184 0.604 52.416
24658.917 0.605 52.357 0.792 -37.243 0.792 -37.243 0.605 52.357
24683.875 0.606 52.299 0.791 -37.302 0.791 -37.302 0.606 52.299
24708.833 0.607 52.241 0.791 -37.362 0.791 -37.362 0.607 52.241
24733.792 0.608 52.182 0.79 -37.421 0.79 -37.421 0.608 52.182
24758.75 0.608 52.124 0.789 -37.48 0.789 -37.48 0.608 52.124
24783.708 0.609 52.066 0.789 -37.538 0.789 -37.538 0.609 52.066
24808.667 0.61 52.008 0.788 -37.597 0.788 -37.597 0.61 52.008
24833.625 0.611 51.951 0.787 -37.656 0.787 -37.656 0.611 51.951
24858.583 0.612 51.893 0.787 -37.714 0.787 -37.714 0.612 51.893
24883.542 0.613 51.835 0.786 -37.773 0.786 -37.773 0.613 51.835
24908.5 0.613 51.778 0.786 -37.831 0.786 -37.831 0.613 51.778
24933.458 0.614 51.721 0.785 -37.889 0.785 -37.889 0.614 51.721
24958.417 0.615 51.664 0.784 -37.947 0.784 -37.947 0.615 51.664
24983.375 0.616 51.606 0.784 -38.005 0.784 -38.005 0.616 51.606
25008.333 0.617 51.55 0.783 -38.062 0.783 -38.062 0.617 51.55
25033.292 0.617 51.493 0.783 -38.12 0.783 -38.12 0.617 51.493
25058.25 0.618 51.436 0.782 -38.178 0.782 -38.178 0.618 51.436
25083.208 0.619 51.379 0.781 -38.235 0.781 -38.235 0.619 51.379
25108.167 0.62 51.323 0.781 -38.292 0.781 -38.292 0.62 51.323
25133.125 0.62 51.267 0.78 -38.349 0.78 -38.349 0.62 51.267
25158.083 0.621 51.21 0.779 -38.406 0.779 -38.406 0.621 51.21
25183.042 0.622 51.154 0.779 -38.463 0.779 -38.463 0.622 51.154
25208 0.623 51.098 0.778 -38.52 0.778 -38.52 0.623 51.098
25232.958 0.624 51.042 0.778 -38.577 0.778 -38.577 0.624 51.042
25257.917 0.624 50.987 0.777 -38.633 0.777 -38.633 0.624 50.987
25282.875 0.625 50.931 0.776 -38.69 0.776 -38.69 0.625 50.931
25307.833 0.626 50.875 0.776 -38.746 0.776 -38.746 0.626 50.875
25332.792 0.627 50.82 0.775 -38.802 0.775 -38.802 0.627 50.82
25357.75 0.627 50.765 0.775 -38.858 0.775 -38.858 0.627 50.765
25382.708 0.628 50.709 0.774 -38.914 0.774 -38.914 0.628 50.709
25407.667 0.629 50.654 0.773 -38.97 0.773 -38.97 0.629 50.654
25432.625 0.63 50.599 0.773 -39.026 0.773 -39.026 0.63 50.599
25457.583 0.63 50.545 0.772 -39.081 0.772 -39.081 0.63 50.545
25482.542 0.631 50.49 0.772 -39.137 0.772 -39.137 0.631 50.49
25507.5 0.632 50.435 0.771 -39.192 0.771 -39.192 0.632 50.435
25532.458 0.633 50.381 0.77 -39.247 0.77 -39.247 0.633 50.381
25557.417 0.633 50.326 0.77 -39.303 0.77 -39.303 0.633 50.326
25582.375 0.634 50.272 0.769 -39.358 0.769 -39.358 0.634 50.272
25607.333 0.635 50.218 0.768 -39.413 0.768 -39.413 0.635 50.218
25632.292 0.636 50.164 0.768 -39.467 0.768 -39.467 0.636 50.164
25657.25 0.636 50.11 0.767 -39.522 0.767 -39.522 0.636 50.11
25682.208 0.637 50.056 0.767 -39.577 0.767 -39.577 0.637 50.056
25707.167 0.638 50.002 0.766 -39.631 0.766 -39.631 0.638 50.002
25732.125 0.639 49.948 0.765 -39.685 0.765 -39.685 0.639 49.948
25757.083 0.639 49.895 0.765 -39.74 0.765 -39.74 0.639 49.895
25782.042 0.64 49.841 0.764 -39.794 0.764 -39.794 0.64 49.841
25807 0.641 49.788 0.764 -39.848 0.764 -39.848 0.641 49.788
25831.958 0.641 49.735 0.763 -39.902 0.763 -39.902 0.641 49.735
25856.917 0.642 49.682 0.762 -39.956 0.762 -39.956 0.642 49.682
25881.875 0.643 49.629 0.762 -40.009 0.762 -40.009 0.643 49.629
25906.833 0.644 49.576 0.761 -40.063 0.761 -40.063 0.644 49.576
25931.792 0.644 49.523 0.761 -40.116 0.761 -40.116 0.644 49.523
25956.75 0.645 49.47 0.76 -40.17 0.76 -40.17 0.645 49.47
25981.708 0.646 49.418 0.759 -40.223 0.759 -40.223 0.646 49.418
26006.667 0.646 49.365 0.759 -40.276 0.759 -40.276 0.646 49.365
26031.625 0.647 49.313 0.758 -40.329 0.758 -40.329 0.647 49.313
26056.583 0.648 49.261 0.758 -40.382 0.758 -40.382 0.648 49.261
26081.542 0.649 49.208 0.757 -40.435 0.757 -40.435 0.649 49.208
26106.5 0.649 49.156 0.757 -40.488 0.757 -40.488 0.649 49.156
26131.458 0.65 49.104 0.756 -40.54 0.756 -40.54 0.65 49.104
26156.417 0.651 49.053 0.755 -40.593 0.755 -40.593 0.651 49.053
26181.375 0.651 49.001 0.755 -40.645 0.755 -40.645 0.651 49.001
26206.333 0.652 48.949 0.754 -40.698 0.754 -40.698 0.652 48.949
26231.292 0.653 48.898 0.754 -40.75 0.754 -40.75 0.653 48.898
26256.25 0.653 48.846 0.753 -40.802 0.753 -40.802 0.653 48.846
26281.208 0.654 48.795 0.752 -40.854 0.752 -40.854 0.654 48.795
26306.167 0.655 48.744 0.752 -40.906 0.752 -40.906 0.655 48.744
26331.125 0.656 48.693 0.751 -40.957 0.751 -40.957 0.656 48.693
26356.083 0.656 48.641 0.751 -41.009 0.751 -41.009 0.656 48.641
26381.042 0.657 48.591 0.75 -41.061 0.75 -41.061 0.657 48.591
26406 0.658 48.54 0.749 -41.112 0.749 -41.112 0.658 48.54
26430.958 0.658 48.489 0.749 -41.163 0.749 -41.163 0.658 48.489
26455.917 0.659 48.438 0.748 -41.215 0.748 -41.215 0.659 48.438
26480.875 0.66 48.388 0.748 -41.266 0.748 -41.266 0.66 48.388
26505.833 0.66 48.337 0.747 -41.317 0.747 -41.317 0.66 48.337
26530.792 0.661 48.287 0.747 -41.368 0.747 -41.368 0.661 48.287
26555.75 0.662 48.237 0.746 -41.419 0.746 -41.419 0.662 48.237
26580.708 0.662 48.187 0.745 -41.469 0.745 -41.469 0.662 48.187
26605.667 0.663 48.137 0.745 -41.52 0.745 -41.52 0.663 48.137
26630.625 0.664 48.087 0.744 -41.571 0.744 -41.571 0.664 48.087
26655.583 0.664 48.037 0.744 -41.621 0.744 -41.621 0.664 48.037
26680.542 0.665 47.987 0.743 -41.671 0.743 -41.671 0.665 47.987
26705.5 0.666 47.938 0.742 -41.722 0.742 -41.722 0.666 47.938
26730.458 0.666 47.888 0.742 -41.772 0.742 -41.772 0.666 47.888
26755.417 0.667 47.839 0.741 -41.822 0.741 -41.822 0.667 47.839
26780.375 0.667 47.789 0.741 -41.872 0.741 -41.872 0.667 47.789
26805.333 0.668 47.74 0.74 -41.921 0.74 -41.921 0.668 47.74
26830.292 0.669 47.691 0.74 -41.971 0.74 -41.971 0.669 47.691
26855.25 0.669 47.642 0.739 -42.021 0.739 -42.021 0.669 47.642
26880.208 0.67 47.593 0.738 -42.07 0.738 -42.07 0.67 47.593
26905.167 0.671 47.544 0.738 -42.12 0.738 -42.12 0.671 47.544
26930.125 0.671 47.495 0.737 -42.169 0.737 -42.169 0.671 47.495
26955.083 0.672 47.447 0.737 -42.218 0.737 -42.218 0.672 47.447
26980.042 0.673 47.398 0.736 -42.267 0.736 -42.267 0.673 47.398
27005 0.673 47.35 0.736 -42.316 0.736 -42.316 0.673 47.35
27029.958 0.674 47.301 0.735 -42.365 0.735 -42.365 0.674 47.301
27054.917 0.674 47.253 0.734 -42.414 0.734 -42.414 0.674 47.253
27079.875 0.675 47.205 0.734 -42.463 0.734 -42.463 0.675 47.205
27104.833 0.676 47.157 0.733 -42.512 0.733 -42.512 0.676 47.157
27129.792 0.676 47.109 0.733 -42.56 0.733 -42.56 0.676 47.109
27154.75 0.677 47.061 0.732 -42.609 0.732 -42.609 0.677 47.061
27179.708 0.678 47.013 0.732 -42.657 0.732 -42.657 0.678 47.013
27204.667 0.678 46.965 0.731 -42.705 0.731 -42.705 0.678 46.965
27229.625 0.679 46.918 0.73 -42.754 0.73 -42.754 0.679 46.918
27254.583 0.679 46.87 0.73 -42.802 0.73 -42.802 0.679 46.87
27279.542 0.68 46.823 0.729 -42.85 0.729 -42.85 0.68 46.823
27304.5 0.681 46.776 0.729 -42.897 0.729 -42.897 0.681 46.776
27329.458 0.681 46.728 0.728 -42.945 0.728 -42.945 0.681 46.728
27354.417 0.682 46.681 0.728 -42.993 0.728 -42.993 0.682 46.681
27379.375 0.683 46.634 0.727 -43.041 0.727 -43.041 0.683 46.634
27404.333 0.683 46.587 0.726 -43.088 0.726 -43.088 0.683 46.587
27429.292 0.684 46.54 0.726 -43.136 0.726 -43.136 0.684 46.54
27454.25 0.684 46.493 0.725 -43.183 0.725 -43.183 0.684 46.493
27479.208 0.685 46.447 0.725 -43.23 0.725 -43.23 0.685 46.447
27504.167 0.686 46.4 0.724 -43.277 0.724 -43.277 0.686 46.4
27529.125 0.686 46.354 0.724 -43.324 0.724 -43.324 0.686 46.354
27554.083 0.687 46.307 0.723 -43.371 0.723 -43.371 0.687 46.307
27579.042 0.687 46.261 0.723 -43.418 0.723 -43.418 0.687 46.261
27604 0.688 46.215 0.722 -43.465 0.722 -43.465 0.688 46.215
27628.958 0.689 46.168 0.721 -43.512 0.721 -43.512 0.689 46.168
27653.917 0.689 46.122 0.721 -43.558 0.721 -43.558 0.689 46.122
27678.875 0.69 46.076 0.72 -43.605 0.72 -43.605 0.69 46.076
27703.833 0.69 46.03 0.72 -43.651 0.72 -43.651 0.69 46.03
27728.792 0.691 45.985 0.719 -43.697 0.719 -43.697 0.691 45.985
27753.75 0.691 45.939 0.719 -43.744 0.719 -43.744 0.691 45.939
27778.708 0.692 45.893 0.718 -43.79 0.718 -43.79 0.692 45.893
27803.667 0.693 45.848 0.718 -43.836 0.718 -43.836 0.693 45.848
27828.625 0.693 45.802 0.717 -43.882 0.717 -43.882 0.693 45.802
27853.583 0.694 45.757 0.716 -43.928 0.716 -43.928 0.694 45.757
27878.542 0.694 45.712 0.716 -43.973 0.716 -43.973 0.694 45.712
27903.5 0.695 45.666 0.715 -44.019 0.715 -44.019 0.695 45.666
27928.458 0.695 45.621 0.715 -44.065 0.715 -44.065 0.695 45.621
27953.417 0.696 45.576 0.714 -44.11 0.714 -44.11 0.696 45.576
27978.375 0.697 45.531 0.714 -44.156 0.714 -44.156 0.697 45.531
28003.333 0.697 45.486 0.713 -44.201 0.713 -44.201 0.697 45.486
28028.292 0.698 45.442 0.713 -44.246 0.713 -44.246 0.698 45.442
28053.25 0.698 45.397 0.712 -44.292 0.712 -44.292 0.698 45.397
28078.208 0.699 45.352 0.711 -44.337 0.711 -44.337 0.699 45.352
28103.167 0.699 45.308 0.711 -44.382 0.711 -44.382 0.699 45.308
28128.125 0.7 45.263 0.71 -44.427 0.71 -44.427 0.7 45.263
28153.083 0.701 45.219 0.71 -44.471 0.71 -44.471 0.701 45.219
28178.042 0.701 45.175 0.709 -44.516 0.709 -44.516 0.701 45.175
28203 0.702 45.131 0.709 -44.561 0.709 -44.561 0.702 45.131
28227.958 0.702 45.087 0.708 -44.605 0.708 -44.605 0.702 45.087
28252.917 0.703 45.043 0.708 -44.65 0.708 -44.65 0.703 45.043
28277.875 0.703 44.999 0.707 -44.694 0.707 -44.694 0.703 44.999
28302.833 0.704 44.955 0.707 -44.739 0.707 -44.739 0.704 44.955
28327.792 0.704 44.911 0.706 -44.783 0.706 -44.783 0.704 44.911
28352.75 0.705 44.867 0.705 -44.827 0.705 -44.827 0.705 44.867
28377.708 0.706 44.824 0.705 -44.871 0.705 -44.871 0.706 44.824
28402.667 0.706 44.78 0.704 -44.915 0.704 -44.915 0.706 44.78
28427.625 0.707 44.737 0.704 -44.959 0.704 -44.959 0.707 44.737
28452.583 0.707 44.693 0.703 -45.003 0.703 -45.003 0.707 44.693
28477.542 0.708 44.65 0.703 -45.046 0.703 -45.046 0.708 44.65
28502.5 0.708 44.607 0.702 -45.09 0.702 -45.09 0.708 44.607
28527.458 0.709 44.564 0.702 -45.134 0.702 -45.134 0.709 44.564
28552.417 0.709 44.521 0.701 -45.177 0.701 -45.177 0.709 44.521
28577.375 0.71 44.478 0.701 -45.221 0.701 -45.221 0.71 44.478
28602.333 0.71 44.435 0.7 -45.264 0.7 -45.264 0.71 44.435
28627.292 0.711 44.392 0.7 -45.307 0.7 -45.307 0.711 44.392
28652.25 0.711 44.35 0.699 -45.35 0.699 -45.35 0.711 44.35
28677.208 0.712 44.307 0.699 -45.393 0.699 -45.393 0.712 44.307
28702.167 0.712 44.264 0.698 -45.436 0.698 -45.436 0.712 44.264
28727.125 0.713 44.222 0.697 -45.479 0.697 -45.479 0.713 44.222
28752.083 0.714 44.18 0.697 -45.522 0.697 -45.522 0.714 44.18
28777.042 0.714 44.137 0.696 -45.565 0.696 -45.565 0.714 44.137
28802 0.715 44.095 0.696 -45.607 0.696 -45.607 0.715 44.095
28826.958 0.715 44.053 0.695 -45.65 0.695 -45.65 0.715 44.053
28851.917 0.716 44.011 0.695 -45.693 0.695 -45.693 0.716 44.011
28876.875 0.716 43.969 0.694 -45.735 0.694 -45.735 0.716 43.969
28901.833 0.717 43.927 0.694 -45.777 0.694 -45.777 0.717 43.927
28926.792 0.717 43.885 0.693 -45.82 0.693 -45.82 0.717 43.885
28951.75 0.718 43.843 0.693 -45.862 0.693 -45.862 0.718 43.843
28976.708 0.718 43.802 0.692 -45.904 0.692 -45.904 0.718 43.802
29001.667 0.719 43.76 0.692 -45.946 0.692 -45.946 0.719 43.76
29026.625 0.719 43.719 0.691 -45.988 0.691 -45.988 0.719 43.719
29051.583 0.72 43.677 0.691 -46.03 0.691 -46.03 0.72 43.677
29076.542 0.72 43.636 0.69 -46.072 0.69 -46.072 0.72 43.636
29101.5 0.721 43.594 0.69 -46.113 0.69 -46.113 0.721 43.594
29126.458 0.721 43.553 0.689 -46.155 0.689 -46.155 0.721 43.553
29151.417 0.722 43.512 0.689 -46.196 0.689 -46.196 0.722 43.512
29176.375 0.722 43.471 0.688 -46.238 0.688 -46.238 0.722 43.471
29201.333 0.723 43.43 0.687 -46.279 0.687 -46.279 0.723 43.43
29226.292 0.723 43.389 0.687 -46.321 0.687 -46.321 0.723 43.389
29251.25 0.724 43.348 0.686 -46.362 0.686 -46.362 0.724 43.348
29276.208 0.724 43.308 0.686 -46.403 0.686 -46.403 0.724 43.308
29301.167 0.725 43.267 0.685 -46.444 0.685 -46.444 0.725 43.267
29326.125 0.725 43.226 0.685 -46.485 0.685 -46.485 0.725 43.226
29351.083 0.726 43.186 0.684 -46.526 0.684 -46.526 0.726 43.186
29376.042 0.726 43.145 0.684 -46.567 0.684 -46.567 0.726 43.145
29401 0.727 43.105 0.683 -46.608 0.683 -46.608 0.727 43.105
29425.958 0.727 43.065 0.683 -46.649 0.683 -46.649 0.727 43.065
29450.917 0.728 43.024 0.682 -46.689 0.682 -46.689 0.728 43.024
29475.875 0.728 42.984 0.682 -46.73 0.682 -46.73 0.728 42.984
29500.833 0.729 42.944 0.681 -46.77 0.681 -46.77 0.729 42.944
29525.792 0.729 42.904 0.681 -46.811 0.681 -46.811 0.729 42.904
29550.75 0.73 42.864 0.68 -46.851 0.68 -46.851 0.73 42.864
29575.708 0.73 42.824 0.68 -46.891 0.68 -46.891 0.73 42.824
29600.667 0.731 42.784 0.679 -46.932 0.679 -46.932 0.731 42.784
29625.625 0.731 42.745 0.679 -46.972 0.679 -46.972 0.731 42.745
29650.583 0.732 42.705 0.678 -47.012 0.678 -47.012 0.732 42.705
29675.542 0.732 42.665 0.678 -47.052 0.678 -47.052 0.732 42.665
29700.5 0.732 42.626 0.677 -47.092 0.677 -47.092 0.732 42.626
29725.458 0.733 42.587 0.677 -47.131 0.677 -47.131 0.733 42.587
29750.417 0.733 42.547 0.676 -47.171 0.676 -47.171 0.733 42.547
29775.375 0.734 42.508 0.676 -47.211 0.676 -47.211 0.734 42.508
29800.333 0.734 42.469 0.675 -47.251 0.675 -47.251 0.734 42.469
29825.292 0.735 42.429 0.675 -47.29 0.675 -47.29 0.735 42.429
29850.25 0.735 42.39 0.674 -47.33 0.674 -47.33 0.735 42.39
29875.208 0.736 42.351 0.674 -47.369 0.674 -47.369 0.736 42.351
29900.167 0.736 42.312 0.673 -47.408 0.673 -47.408 0.736 42.312
29925.125 0.737 42.274 0.673 -47.448 0.673 -47.448 0.737 42.274
29950.083 0.737 42.235 0.672 -47.487 0.672 -47.487 0.737 42.235
29975.042 0.738 42.196 0.672 -47.526 0.672 -47.526 0.738 42.196
30000 0.738 42.157 0.671 -47.565 0.671 -47.565 0.738 42.157
