!	AVX Thin Film Operation 	Date: April 2014		
!	Description: Accu-P® Series, Thin Film  SMD RF Capacitor
!	Part Number: 06031J2R8QBSTR					
!								
# MHZ S MA R 50

50 0.996 -5.028 0.088 84.964 0.088 84.964 0.996 -5.028
74.958 0.991 -7.516 0.131 82.472 0.131 82.472 0.991 -7.516
99.917 0.985 -9.978 0.173 80.006 0.173 80.006 0.985 -9.978
124.875 0.977 -12.406 0.215 77.574 0.215 77.574 0.977 -12.406
149.833 0.967 -14.793 0.255 75.183 0.255 75.183 0.967 -14.793
174.792 0.955 -17.133 0.295 72.839 0.295 72.839 0.955 -17.133
199.75 0.943 -19.42 0.332 70.547 0.332 70.547 0.943 -19.42
224.708 0.929 -21.65 0.369 68.313 0.369 68.313 0.929 -21.65
249.667 0.915 -23.819 0.404 66.14 0.404 66.14 0.915 -23.819
274.625 0.899 -25.925 0.437 64.031 0.437 64.031 0.899 -25.925
299.583 0.883 -27.964 0.469 61.988 0.469 61.988 0.883 -27.964
324.542 0.866 -29.936 0.499 60.011 0.499 60.011 0.866 -29.936
349.5 0.849 -31.84 0.528 58.103 0.528 58.103 0.849 -31.84
374.458 0.832 -33.676 0.554 56.263 0.554 56.263 0.832 -33.676
399.417 0.814 -35.445 0.58 54.49 0.58 54.49 0.814 -35.445
424.375 0.796 -37.148 0.604 52.783 0.604 52.783 0.796 -37.148
449.333 0.779 -38.785 0.626 51.141 0.626 51.141 0.779 -38.785
474.292 0.761 -40.359 0.648 49.563 0.648 49.563 0.761 -40.359
499.25 0.744 -41.871 0.667 48.047 0.667 48.047 0.744 -41.871
524.208 0.726 -43.323 0.686 46.59 0.686 46.59 0.726 -43.323
549.167 0.709 -44.718 0.704 45.191 0.704 45.191 0.709 -44.718
574.125 0.693 -46.057 0.72 43.847 0.72 43.847 0.693 -46.057
599.083 0.676 -47.343 0.735 42.557 0.735 42.557 0.676 -47.343
624.042 0.66 -48.578 0.75 41.317 0.75 41.317 0.66 -48.578
649 0.644 -49.765 0.763 40.127 0.763 40.127 0.644 -49.765
673.958 0.629 -50.904 0.776 38.982 0.776 38.982 0.629 -50.904
698.917 0.614 -52 0.788 37.883 0.788 37.883 0.614 -52
723.875 0.599 -53.052 0.799 36.825 0.799 36.825 0.599 -53.052
748.833 0.585 -54.065 0.81 35.808 0.81 35.808 0.585 -54.065
773.792 0.571 -55.039 0.82 34.83 0.82 34.83 0.571 -55.039
798.75 0.558 -55.976 0.829 33.887 0.829 33.887 0.558 -55.976
823.708 0.544 -56.879 0.838 32.98 0.838 32.98 0.544 -56.879
848.667 0.531 -57.748 0.846 32.106 0.846 32.106 0.531 -57.748
873.625 0.519 -58.586 0.853 31.263 0.853 31.263 0.519 -58.586
898.583 0.507 -59.394 0.861 30.45 0.861 30.45 0.507 -59.394
923.542 0.495 -60.174 0.868 29.665 0.868 29.665 0.495 -60.174
948.5 0.483 -60.927 0.874 28.908 0.874 28.908 0.483 -60.927
973.458 0.472 -61.653 0.88 28.176 0.88 28.176 0.472 -61.653
998.417 0.461 -62.356 0.886 27.468 0.886 27.468 0.461 -62.356
1023.375 0.451 -63.035 0.891 26.784 0.891 26.784 0.451 -63.035
1048.333 0.44 -63.691 0.896 26.122 0.896 26.122 0.44 -63.691
1073.292 0.43 -64.327 0.901 25.481 0.901 25.481 0.43 -64.327
1098.25 0.42 -64.942 0.906 24.86 0.906 24.86 0.42 -64.942
1123.208 0.411 -65.538 0.91 24.258 0.91 24.258 0.411 -65.538
1148.167 0.402 -66.116 0.914 23.675 0.914 23.675 0.402 -66.116
1173.125 0.392 -66.677 0.918 23.109 0.918 23.109 0.392 -66.677
1198.083 0.384 -67.22 0.922 22.559 0.922 22.559 0.384 -67.22
1223.042 0.375 -67.748 0.926 22.026 0.926 22.026 0.375 -67.748
1248 0.367 -68.26 0.929 21.507 0.929 21.507 0.367 -68.26
1272.958 0.358 -68.758 0.932 21.003 0.932 21.003 0.358 -68.758
1297.917 0.35 -69.242 0.935 20.513 0.935 20.513 0.35 -69.242
1322.875 0.343 -69.713 0.938 20.036 0.938 20.036 0.343 -69.713
1347.833 0.335 -70.171 0.941 19.571 0.941 19.571 0.335 -70.171
1372.792 0.328 -70.617 0.943 19.119 0.943 19.119 0.328 -70.617
1397.75 0.32 -71.051 0.946 18.678 0.946 18.678 0.32 -71.051
1422.708 0.313 -71.474 0.948 18.248 0.948 18.248 0.313 -71.474
1447.667 0.306 -71.886 0.95 17.829 0.95 17.829 0.306 -71.886
1472.625 0.299 -72.288 0.953 17.42 0.953 17.42 0.299 -72.288
1497.583 0.293 -72.68 0.955 17.021 0.955 17.021 0.293 -72.68
1522.542 0.286 -73.062 0.957 16.632 0.957 16.632 0.286 -73.062
1547.5 0.28 -73.435 0.959 16.251 0.959 16.251 0.28 -73.435
1572.458 0.274 -73.8 0.96 15.879 0.96 15.879 0.274 -73.8
1597.417 0.267 -74.155 0.962 15.515 0.962 15.515 0.267 -74.155
1622.375 0.262 -74.503 0.964 15.159 0.964 15.159 0.262 -74.503
1647.333 0.256 -74.843 0.965 14.811 0.965 14.811 0.256 -74.843
1672.292 0.25 -75.175 0.967 14.47 0.967 14.47 0.25 -75.175
1697.25 0.244 -75.5 0.968 14.136 0.968 14.136 0.244 -75.5
1722.208 0.239 -75.818 0.97 13.809 0.97 13.809 0.239 -75.818
1747.167 0.233 -76.13 0.971 13.489 0.971 13.489 0.233 -76.13
1772.125 0.228 -76.434 0.972 13.175 0.972 13.175 0.228 -76.434
1797.083 0.223 -76.732 0.973 12.867 0.973 12.867 0.223 -76.732
1822.042 0.218 -77.024 0.974 12.565 0.974 12.565 0.218 -77.024
1847 0.213 -77.31 0.976 12.269 0.976 12.269 0.213 -77.31
1871.958 0.208 -77.591 0.977 11.978 0.977 11.978 0.208 -77.591
1896.917 0.203 -77.865 0.978 11.692 0.978 11.692 0.203 -77.865
1921.875 0.198 -78.135 0.979 11.412 0.979 11.412 0.198 -78.135
1946.833 0.193 -78.399 0.98 11.136 0.98 11.136 0.193 -78.399
1971.792 0.189 -78.657 0.981 10.866 0.981 10.866 0.189 -78.657
1996.75 0.184 -78.911 0.981 10.6 0.981 10.6 0.184 -78.911
2021.708 0.179 -79.16 0.982 10.338 0.982 10.338 0.179 -79.16
2046.667 0.175 -79.404 0.983 10.081 0.983 10.081 0.175 -79.404
2071.625 0.171 -79.644 0.984 9.828 0.984 9.828 0.171 -79.644
2096.583 0.166 -79.879 0.984 9.578 0.984 9.578 0.166 -79.879
2121.542 0.162 -80.11 0.985 9.333 0.985 9.333 0.162 -80.11
2146.5 0.158 -80.336 0.986 9.092 0.986 9.092 0.158 -80.336
2171.458 0.154 -80.558 0.987 8.854 0.987 8.854 0.154 -80.558
2196.417 0.15 -80.776 0.987 8.62 0.987 8.62 0.15 -80.776
2221.375 0.146 -80.99 0.988 8.389 0.988 8.389 0.146 -80.99
2246.333 0.142 -81.2 0.988 8.162 0.988 8.162 0.142 -81.2
2271.292 0.138 -81.406 0.989 7.938 0.989 7.938 0.138 -81.406
2296.25 0.134 -81.607 0.989 7.717 0.989 7.717 0.134 -81.607
2321.208 0.131 -81.806 0.99 7.499 0.99 7.499 0.131 -81.806
2346.167 0.127 -82 0.99 7.284 0.99 7.284 0.127 -82
2371.125 0.123 -82.19 0.991 7.072 0.991 7.072 0.123 -82.19
2396.083 0.12 -82.377 0.991 6.863 0.991 6.863 0.12 -82.377
2421.042 0.116 -82.559 0.992 6.656 0.992 6.656 0.116 -82.559
2446 0.112 -82.738 0.992 6.452 0.992 6.452 0.112 -82.738
2470.958 0.109 -82.913 0.992 6.251 0.992 6.251 0.109 -82.913
2495.917 0.105 -83.084 0.993 6.052 0.993 6.052 0.105 -83.084
2520.875 0.102 -83.251 0.993 5.856 0.993 5.856 0.102 -83.251
2545.833 0.099 -83.415 0.994 5.662 0.994 5.662 0.099 -83.415
2570.792 0.095 -83.574 0.994 5.47 0.994 5.47 0.095 -83.574
2595.75 0.092 -83.729 0.994 5.281 0.994 5.281 0.092 -83.729
2620.708 0.089 -83.879 0.994 5.094 0.994 5.094 0.089 -83.879
2645.667 0.086 -84.026 0.995 4.908 0.995 4.908 0.086 -84.026
2670.625 0.082 -84.167 0.995 4.725 0.995 4.725 0.082 -84.167
2695.583 0.079 -84.304 0.995 4.544 0.995 4.544 0.079 -84.304
2720.542 0.076 -84.436 0.996 4.365 0.996 4.365 0.076 -84.436
2745.5 0.073 -84.562 0.996 4.188 0.996 4.188 0.073 -84.562
2770.458 0.07 -84.683 0.996 4.013 0.996 4.013 0.07 -84.683
2795.417 0.067 -84.797 0.996 3.839 0.996 3.839 0.067 -84.797
2820.375 0.064 -84.905 0.996 3.667 0.996 3.667 0.064 -84.905
2845.333 0.061 -85.005 0.997 3.498 0.997 3.498 0.061 -85.005
2870.292 0.058 -85.097 0.997 3.329 0.997 3.329 0.058 -85.097
2895.25 0.055 -85.181 0.997 3.163 0.997 3.163 0.055 -85.181
2920.208 0.052 -85.255 0.997 2.998 0.997 2.998 0.052 -85.255
2945.167 0.049 -85.317 0.997 2.834 0.997 2.834 0.049 -85.317
2970.125 0.047 -85.367 0.997 2.672 0.997 2.672 0.047 -85.367
2995.083 0.044 -85.402 0.997 2.512 0.997 2.512 0.044 -85.402
3020.042 0.041 -85.42 0.998 2.353 0.998 2.353 0.041 -85.42
3045 0.038 -85.418 0.998 2.195 0.998 2.195 0.038 -85.418
3069.958 0.036 -85.391 0.998 2.039 0.998 2.039 0.036 -85.391
3094.917 0.033 -85.335 0.998 1.884 0.998 1.884 0.033 -85.335
3119.875 0.03 -85.243 0.998 1.731 0.998 1.731 0.03 -85.243
3144.833 0.028 -85.104 0.998 1.579 0.998 1.579 0.028 -85.104
3169.792 0.025 -84.905 0.998 1.428 0.998 1.428 0.025 -84.905
3194.75 0.022 -84.626 0.998 1.278 0.998 1.278 0.022 -84.626
3219.708 0.02 -84.239 0.998 1.13 0.998 1.13 0.02 -84.239
3244.667 0.017 -83.697 0.998 0.983 0.998 0.983 0.017 -83.697
3269.625 0.015 -82.921 0.998 0.837 0.998 0.837 0.015 -82.921
3294.583 0.012 -81.774 0.998 0.692 0.998 0.692 0.012 -81.774
3319.542 9.704e-3 -79.975 0.998 0.548 0.998 0.548 9.704e-3 -79.975
3344.5 7.261e-3 -76.882 0.998 0.406 0.998 0.406 7.261e-3 -76.882
3369.458 4.882e-3 -70.631 0.998 0.264 0.998 0.264 4.882e-3 -70.631
3394.417 2.688e-3 -53.399 0.998 0.124 0.998 0.124 2.688e-3 -53.399
3419.375 1.621e-3 9.669 0.998 -0.016 0.998 -0.016 1.621e-3 9.669
3444.333 3.128e-3 59.125 0.998 -0.154 0.998 -0.154 3.128e-3 59.125
3469.292 5.332e-3 72.273 0.998 -0.291 0.998 -0.291 5.332e-3 72.273
3494.25 7.638e-3 77.498 0.998 -0.428 0.998 -0.428 7.638e-3 77.498
3519.208 9.963e-3 80.208 0.998 -0.563 0.998 -0.563 9.963e-3 80.208
3544.167 0.012 81.831 0.998 -0.698 0.998 -0.698 0.012 81.831
3569.125 0.015 82.887 0.998 -0.832 0.998 -0.832 0.015 82.887
3594.083 0.017 83.614 0.998 -0.964 0.998 -0.964 0.017 83.614
3619.042 0.019 84.131 0.998 -1.096 0.998 -1.096 0.019 84.131
3644 0.021 84.508 0.998 -1.227 0.998 -1.227 0.021 84.508
3668.958 0.024 84.785 0.998 -1.357 0.998 -1.357 0.024 84.785
3693.917 0.026 84.991 0.998 -1.487 0.998 -1.487 0.026 84.991
3718.875 0.028 85.142 0.998 -1.615 0.998 -1.615 0.028 85.142
3743.833 0.03 85.251 0.998 -1.743 0.998 -1.743 0.03 85.251
3768.792 0.033 85.328 0.998 -1.87 0.998 -1.87 0.033 85.328
3793.75 0.035 85.379 0.998 -1.996 0.998 -1.996 0.035 85.379
3818.708 0.037 85.409 0.998 -2.121 0.998 -2.121 0.037 85.409
3843.667 0.039 85.421 0.998 -2.246 0.998 -2.246 0.039 85.421
3868.625 0.041 85.419 0.998 -2.37 0.998 -2.37 0.041 85.419
3893.583 0.044 85.405 0.997 -2.493 0.997 -2.493 0.044 85.405
3918.542 0.046 85.381 0.997 -2.616 0.997 -2.616 0.046 85.381
3943.5 0.048 85.349 0.997 -2.737 0.997 -2.737 0.048 85.349
3968.458 0.05 85.309 0.997 -2.858 0.997 -2.858 0.05 85.309
3993.417 0.052 85.262 0.997 -2.979 0.997 -2.979 0.052 85.262
4018.375 0.054 85.211 0.997 -3.099 0.997 -3.099 0.054 85.211
4043.333 0.056 85.154 0.997 -3.218 0.997 -3.218 0.056 85.154
4068.292 0.058 85.094 0.997 -3.336 0.997 -3.336 0.058 85.094
4093.25 0.06 85.03 0.997 -3.454 0.997 -3.454 0.06 85.03
4118.208 0.062 84.962 0.996 -3.571 0.996 -3.571 0.062 84.962
4143.167 0.064 84.892 0.996 -3.688 0.996 -3.688 0.064 84.892
4168.125 0.066 84.819 0.996 -3.804 0.996 -3.804 0.066 84.819
4193.083 0.068 84.745 0.996 -3.919 0.996 -3.919 0.068 84.745
4218.042 0.07 84.668 0.996 -4.034 0.996 -4.034 0.07 84.668
4243 0.072 84.59 0.996 -4.148 0.996 -4.148 0.072 84.59
4267.958 0.074 84.51 0.996 -4.262 0.996 -4.262 0.074 84.51
4292.917 0.076 84.428 0.995 -4.375 0.995 -4.375 0.076 84.428
4317.875 0.078 84.346 0.995 -4.488 0.995 -4.488 0.078 84.346
4342.833 0.08 84.262 0.995 -4.6 0.995 -4.6 0.08 84.262
4367.792 0.082 84.178 0.995 -4.712 0.995 -4.712 0.082 84.178
4392.75 0.084 84.092 0.995 -4.823 0.995 -4.823 0.084 84.092
4417.708 0.086 84.006 0.995 -4.933 0.995 -4.933 0.086 84.006
4442.667 0.088 83.919 0.995 -5.043 0.995 -5.043 0.088 83.919
4467.625 0.09 83.832 0.994 -5.153 0.994 -5.153 0.09 83.832
4492.583 0.092 83.744 0.994 -5.262 0.994 -5.262 0.092 83.744
4517.542 0.094 83.656 0.994 -5.37 0.994 -5.37 0.094 83.656
4542.5 0.095 83.567 0.994 -5.479 0.994 -5.479 0.095 83.567
4567.458 0.097 83.478 0.994 -5.586 0.994 -5.586 0.097 83.478
4592.417 0.099 83.389 0.993 -5.693 0.993 -5.693 0.099 83.389
4617.375 0.101 83.299 0.993 -5.8 0.993 -5.8 0.101 83.299
4642.333 0.103 83.209 0.993 -5.906 0.993 -5.906 0.103 83.209
4667.292 0.105 83.119 0.993 -6.012 0.993 -6.012 0.105 83.119
4692.25 0.107 83.028 0.993 -6.117 0.993 -6.117 0.107 83.028
4717.208 0.108 82.938 0.993 -6.222 0.993 -6.222 0.108 82.938
4742.167 0.11 82.847 0.992 -6.327 0.992 -6.327 0.11 82.847
4767.125 0.112 82.757 0.992 -6.431 0.992 -6.431 0.112 82.757
4792.083 0.114 82.666 0.992 -6.535 0.992 -6.535 0.114 82.666
4817.042 0.116 82.575 0.992 -6.638 0.992 -6.638 0.116 82.575
4842 0.117 82.485 0.992 -6.741 0.992 -6.741 0.117 82.485
4866.958 0.119 82.394 0.991 -6.844 0.991 -6.844 0.119 82.394
4891.917 0.121 82.303 0.991 -6.946 0.991 -6.946 0.121 82.303
4916.875 0.123 82.212 0.991 -7.047 0.991 -7.047 0.123 82.212
4941.833 0.124 82.121 0.991 -7.149 0.991 -7.149 0.124 82.121
4966.792 0.126 82.031 0.99 -7.25 0.99 -7.25 0.126 82.031
4991.75 0.128 81.94 0.99 -7.35 0.99 -7.35 0.128 81.94
5016.708 0.13 81.849 0.99 -7.451 0.99 -7.451 0.13 81.849
5041.667 0.131 81.759 0.99 -7.55 0.99 -7.55 0.131 81.759
5066.625 0.133 81.669 0.99 -7.65 0.99 -7.65 0.133 81.669
5091.583 0.135 81.578 0.989 -7.749 0.989 -7.749 0.135 81.578
5116.542 0.137 81.488 0.989 -7.848 0.989 -7.848 0.137 81.488
5141.5 0.138 81.398 0.989 -7.946 0.989 -7.946 0.138 81.398
5166.458 0.14 81.308 0.989 -8.045 0.989 -8.045 0.14 81.308
5191.417 0.142 81.218 0.988 -8.142 0.988 -8.142 0.142 81.218
5216.375 0.143 81.128 0.988 -8.24 0.988 -8.24 0.143 81.128
5241.333 0.145 81.038 0.988 -8.337 0.988 -8.337 0.145 81.038
5266.292 0.147 80.949 0.988 -8.434 0.988 -8.434 0.147 80.949
5291.25 0.148 80.859 0.987 -8.53 0.987 -8.53 0.148 80.859
5316.208 0.15 80.77 0.987 -8.626 0.987 -8.626 0.15 80.77
5341.167 0.152 80.681 0.987 -8.722 0.987 -8.722 0.152 80.681
5366.125 0.153 80.592 0.987 -8.818 0.987 -8.818 0.153 80.592
5391.083 0.155 80.503 0.986 -8.913 0.986 -8.913 0.155 80.503
5416.042 0.157 80.414 0.986 -9.008 0.986 -9.008 0.157 80.414
5441 0.158 80.326 0.986 -9.103 0.986 -9.103 0.158 80.326
5465.958 0.16 80.237 0.986 -9.197 0.986 -9.197 0.16 80.237
5490.917 0.161 80.149 0.985 -9.291 0.985 -9.291 0.161 80.149
5515.875 0.163 80.061 0.985 -9.385 0.985 -9.385 0.163 80.061
5540.833 0.165 79.973 0.985 -9.478 0.985 -9.478 0.165 79.973
5565.792 0.166 79.885 0.985 -9.572 0.985 -9.572 0.166 79.885
5590.75 0.168 79.798 0.984 -9.665 0.984 -9.665 0.168 79.798
5615.708 0.169 79.71 0.984 -9.757 0.984 -9.757 0.169 79.71
5640.667 0.171 79.623 0.984 -9.85 0.984 -9.85 0.171 79.623
5665.625 0.173 79.536 0.983 -9.942 0.983 -9.942 0.173 79.536
5690.583 0.174 79.449 0.983 -10.034 0.983 -10.034 0.174 79.449
5715.542 0.176 79.362 0.983 -10.125 0.983 -10.125 0.176 79.362
5740.5 0.177 79.276 0.983 -10.217 0.983 -10.217 0.177 79.276
5765.458 0.179 79.189 0.982 -10.308 0.982 -10.308 0.179 79.189
5790.417 0.18 79.103 0.982 -10.398 0.982 -10.398 0.18 79.103
5815.375 0.182 79.017 0.982 -10.489 0.982 -10.489 0.182 79.017
5840.333 0.184 78.931 0.981 -10.579 0.981 -10.579 0.184 78.931
5865.292 0.185 78.845 0.981 -10.669 0.981 -10.669 0.185 78.845
5890.25 0.187 78.759 0.981 -10.759 0.981 -10.759 0.187 78.759
5915.208 0.188 78.674 0.981 -10.849 0.981 -10.849 0.188 78.674
5940.167 0.19 78.588 0.98 -10.938 0.98 -10.938 0.19 78.588
5965.125 0.191 78.503 0.98 -11.027 0.98 -11.027 0.191 78.503
5990.083 0.193 78.418 0.98 -11.116 0.98 -11.116 0.193 78.418
6015.042 0.194 78.333 0.979 -11.204 0.979 -11.204 0.194 78.333
6040 0.196 78.249 0.979 -11.293 0.979 -11.293 0.196 78.249
6064.958 0.197 78.164 0.979 -11.381 0.979 -11.381 0.197 78.164
6089.917 0.199 78.08 0.978 -11.469 0.978 -11.469 0.199 78.08
6114.875 0.2 77.996 0.978 -11.556 0.978 -11.556 0.2 77.996
6139.833 0.202 77.912 0.978 -11.644 0.978 -11.644 0.202 77.912
6164.792 0.203 77.828 0.978 -11.731 0.978 -11.731 0.203 77.828
6189.75 0.205 77.744 0.977 -11.818 0.977 -11.818 0.205 77.744
6214.708 0.206 77.661 0.977 -11.905 0.977 -11.905 0.206 77.661
6239.667 0.208 77.577 0.977 -11.992 0.977 -11.992 0.208 77.577
6264.625 0.209 77.494 0.976 -12.078 0.976 -12.078 0.209 77.494
6289.583 0.211 77.411 0.976 -12.164 0.976 -12.164 0.211 77.411
6314.542 0.212 77.328 0.976 -12.25 0.976 -12.25 0.212 77.328
6339.5 0.214 77.246 0.975 -12.336 0.975 -12.336 0.214 77.246
6364.458 0.215 77.163 0.975 -12.421 0.975 -12.421 0.215 77.163
6389.417 0.217 77.081 0.975 -12.507 0.975 -12.507 0.217 77.081
6414.375 0.218 76.999 0.974 -12.592 0.974 -12.592 0.218 76.999
6439.333 0.219 76.916 0.974 -12.677 0.974 -12.677 0.219 76.916
6464.292 0.221 76.835 0.974 -12.761 0.974 -12.761 0.221 76.835
6489.25 0.222 76.753 0.973 -12.846 0.973 -12.846 0.222 76.753
6514.208 0.224 76.671 0.973 -12.93 0.973 -12.93 0.224 76.671
6539.167 0.225 76.59 0.973 -13.014 0.973 -13.014 0.225 76.59
6564.125 0.227 76.508 0.972 -13.098 0.972 -13.098 0.227 76.508
6589.083 0.228 76.427 0.972 -13.182 0.972 -13.182 0.228 76.427
6614.042 0.229 76.346 0.972 -13.265 0.972 -13.265 0.229 76.346
6639 0.231 76.266 0.971 -13.349 0.971 -13.349 0.231 76.266
6663.958 0.232 76.185 0.971 -13.432 0.971 -13.432 0.232 76.185
6688.917 0.234 76.104 0.971 -13.515 0.971 -13.515 0.234 76.104
6713.875 0.235 76.024 0.97 -13.598 0.97 -13.598 0.235 76.024
6738.833 0.237 75.944 0.97 -13.68 0.97 -13.68 0.237 75.944
6763.792 0.238 75.864 0.97 -13.763 0.97 -13.763 0.238 75.864
6788.75 0.239 75.784 0.969 -13.845 0.969 -13.845 0.239 75.784
6813.708 0.241 75.704 0.969 -13.927 0.969 -13.927 0.241 75.704
6838.667 0.242 75.624 0.969 -14.009 0.969 -14.009 0.242 75.624
6863.625 0.243 75.545 0.968 -14.09 0.968 -14.09 0.243 75.545
6888.583 0.245 75.465 0.968 -14.172 0.968 -14.172 0.245 75.465
6913.542 0.246 75.386 0.968 -14.253 0.968 -14.253 0.246 75.386
6938.5 0.248 75.307 0.967 -14.334 0.967 -14.334 0.248 75.307
6963.458 0.249 75.228 0.967 -14.415 0.967 -14.415 0.249 75.228
6988.417 0.25 75.15 0.967 -14.496 0.967 -14.496 0.25 75.15
7013.375 0.252 75.071 0.966 -14.577 0.966 -14.577 0.252 75.071
7038.333 0.253 74.993 0.966 -14.657 0.966 -14.657 0.253 74.993
7063.292 0.254 74.914 0.966 -14.738 0.966 -14.738 0.254 74.914
7088.25 0.256 74.836 0.965 -14.818 0.965 -14.818 0.256 74.836
7113.208 0.257 74.758 0.965 -14.898 0.965 -14.898 0.257 74.758
7138.167 0.258 74.68 0.964 -14.978 0.964 -14.978 0.258 74.68
7163.125 0.26 74.602 0.964 -15.057 0.964 -15.057 0.26 74.602
7188.083 0.261 74.525 0.964 -15.137 0.964 -15.137 0.261 74.525
7213.042 0.262 74.447 0.963 -15.216 0.963 -15.216 0.262 74.447
7238 0.264 74.37 0.963 -15.295 0.963 -15.295 0.264 74.37
7262.958 0.265 74.293 0.963 -15.374 0.963 -15.374 0.265 74.293
7287.917 0.266 74.216 0.962 -15.453 0.962 -15.453 0.266 74.216
7312.875 0.268 74.139 0.962 -15.532 0.962 -15.532 0.268 74.139
7337.833 0.269 74.062 0.962 -15.611 0.962 -15.611 0.269 74.062
7362.792 0.27 73.985 0.961 -15.689 0.961 -15.689 0.27 73.985
7387.75 0.272 73.909 0.961 -15.767 0.961 -15.767 0.272 73.909
7412.708 0.273 73.832 0.96 -15.845 0.96 -15.845 0.273 73.832
7437.667 0.274 73.756 0.96 -15.923 0.96 -15.923 0.274 73.756
7462.625 0.276 73.68 0.96 -16.001 0.96 -16.001 0.276 73.68
7487.583 0.277 73.604 0.959 -16.079 0.959 -16.079 0.277 73.604
7512.542 0.278 73.528 0.959 -16.156 0.959 -16.156 0.278 73.528
7537.5 0.28 73.452 0.959 -16.233 0.959 -16.233 0.28 73.452
7562.458 0.281 73.377 0.958 -16.311 0.958 -16.311 0.281 73.377
7587.417 0.282 73.301 0.958 -16.388 0.958 -16.388 0.282 73.301
7612.375 0.283 73.226 0.957 -16.465 0.957 -16.465 0.283 73.226
7637.333 0.285 73.15 0.957 -16.541 0.957 -16.541 0.285 73.15
7662.292 0.286 73.075 0.957 -16.618 0.957 -16.618 0.286 73.075
7687.25 0.287 73 0.956 -16.694 0.956 -16.694 0.287 73
7712.208 0.289 72.926 0.956 -16.771 0.956 -16.771 0.289 72.926
7737.167 0.29 72.851 0.956 -16.847 0.956 -16.847 0.29 72.851
7762.125 0.291 72.776 0.955 -16.923 0.955 -16.923 0.291 72.776
7787.083 0.292 72.702 0.955 -16.999 0.955 -16.999 0.292 72.702
7812.042 0.294 72.627 0.954 -17.074 0.954 -17.074 0.294 72.627
7837 0.295 72.553 0.954 -17.15 0.954 -17.15 0.295 72.553
7861.958 0.296 72.479 0.954 -17.226 0.954 -17.226 0.296 72.479
7886.917 0.297 72.405 0.953 -17.301 0.953 -17.301 0.297 72.405
7911.875 0.299 72.331 0.953 -17.376 0.953 -17.376 0.299 72.331
7936.833 0.3 72.258 0.952 -17.451 0.952 -17.451 0.3 72.258
7961.792 0.301 72.184 0.952 -17.526 0.952 -17.526 0.301 72.184
7986.75 0.302 72.111 0.952 -17.601 0.952 -17.601 0.302 72.111
8011.708 0.304 72.037 0.951 -17.676 0.951 -17.676 0.304 72.037
8036.667 0.305 71.964 0.951 -17.75 0.951 -17.75 0.305 71.964
8061.625 0.306 71.891 0.95 -17.824 0.95 -17.824 0.306 71.891
8086.583 0.307 71.818 0.95 -17.899 0.95 -17.899 0.307 71.818
8111.542 0.309 71.745 0.95 -17.973 0.95 -17.973 0.309 71.745
8136.5 0.31 71.672 0.949 -18.047 0.949 -18.047 0.31 71.672
8161.458 0.311 71.6 0.949 -18.121 0.949 -18.121 0.311 71.6
8186.417 0.312 71.527 0.948 -18.194 0.948 -18.194 0.312 71.527
8211.375 0.313 71.455 0.948 -18.268 0.948 -18.268 0.313 71.455
8236.333 0.315 71.382 0.948 -18.342 0.948 -18.342 0.315 71.382
8261.292 0.316 71.31 0.947 -18.415 0.947 -18.415 0.316 71.31
8286.25 0.317 71.238 0.947 -18.488 0.947 -18.488 0.317 71.238
8311.208 0.318 71.166 0.946 -18.561 0.946 -18.561 0.318 71.166
8336.167 0.32 71.094 0.946 -18.634 0.946 -18.634 0.32 71.094
8361.125 0.321 71.023 0.946 -18.707 0.946 -18.707 0.321 71.023
8386.083 0.322 70.951 0.945 -18.78 0.945 -18.78 0.322 70.951
8411.042 0.323 70.88 0.945 -18.852 0.945 -18.852 0.323 70.88
8436 0.324 70.808 0.944 -18.925 0.944 -18.925 0.324 70.808
8460.958 0.326 70.737 0.944 -18.997 0.944 -18.997 0.326 70.737
8485.917 0.327 70.666 0.944 -19.069 0.944 -19.069 0.327 70.666
8510.875 0.328 70.595 0.943 -19.142 0.943 -19.142 0.328 70.595
8535.833 0.329 70.524 0.943 -19.213 0.943 -19.213 0.329 70.524
8560.792 0.33 70.453 0.942 -19.285 0.942 -19.285 0.33 70.453
8585.75 0.331 70.382 0.942 -19.357 0.942 -19.357 0.331 70.382
8610.708 0.333 70.312 0.942 -19.429 0.942 -19.429 0.333 70.312
8635.667 0.334 70.241 0.941 -19.5 0.941 -19.5 0.334 70.241
8660.625 0.335 70.171 0.941 -19.572 0.941 -19.572 0.335 70.171
8685.583 0.336 70.101 0.94 -19.643 0.94 -19.643 0.336 70.101
8710.542 0.337 70.03 0.94 -19.714 0.94 -19.714 0.337 70.03
8735.5 0.338 69.96 0.939 -19.785 0.939 -19.785 0.338 69.96
8760.458 0.34 69.89 0.939 -19.856 0.939 -19.856 0.34 69.89
8785.417 0.341 69.821 0.939 -19.927 0.939 -19.927 0.341 69.821
8810.375 0.342 69.751 0.938 -19.997 0.938 -19.997 0.342 69.751
8835.333 0.343 69.681 0.938 -20.068 0.938 -20.068 0.343 69.681
8860.292 0.344 69.612 0.937 -20.138 0.937 -20.138 0.344 69.612
8885.25 0.345 69.542 0.937 -20.209 0.937 -20.209 0.345 69.542
8910.208 0.347 69.473 0.937 -20.279 0.937 -20.279 0.347 69.473
8935.167 0.348 69.404 0.936 -20.349 0.936 -20.349 0.348 69.404
8960.125 0.349 69.335 0.936 -20.419 0.936 -20.419 0.349 69.335
8985.083 0.35 69.266 0.935 -20.489 0.935 -20.489 0.35 69.266
9010.042 0.351 69.197 0.935 -20.559 0.935 -20.559 0.351 69.197
9035 0.352 69.128 0.934 -20.628 0.934 -20.628 0.352 69.128
9059.958 0.353 69.06 0.934 -20.698 0.934 -20.698 0.353 69.06
9084.917 0.355 68.991 0.934 -20.767 0.934 -20.767 0.355 68.991
9109.875 0.356 68.923 0.933 -20.837 0.933 -20.837 0.356 68.923
9134.833 0.357 68.854 0.933 -20.906 0.933 -20.906 0.357 68.854
9159.792 0.358 68.786 0.932 -20.975 0.932 -20.975 0.358 68.786
9184.75 0.359 68.718 0.932 -21.044 0.932 -21.044 0.359 68.718
9209.708 0.36 68.65 0.931 -21.113 0.931 -21.113 0.36 68.65
9234.667 0.361 68.582 0.931 -21.182 0.931 -21.182 0.361 68.582
9259.625 0.362 68.514 0.931 -21.25 0.931 -21.25 0.362 68.514
9284.583 0.364 68.446 0.93 -21.319 0.93 -21.319 0.364 68.446
9309.542 0.365 68.379 0.93 -21.387 0.93 -21.387 0.365 68.379
9334.5 0.366 68.311 0.929 -21.456 0.929 -21.456 0.366 68.311
9359.458 0.367 68.244 0.929 -21.524 0.929 -21.524 0.367 68.244
9384.417 0.368 68.177 0.928 -21.592 0.928 -21.592 0.368 68.177
9409.375 0.369 68.109 0.928 -21.66 0.928 -21.66 0.369 68.109
9434.333 0.37 68.042 0.927 -21.728 0.927 -21.728 0.37 68.042
9459.292 0.371 67.975 0.927 -21.796 0.927 -21.796 0.371 67.975
9484.25 0.372 67.908 0.927 -21.864 0.927 -21.864 0.372 67.908
9509.208 0.373 67.841 0.926 -21.931 0.926 -21.931 0.373 67.841
9534.167 0.375 67.775 0.926 -21.999 0.926 -21.999 0.375 67.775
9559.125 0.376 67.708 0.925 -22.066 0.925 -22.066 0.376 67.708
9584.083 0.377 67.642 0.925 -22.133 0.925 -22.133 0.377 67.642
9609.042 0.378 67.575 0.924 -22.2 0.924 -22.2 0.378 67.575
9634 0.379 67.509 0.924 -22.268 0.924 -22.268 0.379 67.509
9658.958 0.38 67.443 0.924 -22.335 0.924 -22.335 0.38 67.443
9683.917 0.381 67.376 0.923 -22.401 0.923 -22.401 0.381 67.376
9708.875 0.382 67.31 0.923 -22.468 0.923 -22.468 0.382 67.31
9733.833 0.383 67.244 0.922 -22.535 0.922 -22.535 0.383 67.244
9758.792 0.384 67.179 0.922 -22.601 0.922 -22.601 0.384 67.179
9783.75 0.385 67.113 0.921 -22.668 0.921 -22.668 0.385 67.113
9808.708 0.386 67.047 0.921 -22.734 0.921 -22.734 0.386 67.047
9833.667 0.388 66.982 0.92 -22.801 0.92 -22.801 0.388 66.982
9858.625 0.389 66.916 0.92 -22.867 0.92 -22.867 0.389 66.916
9883.583 0.39 66.851 0.919 -22.933 0.919 -22.933 0.39 66.851
9908.542 0.391 66.786 0.919 -22.999 0.919 -22.999 0.391 66.786
9933.5 0.392 66.72 0.919 -23.065 0.919 -23.065 0.392 66.72
9958.458 0.393 66.655 0.918 -23.13 0.918 -23.13 0.393 66.655
9983.417 0.394 66.59 0.918 -23.196 0.918 -23.196 0.394 66.59
10008.375 0.395 66.525 0.917 -23.262 0.917 -23.262 0.395 66.525
10033.333 0.396 66.461 0.917 -23.327 0.917 -23.327 0.396 66.461
10058.292 0.397 66.396 0.916 -23.392 0.916 -23.392 0.397 66.396
10083.25 0.398 66.331 0.916 -23.458 0.916 -23.458 0.398 66.331
10108.208 0.399 66.267 0.915 -23.523 0.915 -23.523 0.399 66.267
10133.167 0.4 66.202 0.915 -23.588 0.915 -23.588 0.4 66.202
10158.125 0.401 66.138 0.915 -23.653 0.915 -23.653 0.401 66.138
10183.083 0.402 66.074 0.914 -23.718 0.914 -23.718 0.402 66.074
10208.042 0.403 66.01 0.914 -23.783 0.914 -23.783 0.403 66.01
10233 0.404 65.946 0.913 -23.847 0.913 -23.847 0.404 65.946
10257.958 0.405 65.882 0.913 -23.912 0.913 -23.912 0.405 65.882
10282.917 0.406 65.818 0.912 -23.976 0.912 -23.976 0.406 65.818
10307.875 0.407 65.754 0.912 -24.041 0.912 -24.041 0.407 65.754
10332.833 0.408 65.69 0.911 -24.105 0.911 -24.105 0.408 65.69
10357.792 0.409 65.627 0.911 -24.169 0.911 -24.169 0.409 65.627
10382.75 0.41 65.563 0.91 -24.233 0.91 -24.233 0.41 65.563
10407.708 0.411 65.5 0.91 -24.297 0.91 -24.297 0.411 65.5
10432.667 0.412 65.436 0.91 -24.361 0.91 -24.361 0.412 65.436
10457.625 0.414 65.373 0.909 -24.425 0.909 -24.425 0.414 65.373
10482.583 0.415 65.31 0.909 -24.489 0.909 -24.489 0.415 65.31
10507.542 0.416 65.247 0.908 -24.553 0.908 -24.553 0.416 65.247
10532.5 0.417 65.184 0.908 -24.616 0.908 -24.616 0.417 65.184
10557.458 0.418 65.121 0.907 -24.68 0.907 -24.68 0.418 65.121
10582.417 0.419 65.058 0.907 -24.743 0.907 -24.743 0.419 65.058
10607.375 0.42 64.996 0.906 -24.806 0.906 -24.806 0.42 64.996
10632.333 0.421 64.933 0.906 -24.869 0.906 -24.869 0.421 64.933
10657.292 0.422 64.871 0.905 -24.932 0.905 -24.932 0.422 64.871
10682.25 0.423 64.808 0.905 -24.995 0.905 -24.995 0.423 64.808
10707.208 0.424 64.746 0.904 -25.058 0.904 -25.058 0.424 64.746
10732.167 0.425 64.684 0.904 -25.121 0.904 -25.121 0.425 64.684
10757.125 0.426 64.621 0.904 -25.184 0.904 -25.184 0.426 64.621
10782.083 0.427 64.559 0.903 -25.247 0.903 -25.247 0.427 64.559
10807.042 0.428 64.497 0.903 -25.309 0.903 -25.309 0.428 64.497
10832 0.428 64.435 0.902 -25.372 0.902 -25.372 0.428 64.435
10856.958 0.429 64.374 0.902 -25.434 0.902 -25.434 0.429 64.374
10881.917 0.43 64.312 0.901 -25.496 0.901 -25.496 0.43 64.312
10906.875 0.431 64.25 0.901 -25.558 0.901 -25.558 0.431 64.25
10931.833 0.432 64.189 0.9 -25.62 0.9 -25.62 0.432 64.189
10956.792 0.433 64.127 0.9 -25.682 0.9 -25.682 0.433 64.127
10981.75 0.434 64.066 0.899 -25.744 0.899 -25.744 0.434 64.066
11006.708 0.435 64.004 0.899 -25.806 0.899 -25.806 0.435 64.004
11031.667 0.436 63.943 0.898 -25.868 0.898 -25.868 0.436 63.943
11056.625 0.437 63.882 0.898 -25.93 0.898 -25.93 0.437 63.882
11081.583 0.438 63.821 0.897 -25.991 0.897 -25.991 0.438 63.821
11106.542 0.439 63.76 0.897 -26.053 0.897 -26.053 0.439 63.76
11131.5 0.44 63.699 0.896 -26.114 0.896 -26.114 0.44 63.699
11156.458 0.441 63.638 0.896 -26.175 0.896 -26.175 0.441 63.638
11181.417 0.442 63.578 0.896 -26.236 0.896 -26.236 0.442 63.578
11206.375 0.443 63.517 0.895 -26.298 0.895 -26.298 0.443 63.517
11231.333 0.444 63.457 0.895 -26.359 0.895 -26.359 0.444 63.457
11256.292 0.445 63.396 0.894 -26.42 0.894 -26.42 0.445 63.396
11281.25 0.446 63.336 0.894 -26.48 0.894 -26.48 0.446 63.336
11306.208 0.447 63.276 0.893 -26.541 0.893 -26.541 0.447 63.276
11331.167 0.448 63.215 0.893 -26.602 0.893 -26.602 0.448 63.215
11356.125 0.449 63.155 0.892 -26.662 0.892 -26.662 0.449 63.155
11381.083 0.45 63.095 0.892 -26.723 0.892 -26.723 0.45 63.095
11406.042 0.451 63.035 0.891 -26.783 0.891 -26.783 0.451 63.035
11431 0.452 62.975 0.891 -26.844 0.891 -26.844 0.452 62.975
11455.958 0.452 62.916 0.89 -26.904 0.89 -26.904 0.452 62.916
11480.917 0.453 62.856 0.89 -26.964 0.89 -26.964 0.453 62.856
11505.875 0.454 62.796 0.889 -27.024 0.889 -27.024 0.454 62.796
11530.833 0.455 62.737 0.889 -27.084 0.889 -27.084 0.455 62.737
11555.792 0.456 62.677 0.888 -27.144 0.888 -27.144 0.456 62.677
11580.75 0.457 62.618 0.888 -27.204 0.888 -27.204 0.457 62.618
11605.708 0.458 62.559 0.887 -27.264 0.887 -27.264 0.458 62.559
11630.667 0.459 62.5 0.887 -27.323 0.887 -27.323 0.459 62.5
11655.625 0.46 62.44 0.887 -27.383 0.887 -27.383 0.46 62.44
11680.583 0.461 62.381 0.886 -27.442 0.886 -27.442 0.461 62.381
11705.542 0.462 62.322 0.886 -27.502 0.886 -27.502 0.462 62.322
11730.5 0.463 62.264 0.885 -27.561 0.885 -27.561 0.463 62.264
11755.458 0.464 62.205 0.885 -27.62 0.885 -27.62 0.464 62.205
11780.417 0.465 62.146 0.884 -27.679 0.884 -27.679 0.465 62.146
11805.375 0.465 62.087 0.884 -27.738 0.884 -27.738 0.465 62.087
11830.333 0.466 62.029 0.883 -27.797 0.883 -27.797 0.466 62.029
11855.292 0.467 61.97 0.883 -27.856 0.883 -27.856 0.467 61.97
11880.25 0.468 61.912 0.882 -27.915 0.882 -27.915 0.468 61.912
11905.208 0.469 61.854 0.882 -27.974 0.882 -27.974 0.469 61.854
11930.167 0.47 61.795 0.881 -28.033 0.881 -28.033 0.47 61.795
11955.125 0.471 61.737 0.881 -28.091 0.881 -28.091 0.471 61.737
11980.083 0.472 61.679 0.88 -28.15 0.88 -28.15 0.472 61.679
12005.042 0.473 61.621 0.88 -28.208 0.88 -28.208 0.473 61.621
12030 0.474 61.563 0.879 -28.266 0.879 -28.266 0.474 61.563
12054.958 0.474 61.506 0.879 -28.325 0.879 -28.325 0.474 61.506
12079.917 0.475 61.448 0.878 -28.383 0.878 -28.383 0.475 61.448
12104.875 0.476 61.39 0.878 -28.441 0.878 -28.441 0.476 61.39
12129.833 0.477 61.333 0.877 -28.499 0.877 -28.499 0.477 61.333
12154.792 0.478 61.275 0.877 -28.557 0.877 -28.557 0.478 61.275
12179.75 0.479 61.218 0.876 -28.615 0.876 -28.615 0.479 61.218
12204.708 0.48 61.16 0.876 -28.672 0.876 -28.672 0.48 61.16
12229.667 0.481 61.103 0.875 -28.73 0.875 -28.73 0.481 61.103
12254.625 0.482 61.046 0.875 -28.788 0.875 -28.788 0.482 61.046
12279.583 0.482 60.989 0.875 -28.845 0.875 -28.845 0.482 60.989
12304.542 0.483 60.932 0.874 -28.903 0.874 -28.903 0.483 60.932
12329.5 0.484 60.875 0.874 -28.96 0.874 -28.96 0.484 60.875
12354.458 0.485 60.818 0.873 -29.017 0.873 -29.017 0.485 60.818
12379.417 0.486 60.761 0.873 -29.074 0.873 -29.074 0.486 60.761
12404.375 0.487 60.704 0.872 -29.131 0.872 -29.131 0.487 60.704
12429.333 0.488 60.648 0.872 -29.188 0.872 -29.188 0.488 60.648
12454.292 0.489 60.591 0.871 -29.245 0.871 -29.245 0.489 60.591
12479.25 0.489 60.535 0.871 -29.302 0.871 -29.302 0.489 60.535
12504.208 0.49 60.478 0.87 -29.359 0.87 -29.359 0.49 60.478
12529.167 0.491 60.422 0.87 -29.416 0.87 -29.416 0.491 60.422
12554.125 0.492 60.366 0.869 -29.472 0.869 -29.472 0.492 60.366
12579.083 0.493 60.309 0.869 -29.529 0.869 -29.529 0.493 60.309
12604.042 0.494 60.253 0.868 -29.585 0.868 -29.585 0.494 60.253
12629 0.495 60.197 0.868 -29.642 0.868 -29.642 0.495 60.197
12653.958 0.495 60.141 0.867 -29.698 0.867 -29.698 0.495 60.141
12678.917 0.496 60.085 0.867 -29.754 0.867 -29.754 0.496 60.085
12703.875 0.497 60.03 0.866 -29.811 0.866 -29.811 0.497 60.03
12728.833 0.498 59.974 0.866 -29.867 0.866 -29.867 0.498 59.974
12753.792 0.499 59.918 0.865 -29.923 0.865 -29.923 0.499 59.918
12778.75 0.5 59.863 0.865 -29.979 0.865 -29.979 0.5 59.863
12803.708 0.501 59.807 0.864 -30.034 0.864 -30.034 0.501 59.807
12828.667 0.501 59.752 0.864 -30.09 0.864 -30.09 0.501 59.752
12853.625 0.502 59.696 0.863 -30.146 0.863 -30.146 0.502 59.696
12878.583 0.503 59.641 0.863 -30.202 0.863 -30.202 0.503 59.641
12903.542 0.504 59.586 0.862 -30.257 0.862 -30.257 0.504 59.586
12928.5 0.505 59.531 0.862 -30.313 0.862 -30.313 0.505 59.531
12953.458 0.506 59.476 0.861 -30.368 0.861 -30.368 0.506 59.476
12978.417 0.506 59.421 0.861 -30.423 0.861 -30.423 0.506 59.421
13003.375 0.507 59.366 0.86 -30.479 0.86 -30.479 0.507 59.366
13028.333 0.508 59.311 0.86 -30.534 0.86 -30.534 0.508 59.311
13053.292 0.509 59.256 0.859 -30.589 0.859 -30.589 0.509 59.256
13078.25 0.51 59.202 0.859 -30.644 0.859 -30.644 0.51 59.202
13103.208 0.511 59.147 0.858 -30.699 0.858 -30.699 0.511 59.147
13128.167 0.511 59.093 0.858 -30.754 0.858 -30.754 0.511 59.093
13153.125 0.512 59.038 0.858 -30.808 0.858 -30.808 0.512 59.038
13178.083 0.513 58.984 0.857 -30.863 0.857 -30.863 0.513 58.984
13203.042 0.514 58.929 0.857 -30.918 0.857 -30.918 0.514 58.929
13228 0.515 58.875 0.856 -30.972 0.856 -30.972 0.515 58.875
13252.958 0.515 58.821 0.856 -31.027 0.856 -31.027 0.515 58.821
13277.917 0.516 58.767 0.855 -31.081 0.855 -31.081 0.516 58.767
13302.875 0.517 58.713 0.855 -31.136 0.855 -31.136 0.517 58.713
13327.833 0.518 58.659 0.854 -31.19 0.854 -31.19 0.518 58.659
13352.792 0.519 58.605 0.854 -31.244 0.854 -31.244 0.519 58.605
13377.75 0.519 58.551 0.853 -31.298 0.853 -31.298 0.519 58.551
13402.708 0.52 58.498 0.853 -31.352 0.853 -31.352 0.52 58.498
13427.667 0.521 58.444 0.852 -31.406 0.852 -31.406 0.521 58.444
13452.625 0.522 58.39 0.852 -31.46 0.852 -31.46 0.522 58.39
13477.583 0.523 58.337 0.851 -31.514 0.851 -31.514 0.523 58.337
13502.542 0.524 58.283 0.851 -31.567 0.851 -31.567 0.524 58.283
13527.5 0.524 58.23 0.85 -31.621 0.85 -31.621 0.524 58.23
13552.458 0.525 58.177 0.85 -31.675 0.85 -31.675 0.525 58.177
13577.417 0.526 58.124 0.849 -31.728 0.849 -31.728 0.526 58.124
13602.375 0.527 58.071 0.849 -31.782 0.849 -31.782 0.527 58.071
13627.333 0.527 58.017 0.848 -31.835 0.848 -31.835 0.527 58.017
13652.292 0.528 57.964 0.848 -31.888 0.848 -31.888 0.528 57.964
13677.25 0.529 57.912 0.847 -31.942 0.847 -31.942 0.529 57.912
13702.208 0.53 57.859 0.847 -31.995 0.847 -31.995 0.53 57.859
13727.167 0.531 57.806 0.846 -32.048 0.846 -32.048 0.531 57.806
13752.125 0.531 57.753 0.846 -32.101 0.846 -32.101 0.531 57.753
13777.083 0.532 57.701 0.845 -32.154 0.845 -32.154 0.532 57.701
13802.042 0.533 57.648 0.845 -32.207 0.845 -32.207 0.533 57.648
13827 0.534 57.596 0.844 -32.259 0.844 -32.259 0.534 57.596
13851.958 0.535 57.543 0.844 -32.312 0.844 -32.312 0.535 57.543
13876.917 0.535 57.491 0.843 -32.365 0.843 -32.365 0.535 57.491
13901.875 0.536 57.438 0.843 -32.417 0.843 -32.417 0.536 57.438
13926.833 0.537 57.386 0.842 -32.47 0.842 -32.47 0.537 57.386
13951.792 0.538 57.334 0.842 -32.522 0.842 -32.522 0.538 57.334
13976.75 0.538 57.282 0.841 -32.575 0.841 -32.575 0.538 57.282
14001.708 0.539 57.23 0.841 -32.627 0.841 -32.627 0.539 57.23
14026.667 0.54 57.178 0.84 -32.679 0.84 -32.679 0.54 57.178
14051.625 0.541 57.126 0.84 -32.731 0.84 -32.731 0.541 57.126
14076.583 0.541 57.075 0.839 -32.783 0.839 -32.783 0.541 57.075
14101.542 0.542 57.023 0.839 -32.835 0.839 -32.835 0.542 57.023
14126.5 0.543 56.971 0.838 -32.887 0.838 -32.887 0.543 56.971
14151.458 0.544 56.92 0.838 -32.939 0.838 -32.939 0.544 56.92
14176.417 0.545 56.868 0.837 -32.991 0.837 -32.991 0.545 56.868
14201.375 0.545 56.817 0.837 -33.043 0.837 -33.043 0.545 56.817
14226.333 0.546 56.765 0.836 -33.094 0.836 -33.094 0.546 56.765
14251.292 0.547 56.714 0.836 -33.146 0.836 -33.146 0.547 56.714
14276.25 0.548 56.663 0.835 -33.197 0.835 -33.197 0.548 56.663
14301.208 0.548 56.612 0.835 -33.249 0.835 -33.249 0.548 56.612
14326.167 0.549 56.56 0.834 -33.3 0.834 -33.3 0.549 56.56
14351.125 0.55 56.509 0.834 -33.351 0.834 -33.351 0.55 56.509
14376.083 0.551 56.459 0.833 -33.403 0.833 -33.403 0.551 56.459
14401.042 0.551 56.408 0.833 -33.454 0.833 -33.454 0.551 56.408
14426 0.552 56.357 0.833 -33.505 0.833 -33.505 0.552 56.357
14450.958 0.553 56.306 0.832 -33.556 0.832 -33.556 0.553 56.306
14475.917 0.553 56.255 0.832 -33.607 0.832 -33.607 0.553 56.255
14500.875 0.554 56.205 0.831 -33.658 0.831 -33.658 0.554 56.205
14525.833 0.555 56.154 0.831 -33.709 0.831 -33.709 0.555 56.154
14550.792 0.556 56.104 0.83 -33.759 0.83 -33.759 0.556 56.104
14575.75 0.556 56.053 0.83 -33.81 0.83 -33.81 0.556 56.053
14600.708 0.557 56.003 0.829 -33.861 0.829 -33.861 0.557 56.003
14625.667 0.558 55.953 0.829 -33.911 0.829 -33.911 0.558 55.953
14650.625 0.559 55.903 0.828 -33.962 0.828 -33.962 0.559 55.903
14675.583 0.559 55.852 0.828 -34.012 0.828 -34.012 0.559 55.852
14700.542 0.56 55.802 0.827 -34.062 0.827 -34.062 0.56 55.802
14725.5 0.561 55.752 0.827 -34.112 0.827 -34.112 0.561 55.752
14750.458 0.562 55.702 0.826 -34.163 0.826 -34.163 0.562 55.702
14775.417 0.562 55.653 0.826 -34.213 0.826 -34.213 0.562 55.653
14800.375 0.563 55.603 0.825 -34.263 0.825 -34.263 0.563 55.603
14825.333 0.564 55.553 0.825 -34.313 0.825 -34.313 0.564 55.553
14850.292 0.564 55.503 0.824 -34.363 0.824 -34.363 0.564 55.503
14875.25 0.565 55.454 0.824 -34.413 0.824 -34.413 0.565 55.454
14900.208 0.566 55.404 0.823 -34.462 0.823 -34.462 0.566 55.404
14925.167 0.567 55.355 0.823 -34.512 0.823 -34.512 0.567 55.355
14950.125 0.567 55.305 0.822 -34.562 0.822 -34.562 0.567 55.305
14975.083 0.568 55.256 0.822 -34.611 0.822 -34.611 0.568 55.256
15000.042 0.569 55.207 0.821 -34.661 0.821 -34.661 0.569 55.207
15025 0.569 55.158 0.821 -34.71 0.821 -34.71 0.569 55.158
15049.958 0.57 55.108 0.82 -34.76 0.82 -34.76 0.57 55.108
15074.917 0.571 55.059 0.82 -34.809 0.82 -34.809 0.571 55.059
15099.875 0.572 55.01 0.819 -34.858 0.819 -34.858 0.572 55.01
15124.833 0.572 54.961 0.819 -34.907 0.819 -34.907 0.572 54.961
15149.792 0.573 54.913 0.818 -34.956 0.818 -34.956 0.573 54.913
15174.75 0.574 54.864 0.818 -35.006 0.818 -35.006 0.574 54.864
15199.708 0.574 54.815 0.817 -35.054 0.817 -35.054 0.574 54.815
15224.667 0.575 54.766 0.817 -35.103 0.817 -35.103 0.575 54.766
15249.625 0.576 54.718 0.816 -35.152 0.816 -35.152 0.576 54.718
15274.583 0.576 54.669 0.816 -35.201 0.816 -35.201 0.576 54.669
15299.542 0.577 54.621 0.815 -35.25 0.815 -35.25 0.577 54.621
15324.5 0.578 54.572 0.815 -35.298 0.815 -35.298 0.578 54.572
15349.458 0.579 54.524 0.814 -35.347 0.814 -35.347 0.579 54.524
15374.417 0.579 54.476 0.814 -35.395 0.814 -35.395 0.579 54.476
15399.375 0.58 54.427 0.813 -35.444 0.813 -35.444 0.58 54.427
15424.333 0.581 54.379 0.813 -35.492 0.813 -35.492 0.581 54.379
15449.292 0.581 54.331 0.812 -35.541 0.812 -35.541 0.581 54.331
15474.25 0.582 54.283 0.812 -35.589 0.812 -35.589 0.582 54.283
15499.208 0.583 54.235 0.811 -35.637 0.811 -35.637 0.583 54.235
15524.167 0.583 54.187 0.811 -35.685 0.811 -35.685 0.583 54.187
15549.125 0.584 54.14 0.81 -35.733 0.81 -35.733 0.584 54.14
15574.083 0.585 54.092 0.81 -35.781 0.81 -35.781 0.585 54.092
15599.042 0.585 54.044 0.809 -35.829 0.809 -35.829 0.585 54.044
15624 0.586 53.996 0.809 -35.877 0.809 -35.877 0.586 53.996
15648.958 0.587 53.949 0.808 -35.925 0.808 -35.925 0.587 53.949
15673.917 0.587 53.901 0.808 -35.973 0.808 -35.973 0.587 53.901
15698.875 0.588 53.854 0.808 -36.02 0.808 -36.02 0.588 53.854
15723.833 0.589 53.806 0.807 -36.068 0.807 -36.068 0.589 53.806
15748.792 0.589 53.759 0.807 -36.115 0.807 -36.115 0.589 53.759
15773.75 0.59 53.712 0.806 -36.163 0.806 -36.163 0.59 53.712
15798.708 0.591 53.665 0.806 -36.21 0.806 -36.21 0.591 53.665
15823.667 0.591 53.618 0.805 -36.258 0.805 -36.258 0.591 53.618
15848.625 0.592 53.571 0.805 -36.305 0.805 -36.305 0.592 53.571
15873.583 0.593 53.524 0.804 -36.352 0.804 -36.352 0.593 53.524
15898.542 0.593 53.477 0.804 -36.399 0.804 -36.399 0.593 53.477
15923.5 0.594 53.43 0.803 -36.446 0.803 -36.446 0.594 53.43
15948.458 0.595 53.383 0.803 -36.493 0.803 -36.493 0.595 53.383
15973.417 0.595 53.336 0.802 -36.54 0.802 -36.54 0.595 53.336
15998.375 0.596 53.289 0.802 -36.587 0.802 -36.587 0.596 53.289
16023.333 0.597 53.243 0.801 -36.634 0.801 -36.634 0.597 53.243
16048.292 0.597 53.196 0.801 -36.681 0.801 -36.681 0.597 53.196
16073.25 0.598 53.15 0.8 -36.727 0.8 -36.727 0.598 53.15
16098.208 0.599 53.103 0.8 -36.774 0.8 -36.774 0.599 53.103
16123.167 0.599 53.057 0.799 -36.821 0.799 -36.821 0.599 53.057
16148.125 0.6 53.011 0.799 -36.867 0.799 -36.867 0.6 53.011
16173.083 0.601 52.964 0.798 -36.914 0.798 -36.914 0.601 52.964
16198.042 0.601 52.918 0.798 -36.96 0.798 -36.96 0.601 52.918
16223 0.602 52.872 0.797 -37.006 0.797 -37.006 0.602 52.872
16247.958 0.603 52.826 0.797 -37.053 0.797 -37.053 0.603 52.826
16272.917 0.603 52.78 0.796 -37.099 0.796 -37.099 0.603 52.78
16297.875 0.604 52.734 0.796 -37.145 0.796 -37.145 0.604 52.734
16322.833 0.604 52.688 0.795 -37.191 0.795 -37.191 0.604 52.688
16347.792 0.605 52.642 0.795 -37.237 0.795 -37.237 0.605 52.642
16372.75 0.606 52.597 0.794 -37.283 0.794 -37.283 0.606 52.597
16397.708 0.606 52.551 0.794 -37.329 0.794 -37.329 0.606 52.551
16422.667 0.607 52.505 0.793 -37.375 0.793 -37.375 0.607 52.505
16447.625 0.608 52.46 0.793 -37.421 0.793 -37.421 0.608 52.46
16472.583 0.608 52.414 0.792 -37.466 0.792 -37.466 0.608 52.414
16497.542 0.609 52.369 0.792 -37.512 0.792 -37.512 0.609 52.369
16522.5 0.61 52.323 0.791 -37.558 0.791 -37.558 0.61 52.323
16547.458 0.61 52.278 0.791 -37.603 0.791 -37.603 0.61 52.278
16572.417 0.611 52.233 0.791 -37.649 0.791 -37.649 0.611 52.233
16597.375 0.611 52.188 0.79 -37.694 0.79 -37.694 0.611 52.188
16622.333 0.612 52.142 0.79 -37.739 0.79 -37.739 0.612 52.142
16647.292 0.613 52.097 0.789 -37.785 0.789 -37.785 0.613 52.097
16672.25 0.613 52.052 0.789 -37.83 0.789 -37.83 0.613 52.052
16697.208 0.614 52.007 0.788 -37.875 0.788 -37.875 0.614 52.007
16722.167 0.615 51.962 0.788 -37.92 0.788 -37.92 0.615 51.962
16747.125 0.615 51.918 0.787 -37.965 0.787 -37.965 0.615 51.918
16772.083 0.616 51.873 0.787 -38.01 0.787 -38.01 0.616 51.873
16797.042 0.616 51.828 0.786 -38.055 0.786 -38.055 0.616 51.828
16822 0.617 51.783 0.786 -38.1 0.786 -38.1 0.617 51.783
16846.958 0.618 51.739 0.785 -38.145 0.785 -38.145 0.618 51.739
16871.917 0.618 51.694 0.785 -38.189 0.785 -38.189 0.618 51.694
16896.875 0.619 51.65 0.784 -38.234 0.784 -38.234 0.619 51.65
16921.833 0.619 51.605 0.784 -38.279 0.784 -38.279 0.619 51.605
16946.792 0.62 51.561 0.783 -38.323 0.783 -38.323 0.62 51.561
16971.75 0.621 51.517 0.783 -38.368 0.783 -38.368 0.621 51.517
16996.708 0.621 51.472 0.782 -38.412 0.782 -38.412 0.621 51.472
17021.667 0.622 51.428 0.782 -38.457 0.782 -38.457 0.622 51.428
17046.625 0.623 51.384 0.781 -38.501 0.781 -38.501 0.623 51.384
17071.583 0.623 51.34 0.781 -38.545 0.781 -38.545 0.623 51.34
17096.542 0.624 51.296 0.78 -38.589 0.78 -38.589 0.624 51.296
17121.5 0.624 51.252 0.78 -38.634 0.78 -38.634 0.624 51.252
17146.458 0.625 51.208 0.779 -38.678 0.779 -38.678 0.625 51.208
17171.417 0.626 51.164 0.779 -38.722 0.779 -38.722 0.626 51.164
17196.375 0.626 51.12 0.778 -38.766 0.778 -38.766 0.626 51.12
17221.333 0.627 51.077 0.778 -38.809 0.778 -38.809 0.627 51.077
17246.292 0.627 51.033 0.778 -38.853 0.778 -38.853 0.627 51.033
17271.25 0.628 50.989 0.777 -38.897 0.777 -38.897 0.628 50.989
17296.208 0.629 50.946 0.777 -38.941 0.777 -38.941 0.629 50.946
17321.167 0.629 50.902 0.776 -38.985 0.776 -38.985 0.629 50.902
17346.125 0.63 50.859 0.776 -39.028 0.776 -39.028 0.63 50.859
17371.083 0.63 50.816 0.775 -39.072 0.775 -39.072 0.63 50.816
17396.042 0.631 50.772 0.775 -39.115 0.775 -39.115 0.631 50.772
17421 0.631 50.729 0.774 -39.159 0.774 -39.159 0.631 50.729
17445.958 0.632 50.686 0.774 -39.202 0.774 -39.202 0.632 50.686
17470.917 0.633 50.643 0.773 -39.245 0.773 -39.245 0.633 50.643
17495.875 0.633 50.599 0.773 -39.289 0.773 -39.289 0.633 50.599
17520.833 0.634 50.556 0.772 -39.332 0.772 -39.332 0.634 50.556
17545.792 0.634 50.513 0.772 -39.375 0.772 -39.375 0.634 50.513
17570.75 0.635 50.471 0.771 -39.418 0.771 -39.418 0.635 50.471
17595.708 0.636 50.428 0.771 -39.461 0.771 -39.461 0.636 50.428
17620.667 0.636 50.385 0.77 -39.504 0.77 -39.504 0.636 50.385
17645.625 0.637 50.342 0.77 -39.547 0.77 -39.547 0.637 50.342
17670.583 0.637 50.299 0.769 -39.59 0.769 -39.59 0.637 50.299
17695.542 0.638 50.257 0.769 -39.633 0.769 -39.633 0.638 50.257
17720.5 0.638 50.214 0.768 -39.675 0.768 -39.675 0.638 50.214
17745.458 0.639 50.172 0.768 -39.718 0.768 -39.718 0.639 50.172
17770.417 0.64 50.129 0.767 -39.761 0.767 -39.761 0.64 50.129
17795.375 0.64 50.087 0.767 -39.803 0.767 -39.803 0.64 50.087
17820.333 0.641 50.044 0.767 -39.846 0.767 -39.846 0.641 50.044
17845.292 0.641 50.002 0.766 -39.888 0.766 -39.888 0.641 50.002
17870.25 0.642 49.96 0.766 -39.931 0.766 -39.931 0.642 49.96
17895.208 0.642 49.918 0.765 -39.973 0.765 -39.973 0.642 49.918
17920.167 0.643 49.876 0.765 -40.015 0.765 -40.015 0.643 49.876
17945.125 0.644 49.834 0.764 -40.058 0.764 -40.058 0.644 49.834
17970.083 0.644 49.792 0.764 -40.1 0.764 -40.1 0.644 49.792
17995.042 0.645 49.75 0.763 -40.142 0.763 -40.142 0.645 49.75
18020 0.645 49.708 0.763 -40.184 0.763 -40.184 0.645 49.708
18044.958 0.646 49.666 0.762 -40.226 0.762 -40.226 0.646 49.666
18069.917 0.646 49.624 0.762 -40.268 0.762 -40.268 0.646 49.624
18094.875 0.647 49.582 0.761 -40.31 0.761 -40.31 0.647 49.582
18119.833 0.647 49.541 0.761 -40.352 0.761 -40.352 0.647 49.541
18144.792 0.648 49.499 0.76 -40.393 0.76 -40.393 0.648 49.499
18169.75 0.649 49.457 0.76 -40.435 0.76 -40.435 0.649 49.457
18194.708 0.649 49.416 0.759 -40.477 0.759 -40.477 0.649 49.416
18219.667 0.65 49.374 0.759 -40.518 0.759 -40.518 0.65 49.374
18244.625 0.65 49.333 0.759 -40.56 0.759 -40.56 0.65 49.333
18269.583 0.651 49.292 0.758 -40.601 0.758 -40.601 0.651 49.292
18294.542 0.651 49.25 0.758 -40.643 0.758 -40.643 0.651 49.25
18319.5 0.652 49.209 0.757 -40.684 0.757 -40.684 0.652 49.209
18344.458 0.652 49.168 0.757 -40.726 0.757 -40.726 0.652 49.168
18369.417 0.653 49.127 0.756 -40.767 0.756 -40.767 0.653 49.127
18394.375 0.654 49.086 0.756 -40.808 0.756 -40.808 0.654 49.086
18419.333 0.654 49.045 0.755 -40.849 0.755 -40.849 0.654 49.045
18444.292 0.655 49.004 0.755 -40.89 0.755 -40.89 0.655 49.004
18469.25 0.655 48.963 0.754 -40.932 0.754 -40.932 0.655 48.963
18494.208 0.656 48.922 0.754 -40.973 0.754 -40.973 0.656 48.922
18519.167 0.656 48.881 0.753 -41.013 0.753 -41.013 0.656 48.881
18544.125 0.657 48.84 0.753 -41.054 0.753 -41.054 0.657 48.84
18569.083 0.657 48.8 0.752 -41.095 0.752 -41.095 0.657 48.8
18594.042 0.658 48.759 0.752 -41.136 0.752 -41.136 0.658 48.759
18619 0.658 48.719 0.751 -41.177 0.751 -41.177 0.658 48.719
18643.958 0.659 48.678 0.751 -41.217 0.751 -41.217 0.659 48.678
18668.917 0.659 48.638 0.751 -41.258 0.751 -41.258 0.659 48.638
18693.875 0.66 48.597 0.75 -41.299 0.75 -41.299 0.66 48.597
18718.833 0.661 48.557 0.75 -41.339 0.75 -41.339 0.661 48.557
18743.792 0.661 48.516 0.749 -41.38 0.749 -41.38 0.661 48.516
18768.75 0.662 48.476 0.749 -41.42 0.749 -41.42 0.662 48.476
18793.708 0.662 48.436 0.748 -41.46 0.748 -41.46 0.662 48.436
18818.667 0.663 48.396 0.748 -41.501 0.748 -41.501 0.663 48.396
18843.625 0.663 48.356 0.747 -41.541 0.747 -41.541 0.663 48.356
18868.583 0.664 48.316 0.747 -41.581 0.747 -41.581 0.664 48.316
18893.542 0.664 48.276 0.746 -41.621 0.746 -41.621 0.664 48.276
18918.5 0.665 48.236 0.746 -41.661 0.746 -41.661 0.665 48.236
18943.458 0.665 48.196 0.745 -41.701 0.745 -41.701 0.665 48.196
18968.417 0.666 48.156 0.745 -41.741 0.745 -41.741 0.666 48.156
18993.375 0.666 48.116 0.745 -41.781 0.745 -41.781 0.666 48.116
19018.333 0.667 48.076 0.744 -41.821 0.744 -41.821 0.667 48.076
19043.292 0.667 48.037 0.744 -41.861 0.744 -41.861 0.667 48.037
19068.25 0.668 47.997 0.743 -41.901 0.743 -41.901 0.668 47.997
19093.208 0.668 47.957 0.743 -41.941 0.743 -41.941 0.668 47.957
19118.167 0.669 47.918 0.742 -41.98 0.742 -41.98 0.669 47.918
19143.125 0.669 47.878 0.742 -42.02 0.742 -42.02 0.669 47.878
19168.083 0.67 47.839 0.741 -42.059 0.741 -42.059 0.67 47.839
19193.042 0.67 47.8 0.741 -42.099 0.741 -42.099 0.67 47.8
19218 0.671 47.76 0.74 -42.138 0.74 -42.138 0.671 47.76
19242.958 0.671 47.721 0.74 -42.178 0.74 -42.178 0.671 47.721
19267.917 0.672 47.682 0.739 -42.217 0.739 -42.217 0.672 47.682
19292.875 0.672 47.643 0.739 -42.257 0.739 -42.257 0.672 47.643
19317.833 0.673 47.604 0.738 -42.296 0.738 -42.296 0.673 47.604
19342.792 0.673 47.565 0.738 -42.335 0.738 -42.335 0.673 47.565
19367.75 0.674 47.525 0.738 -42.374 0.738 -42.374 0.674 47.525
19392.708 0.674 47.487 0.737 -42.413 0.737 -42.413 0.674 47.487
19417.667 0.675 47.448 0.737 -42.452 0.737 -42.452 0.675 47.448
19442.625 0.675 47.409 0.736 -42.491 0.736 -42.491 0.675 47.409
19467.583 0.676 47.37 0.736 -42.53 0.736 -42.53 0.676 47.37
19492.542 0.676 47.331 0.735 -42.569 0.735 -42.569 0.676 47.331
19517.5 0.677 47.292 0.735 -42.608 0.735 -42.608 0.677 47.292
19542.458 0.677 47.254 0.734 -42.647 0.734 -42.647 0.677 47.254
19567.417 0.678 47.215 0.734 -42.685 0.734 -42.685 0.678 47.215
19592.375 0.678 47.177 0.733 -42.724 0.733 -42.724 0.678 47.177
19617.333 0.679 47.138 0.733 -42.763 0.733 -42.763 0.679 47.138
19642.292 0.679 47.1 0.733 -42.801 0.733 -42.801 0.679 47.1
19667.25 0.68 47.061 0.732 -42.84 0.732 -42.84 0.68 47.061
19692.208 0.68 47.023 0.732 -42.878 0.732 -42.878 0.68 47.023
19717.167 0.681 46.985 0.731 -42.917 0.731 -42.917 0.681 46.985
19742.125 0.681 46.946 0.731 -42.955 0.731 -42.955 0.681 46.946
19767.083 0.682 46.908 0.73 -42.994 0.73 -42.994 0.682 46.908
19792.042 0.682 46.87 0.73 -43.032 0.73 -43.032 0.682 46.87
19817 0.683 46.832 0.729 -43.07 0.729 -43.07 0.683 46.832
19841.958 0.683 46.794 0.729 -43.108 0.729 -43.108 0.683 46.794
19866.917 0.684 46.756 0.728 -43.146 0.728 -43.146 0.684 46.756
19891.875 0.684 46.718 0.728 -43.184 0.728 -43.184 0.684 46.718
19916.833 0.685 46.68 0.728 -43.222 0.728 -43.222 0.685 46.68
19941.792 0.685 46.642 0.727 -43.26 0.727 -43.26 0.685 46.642
19966.75 0.686 46.604 0.727 -43.298 0.727 -43.298 0.686 46.604
19991.708 0.686 46.567 0.726 -43.336 0.726 -43.336 0.686 46.567
20016.667 0.687 46.529 0.726 -43.374 0.726 -43.374 0.687 46.529
20041.625 0.687 46.491 0.725 -43.412 0.725 -43.412 0.687 46.491
20066.583 0.688 46.454 0.725 -43.45 0.725 -43.45 0.688 46.454
20091.542 0.688 46.416 0.724 -43.487 0.724 -43.487 0.688 46.416
20116.5 0.689 46.379 0.724 -43.525 0.724 -43.525 0.689 46.379
20141.458 0.689 46.341 0.723 -43.562 0.723 -43.562 0.689 46.341
20166.417 0.69 46.304 0.723 -43.6 0.723 -43.6 0.69 46.304
20191.375 0.69 46.266 0.723 -43.637 0.723 -43.637 0.69 46.266
20216.333 0.691 46.229 0.722 -43.675 0.722 -43.675 0.691 46.229
20241.292 0.691 46.192 0.722 -43.712 0.722 -43.712 0.691 46.192
20266.25 0.692 46.155 0.721 -43.75 0.721 -43.75 0.692 46.155
20291.208 0.692 46.118 0.721 -43.787 0.721 -43.787 0.692 46.118
20316.167 0.692 46.08 0.72 -43.824 0.72 -43.824 0.692 46.08
20341.125 0.693 46.043 0.72 -43.861 0.72 -43.861 0.693 46.043
20366.083 0.693 46.006 0.719 -43.898 0.719 -43.898 0.693 46.006
20391.042 0.694 45.969 0.719 -43.936 0.719 -43.936 0.694 45.969
20416 0.694 45.932 0.719 -43.973 0.719 -43.973 0.694 45.932
20440.958 0.695 45.896 0.718 -44.01 0.718 -44.01 0.695 45.896
20465.917 0.695 45.859 0.718 -44.047 0.718 -44.047 0.695 45.859
20490.875 0.696 45.822 0.717 -44.083 0.717 -44.083 0.696 45.822
20515.833 0.696 45.785 0.717 -44.12 0.717 -44.12 0.696 45.785
20540.792 0.697 45.749 0.716 -44.157 0.716 -44.157 0.697 45.749
20565.75 0.697 45.712 0.716 -44.194 0.716 -44.194 0.697 45.712
20590.708 0.698 45.675 0.715 -44.231 0.715 -44.231 0.698 45.675
20615.667 0.698 45.639 0.715 -44.267 0.715 -44.267 0.698 45.639
20640.625 0.698 45.602 0.715 -44.304 0.715 -44.304 0.698 45.602
20665.583 0.699 45.566 0.714 -44.34 0.714 -44.34 0.699 45.566
20690.542 0.699 45.53 0.714 -44.377 0.714 -44.377 0.699 45.53
20715.5 0.7 45.493 0.713 -44.413 0.713 -44.413 0.7 45.493
20740.458 0.7 45.457 0.713 -44.45 0.713 -44.45 0.7 45.457
20765.417 0.701 45.421 0.712 -44.486 0.712 -44.486 0.701 45.421
20790.375 0.701 45.384 0.712 -44.522 0.712 -44.522 0.701 45.384
20815.333 0.702 45.348 0.711 -44.559 0.711 -44.559 0.702 45.348
20840.292 0.702 45.312 0.711 -44.595 0.711 -44.595 0.702 45.312
20865.25 0.703 45.276 0.711 -44.631 0.711 -44.631 0.703 45.276
20890.208 0.703 45.24 0.71 -44.667 0.71 -44.667 0.703 45.24
20915.167 0.703 45.204 0.71 -44.703 0.71 -44.703 0.703 45.204
20940.125 0.704 45.168 0.709 -44.739 0.709 -44.739 0.704 45.168
20965.083 0.704 45.132 0.709 -44.775 0.709 -44.775 0.704 45.132
20990.042 0.705 45.097 0.708 -44.811 0.708 -44.811 0.705 45.097
21015 0.705 45.061 0.708 -44.847 0.708 -44.847 0.705 45.061
21039.958 0.706 45.025 0.707 -44.883 0.707 -44.883 0.706 45.025
21064.917 0.706 44.989 0.707 -44.919 0.707 -44.919 0.706 44.989
21089.875 0.707 44.954 0.707 -44.955 0.707 -44.955 0.707 44.954
21114.833 0.707 44.918 0.706 -44.99 0.706 -44.99 0.707 44.918
21139.792 0.707 44.883 0.706 -45.026 0.706 -45.026 0.707 44.883
21164.75 0.708 44.847 0.705 -45.062 0.705 -45.062 0.708 44.847
21189.708 0.708 44.812 0.705 -45.097 0.705 -45.097 0.708 44.812
21214.667 0.709 44.776 0.704 -45.133 0.704 -45.133 0.709 44.776
21239.625 0.709 44.741 0.704 -45.168 0.704 -45.168 0.709 44.741
21264.583 0.71 44.706 0.703 -45.204 0.703 -45.204 0.71 44.706
21289.542 0.71 44.67 0.703 -45.239 0.703 -45.239 0.71 44.67
21314.5 0.71 44.635 0.703 -45.274 0.703 -45.274 0.71 44.635
21339.458 0.711 44.6 0.702 -45.31 0.702 -45.31 0.711 44.6
21364.417 0.711 44.565 0.702 -45.345 0.702 -45.345 0.711 44.565
21389.375 0.712 44.53 0.701 -45.38 0.701 -45.38 0.712 44.53
21414.333 0.712 44.495 0.701 -45.415 0.701 -45.415 0.712 44.495
21439.292 0.713 44.46 0.7 -45.45 0.7 -45.45 0.713 44.46
21464.25 0.713 44.425 0.7 -45.485 0.7 -45.485 0.713 44.425
21489.208 0.713 44.39 0.7 -45.52 0.7 -45.52 0.713 44.39
21514.167 0.714 44.355 0.699 -45.555 0.699 -45.555 0.714 44.355
21539.125 0.714 44.32 0.699 -45.59 0.699 -45.59 0.714 44.32
21564.083 0.715 44.285 0.698 -45.625 0.698 -45.625 0.715 44.285
21589.042 0.715 44.251 0.698 -45.66 0.698 -45.66 0.715 44.251
21614 0.716 44.216 0.697 -45.695 0.697 -45.695 0.716 44.216
21638.958 0.716 44.181 0.697 -45.729 0.697 -45.729 0.716 44.181
21663.917 0.716 44.147 0.696 -45.764 0.696 -45.764 0.716 44.147
21688.875 0.717 44.112 0.696 -45.799 0.696 -45.799 0.717 44.112
21713.833 0.717 44.078 0.696 -45.833 0.696 -45.833 0.717 44.078
21738.792 0.718 44.043 0.695 -45.868 0.695 -45.868 0.718 44.043
21763.75 0.718 44.009 0.695 -45.902 0.695 -45.902 0.718 44.009
21788.708 0.719 43.974 0.694 -45.937 0.694 -45.937 0.719 43.974
21813.667 0.719 43.94 0.694 -45.971 0.694 -45.971 0.719 43.94
21838.625 0.719 43.906 0.693 -46.006 0.693 -46.006 0.719 43.906
21863.583 0.72 43.872 0.693 -46.04 0.693 -46.04 0.72 43.872
21888.542 0.72 43.837 0.693 -46.074 0.693 -46.074 0.72 43.837
21913.5 0.721 43.803 0.692 -46.109 0.692 -46.109 0.721 43.803
21938.458 0.721 43.769 0.692 -46.143 0.692 -46.143 0.721 43.769
21963.417 0.721 43.735 0.691 -46.177 0.691 -46.177 0.721 43.735
21988.375 0.722 43.701 0.691 -46.211 0.691 -46.211 0.722 43.701
22013.333 0.722 43.667 0.69 -46.245 0.69 -46.245 0.722 43.667
22038.292 0.723 43.633 0.69 -46.279 0.69 -46.279 0.723 43.633
22063.25 0.723 43.599 0.69 -46.313 0.69 -46.313 0.723 43.599
22088.208 0.724 43.565 0.689 -46.347 0.689 -46.347 0.724 43.565
22113.167 0.724 43.532 0.689 -46.381 0.689 -46.381 0.724 43.532
22138.125 0.724 43.498 0.688 -46.415 0.688 -46.415 0.724 43.498
22163.083 0.725 43.464 0.688 -46.449 0.688 -46.449 0.725 43.464
22188.042 0.725 43.431 0.687 -46.482 0.687 -46.482 0.725 43.431
22213 0.726 43.397 0.687 -46.516 0.687 -46.516 0.726 43.397
22237.958 0.726 43.363 0.687 -46.55 0.687 -46.55 0.726 43.363
22262.917 0.726 43.33 0.686 -46.584 0.686 -46.584 0.726 43.33
22287.875 0.727 43.296 0.686 -46.617 0.686 -46.617 0.727 43.296
22312.833 0.727 43.263 0.685 -46.651 0.685 -46.651 0.727 43.263
22337.792 0.728 43.229 0.685 -46.684 0.685 -46.684 0.728 43.229
22362.75 0.728 43.196 0.684 -46.718 0.684 -46.718 0.728 43.196
22387.708 0.728 43.163 0.684 -46.751 0.684 -46.751 0.728 43.163
22412.667 0.729 43.13 0.684 -46.784 0.684 -46.784 0.729 43.13
22437.625 0.729 43.096 0.683 -46.818 0.683 -46.818 0.729 43.096
22462.583 0.73 43.063 0.683 -46.851 0.683 -46.851 0.73 43.063
22487.542 0.73 43.03 0.682 -46.884 0.682 -46.884 0.73 43.03
22512.5 0.73 42.997 0.682 -46.918 0.682 -46.918 0.73 42.997
22537.458 0.731 42.964 0.682 -46.951 0.682 -46.951 0.731 42.964
22562.417 0.731 42.931 0.681 -46.984 0.681 -46.984 0.731 42.931
22587.375 0.732 42.898 0.681 -47.017 0.681 -47.017 0.732 42.898
22612.333 0.732 42.865 0.68 -47.05 0.68 -47.05 0.732 42.865
22637.292 0.732 42.832 0.68 -47.083 0.68 -47.083 0.732 42.832
22662.25 0.733 42.799 0.679 -47.116 0.679 -47.116 0.733 42.799
22687.208 0.733 42.766 0.679 -47.149 0.679 -47.149 0.733 42.766
22712.167 0.734 42.734 0.679 -47.182 0.679 -47.182 0.734 42.734
22737.125 0.734 42.701 0.678 -47.214 0.678 -47.214 0.734 42.701
22762.083 0.734 42.668 0.678 -47.247 0.678 -47.247 0.734 42.668
22787.042 0.735 42.635 0.677 -47.28 0.677 -47.28 0.735 42.635
22812 0.735 42.603 0.677 -47.313 0.677 -47.313 0.735 42.603
22836.958 0.735 42.57 0.676 -47.345 0.676 -47.345 0.735 42.57
22861.917 0.736 42.538 0.676 -47.378 0.676 -47.378 0.736 42.538
22886.875 0.736 42.505 0.676 -47.41 0.676 -47.41 0.736 42.505
22911.833 0.737 42.473 0.675 -47.443 0.675 -47.443 0.737 42.473
22936.792 0.737 42.44 0.675 -47.476 0.675 -47.476 0.737 42.44
22961.75 0.737 42.408 0.674 -47.508 0.674 -47.508 0.737 42.408
22986.708 0.738 42.376 0.674 -47.54 0.674 -47.54 0.738 42.376
23011.667 0.738 42.344 0.674 -47.573 0.674 -47.573 0.738 42.344
23036.625 0.739 42.311 0.673 -47.605 0.673 -47.605 0.739 42.311
23061.583 0.739 42.279 0.673 -47.637 0.673 -47.637 0.739 42.279
23086.542 0.739 42.247 0.672 -47.67 0.672 -47.67 0.739 42.247
23111.5 0.74 42.215 0.672 -47.702 0.672 -47.702 0.74 42.215
23136.458 0.74 42.183 0.671 -47.734 0.671 -47.734 0.74 42.183
23161.417 0.74 42.151 0.671 -47.766 0.671 -47.766 0.74 42.151
23186.375 0.741 42.119 0.671 -47.798 0.671 -47.798 0.741 42.119
23211.333 0.741 42.087 0.67 -47.83 0.67 -47.83 0.741 42.087
23236.292 0.742 42.055 0.67 -47.862 0.67 -47.862 0.742 42.055
23261.25 0.742 42.023 0.669 -47.894 0.669 -47.894 0.742 42.023
23286.208 0.742 41.991 0.669 -47.926 0.669 -47.926 0.742 41.991
23311.167 0.743 41.96 0.669 -47.958 0.669 -47.958 0.743 41.96
23336.125 0.743 41.928 0.668 -47.99 0.668 -47.99 0.743 41.928
23361.083 0.743 41.896 0.668 -48.021 0.668 -48.021 0.743 41.896
23386.042 0.744 41.864 0.667 -48.053 0.667 -48.053 0.744 41.864
23411 0.744 41.833 0.667 -48.085 0.667 -48.085 0.744 41.833
23435.958 0.745 41.801 0.667 -48.117 0.667 -48.117 0.745 41.801
23460.917 0.745 41.77 0.666 -48.148 0.666 -48.148 0.745 41.77
23485.875 0.745 41.738 0.666 -48.18 0.666 -48.18 0.745 41.738
23510.833 0.746 41.707 0.665 -48.211 0.665 -48.211 0.746 41.707
23535.792 0.746 41.675 0.665 -48.243 0.665 -48.243 0.746 41.675
23560.75 0.746 41.644 0.665 -48.274 0.665 -48.274 0.746 41.644
23585.708 0.747 41.613 0.664 -48.306 0.664 -48.306 0.747 41.613
23610.667 0.747 41.581 0.664 -48.337 0.664 -48.337 0.747 41.581
23635.625 0.747 41.55 0.663 -48.368 0.663 -48.368 0.747 41.55
23660.583 0.748 41.519 0.663 -48.4 0.663 -48.4 0.748 41.519
23685.542 0.748 41.488 0.662 -48.431 0.662 -48.431 0.748 41.488
23710.5 0.749 41.457 0.662 -48.462 0.662 -48.462 0.749 41.457
23735.458 0.749 41.426 0.662 -48.493 0.662 -48.493 0.749 41.426
23760.417 0.749 41.394 0.661 -48.525 0.661 -48.525 0.749 41.394
23785.375 0.75 41.363 0.661 -48.556 0.661 -48.556 0.75 41.363
23810.333 0.75 41.332 0.66 -48.587 0.66 -48.587 0.75 41.332
23835.292 0.75 41.302 0.66 -48.618 0.66 -48.618 0.75 41.302
23860.25 0.751 41.271 0.66 -48.649 0.66 -48.649 0.751 41.271
23885.208 0.751 41.24 0.659 -48.68 0.659 -48.68 0.751 41.24
23910.167 0.751 41.209 0.659 -48.711 0.659 -48.711 0.751 41.209
23935.125 0.752 41.178 0.658 -48.741 0.658 -48.741 0.752 41.178
23960.083 0.752 41.147 0.658 -48.772 0.658 -48.772 0.752 41.147
23985.042 0.752 41.117 0.658 -48.803 0.658 -48.803 0.752 41.117
24010 0.753 41.086 0.657 -48.834 0.657 -48.834 0.753 41.086
24034.958 0.753 41.055 0.657 -48.865 0.657 -48.865 0.753 41.055
24059.917 0.754 41.025 0.656 -48.895 0.656 -48.895 0.754 41.025
24084.875 0.754 40.994 0.656 -48.926 0.656 -48.926 0.754 40.994
24109.833 0.754 40.964 0.656 -48.956 0.656 -48.956 0.754 40.964
24134.792 0.755 40.933 0.655 -48.987 0.655 -48.987 0.755 40.933
24159.75 0.755 40.903 0.655 -49.018 0.655 -49.018 0.755 40.903
24184.708 0.755 40.872 0.654 -49.048 0.654 -49.048 0.755 40.872
24209.667 0.756 40.842 0.654 -49.078 0.654 -49.078 0.756 40.842
24234.625 0.756 40.812 0.654 -49.109 0.654 -49.109 0.756 40.812
24259.583 0.756 40.782 0.653 -49.139 0.653 -49.139 0.756 40.782
24284.542 0.757 40.751 0.653 -49.17 0.653 -49.17 0.757 40.751
24309.5 0.757 40.721 0.652 -49.2 0.652 -49.2 0.757 40.721
24334.458 0.757 40.691 0.652 -49.23 0.652 -49.23 0.757 40.691
24359.417 0.758 40.661 0.652 -49.26 0.652 -49.26 0.758 40.661
24384.375 0.758 40.631 0.651 -49.291 0.651 -49.291 0.758 40.631
24409.333 0.758 40.601 0.651 -49.321 0.651 -49.321 0.758 40.601
24434.292 0.759 40.571 0.65 -49.351 0.65 -49.351 0.759 40.571
24459.25 0.759 40.541 0.65 -49.381 0.65 -49.381 0.759 40.541
24484.208 0.759 40.511 0.65 -49.411 0.65 -49.411 0.759 40.511
24509.167 0.76 40.481 0.649 -49.441 0.649 -49.441 0.76 40.481
24534.125 0.76 40.451 0.649 -49.471 0.649 -49.471 0.76 40.451
24559.083 0.76 40.421 0.648 -49.501 0.648 -49.501 0.76 40.421
24584.042 0.761 40.391 0.648 -49.531 0.648 -49.531 0.761 40.391
24609 0.761 40.362 0.648 -49.56 0.648 -49.56 0.761 40.362
24633.958 0.761 40.332 0.647 -49.59 0.647 -49.59 0.761 40.332
24658.917 0.762 40.302 0.647 -49.62 0.647 -49.62 0.762 40.302
24683.875 0.762 40.273 0.646 -49.65 0.646 -49.65 0.762 40.273
24708.833 0.762 40.243 0.646 -49.679 0.646 -49.679 0.762 40.243
24733.792 0.763 40.213 0.646 -49.709 0.646 -49.709 0.763 40.213
24758.75 0.763 40.184 0.645 -49.739 0.645 -49.739 0.763 40.184
24783.708 0.763 40.154 0.645 -49.768 0.645 -49.768 0.763 40.154
24808.667 0.764 40.125 0.644 -49.798 0.644 -49.798 0.764 40.125
24833.625 0.764 40.095 0.644 -49.827 0.644 -49.827 0.764 40.095
24858.583 0.764 40.066 0.644 -49.857 0.644 -49.857 0.764 40.066
24883.542 0.765 40.037 0.643 -49.886 0.643 -49.886 0.765 40.037
24908.5 0.765 40.007 0.643 -49.915 0.643 -49.915 0.765 40.007
24933.458 0.765 39.978 0.642 -49.945 0.642 -49.945 0.765 39.978
24958.417 0.766 39.949 0.642 -49.974 0.642 -49.974 0.766 39.949
24983.375 0.766 39.92 0.642 -50.003 0.642 -50.003 0.766 39.92
25008.333 0.766 39.891 0.641 -50.033 0.641 -50.033 0.766 39.891
25033.292 0.767 39.861 0.641 -50.062 0.641 -50.062 0.767 39.861
25058.25 0.767 39.832 0.641 -50.091 0.641 -50.091 0.767 39.832
25083.208 0.767 39.803 0.64 -50.12 0.64 -50.12 0.767 39.803
25108.167 0.768 39.774 0.64 -50.149 0.64 -50.149 0.768 39.774
25133.125 0.768 39.745 0.639 -50.178 0.639 -50.178 0.768 39.745
25158.083 0.768 39.716 0.639 -50.207 0.639 -50.207 0.768 39.716
25183.042 0.769 39.687 0.639 -50.236 0.639 -50.236 0.769 39.687
25208 0.769 39.659 0.638 -50.265 0.638 -50.265 0.769 39.659
25232.958 0.769 39.63 0.638 -50.294 0.638 -50.294 0.769 39.63
25257.917 0.77 39.601 0.637 -50.323 0.637 -50.323 0.77 39.601
25282.875 0.77 39.572 0.637 -50.352 0.637 -50.352 0.77 39.572
25307.833 0.77 39.543 0.637 -50.381 0.637 -50.381 0.77 39.543
25332.792 0.771 39.515 0.636 -50.409 0.636 -50.409 0.771 39.515
25357.75 0.771 39.486 0.636 -50.438 0.636 -50.438 0.771 39.486
25382.708 0.771 39.458 0.636 -50.467 0.636 -50.467 0.771 39.458
25407.667 0.772 39.429 0.635 -50.496 0.635 -50.496 0.772 39.429
25432.625 0.772 39.4 0.635 -50.524 0.635 -50.524 0.772 39.4
25457.583 0.772 39.372 0.634 -50.553 0.634 -50.553 0.772 39.372
25482.542 0.773 39.343 0.634 -50.581 0.634 -50.581 0.773 39.343
25507.5 0.773 39.315 0.634 -50.61 0.634 -50.61 0.773 39.315
25532.458 0.773 39.287 0.633 -50.638 0.633 -50.638 0.773 39.287
25557.417 0.773 39.258 0.633 -50.667 0.633 -50.667 0.773 39.258
25582.375 0.774 39.23 0.632 -50.695 0.632 -50.695 0.774 39.23
25607.333 0.774 39.202 0.632 -50.724 0.632 -50.724 0.774 39.202
25632.292 0.774 39.173 0.632 -50.752 0.632 -50.752 0.774 39.173
25657.25 0.775 39.145 0.631 -50.78 0.631 -50.78 0.775 39.145
25682.208 0.775 39.117 0.631 -50.808 0.631 -50.808 0.775 39.117
25707.167 0.775 39.089 0.631 -50.837 0.631 -50.837 0.775 39.089
25732.125 0.776 39.061 0.63 -50.865 0.63 -50.865 0.776 39.061
25757.083 0.776 39.032 0.63 -50.893 0.63 -50.893 0.776 39.032
25782.042 0.776 39.004 0.629 -50.921 0.629 -50.921 0.776 39.004
25807 0.777 38.976 0.629 -50.949 0.629 -50.949 0.777 38.976
25831.958 0.777 38.948 0.629 -50.977 0.629 -50.977 0.777 38.948
25856.917 0.777 38.92 0.628 -51.005 0.628 -51.005 0.777 38.92
25881.875 0.778 38.893 0.628 -51.033 0.628 -51.033 0.778 38.893
25906.833 0.778 38.865 0.627 -51.061 0.627 -51.061 0.778 38.865
25931.792 0.778 38.837 0.627 -51.089 0.627 -51.089 0.778 38.837
25956.75 0.778 38.809 0.627 -51.117 0.627 -51.117 0.778 38.809
25981.708 0.779 38.781 0.626 -51.145 0.626 -51.145 0.779 38.781
26006.667 0.779 38.753 0.626 -51.173 0.626 -51.173 0.779 38.753
26031.625 0.779 38.726 0.626 -51.201 0.626 -51.201 0.779 38.726
26056.583 0.78 38.698 0.625 -51.228 0.625 -51.228 0.78 38.698
26081.542 0.78 38.67 0.625 -51.256 0.625 -51.256 0.78 38.67
26106.5 0.78 38.643 0.624 -51.284 0.624 -51.284 0.78 38.643
26131.458 0.781 38.615 0.624 -51.311 0.624 -51.311 0.781 38.615
26156.417 0.781 38.588 0.624 -51.339 0.624 -51.339 0.781 38.588
26181.375 0.781 38.56 0.623 -51.367 0.623 -51.367 0.781 38.56
26206.333 0.781 38.533 0.623 -51.394 0.623 -51.394 0.781 38.533
26231.292 0.782 38.505 0.623 -51.422 0.623 -51.422 0.782 38.505
26256.25 0.782 38.478 0.622 -51.449 0.622 -51.449 0.782 38.478
26281.208 0.782 38.451 0.622 -51.477 0.622 -51.477 0.782 38.451
26306.167 0.783 38.423 0.621 -51.504 0.621 -51.504 0.783 38.423
26331.125 0.783 38.396 0.621 -51.531 0.621 -51.531 0.783 38.396
26356.083 0.783 38.369 0.621 -51.559 0.621 -51.559 0.783 38.369
26381.042 0.784 38.341 0.62 -51.586 0.62 -51.586 0.784 38.341
26406 0.784 38.314 0.62 -51.613 0.62 -51.613 0.784 38.314
26430.958 0.784 38.287 0.62 -51.64 0.62 -51.64 0.784 38.287
26455.917 0.784 38.26 0.619 -51.668 0.619 -51.668 0.784 38.26
26480.875 0.785 38.233 0.619 -51.695 0.619 -51.695 0.785 38.233
26505.833 0.785 38.206 0.618 -51.722 0.618 -51.722 0.785 38.206
26530.792 0.785 38.179 0.618 -51.749 0.618 -51.749 0.785 38.179
26555.75 0.786 38.152 0.618 -51.776 0.618 -51.776 0.786 38.152
26580.708 0.786 38.125 0.617 -51.803 0.617 -51.803 0.786 38.125
26605.667 0.786 38.098 0.617 -51.83 0.617 -51.83 0.786 38.098
26630.625 0.786 38.071 0.617 -51.857 0.617 -51.857 0.786 38.071
26655.583 0.787 38.044 0.616 -51.884 0.616 -51.884 0.787 38.044
26680.542 0.787 38.017 0.616 -51.911 0.616 -51.911 0.787 38.017
26705.5 0.787 37.99 0.616 -51.938 0.616 -51.938 0.787 37.99
26730.458 0.788 37.964 0.615 -51.965 0.615 -51.965 0.788 37.964
26755.417 0.788 37.937 0.615 -51.992 0.615 -51.992 0.788 37.937
26780.375 0.788 37.91 0.614 -52.018 0.614 -52.018 0.788 37.91
26805.333 0.788 37.883 0.614 -52.045 0.614 -52.045 0.788 37.883
26830.292 0.789 37.857 0.614 -52.072 0.614 -52.072 0.789 37.857
26855.25 0.789 37.83 0.613 -52.098 0.613 -52.098 0.789 37.83
26880.208 0.789 37.804 0.613 -52.125 0.613 -52.125 0.789 37.804
26905.167 0.79 37.777 0.613 -52.152 0.613 -52.152 0.79 37.777
26930.125 0.79 37.751 0.612 -52.178 0.612 -52.178 0.79 37.751
26955.083 0.79 37.724 0.612 -52.205 0.612 -52.205 0.79 37.724
26980.042 0.79 37.698 0.611 -52.231 0.611 -52.231 0.79 37.698
27005 0.791 37.671 0.611 -52.258 0.611 -52.258 0.791 37.671
27029.958 0.791 37.645 0.611 -52.284 0.611 -52.284 0.791 37.645
27054.917 0.791 37.619 0.61 -52.311 0.61 -52.311 0.791 37.619
27079.875 0.792 37.592 0.61 -52.337 0.61 -52.337 0.792 37.592
27104.833 0.792 37.566 0.61 -52.363 0.61 -52.363 0.792 37.566
27129.792 0.792 37.54 0.609 -52.39 0.609 -52.39 0.792 37.54
27154.75 0.792 37.513 0.609 -52.416 0.609 -52.416 0.792 37.513
27179.708 0.793 37.487 0.609 -52.442 0.609 -52.442 0.793 37.487
27204.667 0.793 37.461 0.608 -52.469 0.608 -52.469 0.793 37.461
27229.625 0.793 37.435 0.608 -52.495 0.608 -52.495 0.793 37.435
27254.583 0.794 37.409 0.607 -52.521 0.607 -52.521 0.794 37.409
27279.542 0.794 37.383 0.607 -52.547 0.607 -52.547 0.794 37.383
27304.5 0.794 37.357 0.607 -52.573 0.607 -52.573 0.794 37.357
27329.458 0.794 37.331 0.606 -52.599 0.606 -52.599 0.794 37.331
27354.417 0.795 37.305 0.606 -52.625 0.606 -52.625 0.795 37.305
27379.375 0.795 37.279 0.606 -52.651 0.606 -52.651 0.795 37.279
27404.333 0.795 37.253 0.605 -52.677 0.605 -52.677 0.795 37.253
27429.292 0.796 37.227 0.605 -52.703 0.605 -52.703 0.796 37.227
27454.25 0.796 37.201 0.605 -52.729 0.605 -52.729 0.796 37.201
27479.208 0.796 37.175 0.604 -52.755 0.604 -52.755 0.796 37.175
27504.167 0.796 37.15 0.604 -52.781 0.604 -52.781 0.796 37.15
27529.125 0.797 37.124 0.604 -52.807 0.604 -52.807 0.797 37.124
27554.083 0.797 37.098 0.603 -52.832 0.603 -52.832 0.797 37.098
27579.042 0.797 37.073 0.603 -52.858 0.603 -52.858 0.797 37.073
27604 0.797 37.047 0.602 -52.884 0.602 -52.884 0.797 37.047
27628.958 0.798 37.021 0.602 -52.909 0.602 -52.909 0.798 37.021
27653.917 0.798 36.996 0.602 -52.935 0.602 -52.935 0.798 36.996
27678.875 0.798 36.97 0.601 -52.961 0.601 -52.961 0.798 36.97
27703.833 0.798 36.945 0.601 -52.986 0.601 -52.986 0.798 36.945
27728.792 0.799 36.919 0.601 -53.012 0.601 -53.012 0.799 36.919
27753.75 0.799 36.894 0.6 -53.037 0.6 -53.037 0.799 36.894
27778.708 0.799 36.868 0.6 -53.063 0.6 -53.063 0.799 36.868
27803.667 0.8 36.843 0.6 -53.088 0.6 -53.088 0.8 36.843
27828.625 0.8 36.817 0.599 -53.114 0.599 -53.114 0.8 36.817
27853.583 0.8 36.792 0.599 -53.139 0.599 -53.139 0.8 36.792
27878.542 0.8 36.767 0.599 -53.165 0.599 -53.165 0.8 36.767
27903.5 0.801 36.741 0.598 -53.19 0.598 -53.19 0.801 36.741
27928.458 0.801 36.716 0.598 -53.215 0.598 -53.215 0.801 36.716
27953.417 0.801 36.691 0.597 -53.241 0.597 -53.241 0.801 36.691
27978.375 0.801 36.666 0.597 -53.266 0.597 -53.266 0.801 36.666
28003.333 0.802 36.641 0.597 -53.291 0.597 -53.291 0.802 36.641
28028.292 0.802 36.615 0.596 -53.316 0.596 -53.316 0.802 36.615
28053.25 0.802 36.59 0.596 -53.341 0.596 -53.341 0.802 36.59
28078.208 0.802 36.565 0.596 -53.367 0.596 -53.367 0.802 36.565
28103.167 0.803 36.54 0.595 -53.392 0.595 -53.392 0.803 36.54
28128.125 0.803 36.515 0.595 -53.417 0.595 -53.417 0.803 36.515
28153.083 0.803 36.49 0.595 -53.442 0.595 -53.442 0.803 36.49
28178.042 0.804 36.465 0.594 -53.467 0.594 -53.467 0.804 36.465
28203 0.804 36.44 0.594 -53.492 0.594 -53.492 0.804 36.44
28227.958 0.804 36.415 0.594 -53.517 0.594 -53.517 0.804 36.415
28252.917 0.804 36.391 0.593 -53.542 0.593 -53.542 0.804 36.391
28277.875 0.805 36.366 0.593 -53.567 0.593 -53.567 0.805 36.366
28302.833 0.805 36.341 0.593 -53.591 0.593 -53.591 0.805 36.341
28327.792 0.805 36.316 0.592 -53.616 0.592 -53.616 0.805 36.316
28352.75 0.805 36.291 0.592 -53.641 0.592 -53.641 0.805 36.291
28377.708 0.806 36.267 0.592 -53.666 0.592 -53.666 0.806 36.267
28402.667 0.806 36.242 0.591 -53.691 0.591 -53.691 0.806 36.242
28427.625 0.806 36.217 0.591 -53.715 0.591 -53.715 0.806 36.217
28452.583 0.806 36.193 0.591 -53.74 0.591 -53.74 0.806 36.193
28477.542 0.807 36.168 0.59 -53.765 0.59 -53.765 0.807 36.168
28502.5 0.807 36.144 0.59 -53.789 0.59 -53.789 0.807 36.144
28527.458 0.807 36.119 0.589 -53.814 0.589 -53.814 0.807 36.119
28552.417 0.807 36.095 0.589 -53.838 0.589 -53.838 0.807 36.095
28577.375 0.808 36.07 0.589 -53.863 0.589 -53.863 0.808 36.07
28602.333 0.808 36.046 0.588 -53.887 0.588 -53.887 0.808 36.046
28627.292 0.808 36.021 0.588 -53.912 0.588 -53.912 0.808 36.021
28652.25 0.808 35.997 0.588 -53.936 0.588 -53.936 0.808 35.997
28677.208 0.809 35.973 0.587 -53.961 0.587 -53.961 0.809 35.973
28702.167 0.809 35.948 0.587 -53.985 0.587 -53.985 0.809 35.948
28727.125 0.809 35.924 0.587 -54.01 0.587 -54.01 0.809 35.924
28752.083 0.809 35.9 0.586 -54.034 0.586 -54.034 0.809 35.9
28777.042 0.81 35.875 0.586 -54.058 0.586 -54.058 0.81 35.875
28802 0.81 35.851 0.586 -54.083 0.586 -54.083 0.81 35.851
28826.958 0.81 35.827 0.585 -54.107 0.585 -54.107 0.81 35.827
28851.917 0.81 35.803 0.585 -54.131 0.585 -54.131 0.81 35.803
28876.875 0.811 35.779 0.585 -54.155 0.585 -54.155 0.811 35.779
28901.833 0.811 35.755 0.584 -54.179 0.584 -54.179 0.811 35.755
28926.792 0.811 35.73 0.584 -54.203 0.584 -54.203 0.811 35.73
28951.75 0.811 35.706 0.584 -54.228 0.584 -54.228 0.811 35.706
28976.708 0.812 35.682 0.583 -54.252 0.583 -54.252 0.812 35.682
29001.667 0.812 35.658 0.583 -54.276 0.583 -54.276 0.812 35.658
29026.625 0.812 35.634 0.583 -54.3 0.583 -54.3 0.812 35.634
29051.583 0.812 35.611 0.582 -54.324 0.582 -54.324 0.812 35.611
29076.542 0.813 35.587 0.582 -54.348 0.582 -54.348 0.813 35.587
29101.5 0.813 35.563 0.582 -54.372 0.582 -54.372 0.813 35.563
29126.458 0.813 35.539 0.581 -54.395 0.581 -54.395 0.813 35.539
29151.417 0.813 35.515 0.581 -54.419 0.581 -54.419 0.813 35.515
29176.375 0.814 35.491 0.581 -54.443 0.581 -54.443 0.814 35.491
29201.333 0.814 35.468 0.58 -54.467 0.58 -54.467 0.814 35.468
29226.292 0.814 35.444 0.58 -54.491 0.58 -54.491 0.814 35.444
29251.25 0.814 35.42 0.58 -54.515 0.58 -54.515 0.814 35.42
29276.208 0.815 35.396 0.579 -54.538 0.579 -54.538 0.815 35.396
29301.167 0.815 35.373 0.579 -54.562 0.579 -54.562 0.815 35.373
29326.125 0.815 35.349 0.579 -54.586 0.579 -54.586 0.815 35.349
29351.083 0.815 35.326 0.578 -54.609 0.578 -54.609 0.815 35.326
29376.042 0.815 35.302 0.578 -54.633 0.578 -54.633 0.815 35.302
29401 0.816 35.278 0.578 -54.657 0.578 -54.657 0.816 35.278
29425.958 0.816 35.255 0.577 -54.68 0.577 -54.68 0.816 35.255
29450.917 0.816 35.232 0.577 -54.704 0.577 -54.704 0.816 35.232
29475.875 0.816 35.208 0.577 -54.727 0.577 -54.727 0.816 35.208
29500.833 0.817 35.185 0.576 -54.751 0.576 -54.751 0.817 35.185
29525.792 0.817 35.161 0.576 -54.774 0.576 -54.774 0.817 35.161
29550.75 0.817 35.138 0.576 -54.798 0.576 -54.798 0.817 35.138
29575.708 0.817 35.115 0.575 -54.821 0.575 -54.821 0.817 35.115
29600.667 0.818 35.091 0.575 -54.844 0.575 -54.844 0.818 35.091
29625.625 0.818 35.068 0.575 -54.868 0.575 -54.868 0.818 35.068
29650.583 0.818 35.045 0.574 -54.891 0.574 -54.891 0.818 35.045
29675.542 0.818 35.021 0.574 -54.914 0.574 -54.914 0.818 35.021
29700.5 0.819 34.998 0.574 -54.937 0.574 -54.937 0.819 34.998
29725.458 0.819 34.975 0.573 -54.961 0.573 -54.961 0.819 34.975
29750.417 0.819 34.952 0.573 -54.984 0.573 -54.984 0.819 34.952
29775.375 0.819 34.929 0.573 -55.007 0.573 -55.007 0.819 34.929
29800.333 0.819 34.906 0.572 -55.03 0.572 -55.03 0.819 34.906
29825.292 0.82 34.883 0.572 -55.053 0.572 -55.053 0.82 34.883
29850.25 0.82 34.86 0.572 -55.076 0.572 -55.076 0.82 34.86
29875.208 0.82 34.837 0.571 -55.1 0.571 -55.1 0.82 34.837
29900.167 0.82 34.814 0.571 -55.123 0.571 -55.123 0.82 34.814
29925.125 0.821 34.791 0.571 -55.146 0.571 -55.146 0.821 34.791
29950.083 0.821 34.768 0.57 -55.169 0.57 -55.169 0.821 34.768
29975.042 0.821 34.745 0.57 -55.192 0.57 -55.192 0.821 34.745
30000 0.821 34.722 0.57 -55.214 0.57 -55.214 0.821 34.722
