!	AVX Thin Film Operation 	Date: April 2014		
!	Description: Accu-P® Series, Thin Film  SMD RF Capacitor
!	Part Number: 06031J3R1ABSTR					
!								
# MHZ S MA R 50

50 0.995 -5.564 0.097 84.427 0.097 84.427 0.995 -5.564
74.958 0.989 -8.311 0.145 81.676 0.145 81.676 0.989 -8.311
99.917 0.981 -11.023 0.191 78.959 0.191 78.959 0.981 -11.023
124.875 0.971 -13.69 0.237 76.288 0.237 76.288 0.971 -13.69
149.833 0.96 -16.302 0.281 73.671 0.281 73.671 0.96 -16.302
174.792 0.946 -18.851 0.323 71.117 0.323 71.117 0.946 -18.851
199.75 0.931 -21.331 0.364 68.633 0.364 68.633 0.931 -21.331
224.708 0.915 -23.737 0.403 66.222 0.403 66.222 0.915 -23.737
249.667 0.898 -26.064 0.439 63.891 0.439 63.891 0.898 -26.064
274.625 0.88 -28.31 0.474 61.64 0.474 61.64 0.88 -28.31
299.583 0.861 -30.473 0.507 59.472 0.507 59.472 0.861 -30.473
324.542 0.842 -32.553 0.538 57.388 0.538 57.388 0.842 -32.553
349.5 0.823 -34.549 0.567 55.387 0.567 55.387 0.823 -34.549
374.458 0.804 -36.463 0.594 53.469 0.594 53.469 0.804 -36.463
399.417 0.784 -38.297 0.62 51.631 0.62 51.631 0.784 -38.297
424.375 0.765 -40.051 0.643 49.872 0.643 49.872 0.765 -40.051
449.333 0.745 -41.73 0.666 48.189 0.666 48.189 0.745 -41.73
474.292 0.726 -43.334 0.686 46.579 0.686 46.579 0.726 -43.334
499.25 0.708 -44.868 0.705 45.04 0.705 45.04 0.708 -44.868
524.208 0.689 -46.335 0.723 43.569 0.723 43.569 0.689 -46.335
549.167 0.671 -47.736 0.74 42.162 0.74 42.162 0.671 -47.736
574.125 0.654 -49.077 0.756 40.817 0.756 40.817 0.654 -49.077
599.083 0.636 -50.358 0.77 39.531 0.77 39.531 0.636 -50.358
624.042 0.62 -51.584 0.784 38.3 0.784 38.3 0.62 -51.584
649 0.604 -52.757 0.796 37.122 0.796 37.122 0.604 -52.757
673.958 0.588 -53.879 0.808 35.995 0.808 35.995 0.588 -53.879
698.917 0.572 -54.955 0.819 34.914 0.819 34.914 0.572 -54.955
723.875 0.557 -55.985 0.829 33.878 0.829 33.878 0.557 -55.985
748.833 0.543 -56.973 0.838 32.885 0.838 32.885 0.543 -56.973
773.792 0.529 -57.921 0.847 31.932 0.847 31.932 0.529 -57.921
798.75 0.515 -58.831 0.856 31.016 0.856 31.016 0.515 -58.831
823.708 0.502 -59.705 0.863 30.137 0.863 30.137 0.502 -59.705
848.667 0.489 -60.546 0.871 29.291 0.871 29.291 0.489 -60.546
873.625 0.477 -61.353 0.878 28.478 0.878 28.478 0.477 -61.353
898.583 0.465 -62.131 0.884 27.695 0.884 27.695 0.465 -62.131
923.542 0.453 -62.88 0.89 26.94 0.89 26.94 0.453 -62.88
948.5 0.442 -63.601 0.896 26.213 0.896 26.213 0.442 -63.601
973.458 0.431 -64.297 0.901 25.511 0.901 25.511 0.431 -64.297
998.417 0.42 -64.968 0.906 24.834 0.906 24.834 0.42 -64.968
1023.375 0.41 -65.616 0.911 24.18 0.911 24.18 0.41 -65.616
1048.333 0.4 -66.241 0.915 23.548 0.915 23.548 0.4 -66.241
1073.292 0.39 -66.846 0.919 22.937 0.919 22.937 0.39 -66.846
1098.25 0.38 -67.431 0.923 22.346 0.923 22.346 0.38 -67.431
1123.208 0.371 -67.998 0.927 21.773 0.927 21.773 0.371 -67.998
1148.167 0.362 -68.546 0.931 21.218 0.931 21.218 0.362 -68.546
1173.125 0.353 -69.077 0.934 20.681 0.934 20.681 0.353 -69.077
1198.083 0.345 -69.592 0.937 20.159 0.937 20.159 0.345 -69.592
1223.042 0.336 -70.091 0.94 19.653 0.94 19.653 0.336 -70.091
1248 0.328 -70.576 0.943 19.161 0.943 19.161 0.328 -70.576
1272.958 0.32 -71.046 0.946 18.683 0.946 18.683 0.32 -71.046
1297.917 0.313 -71.503 0.948 18.219 0.948 18.219 0.313 -71.503
1322.875 0.305 -71.947 0.951 17.767 0.951 17.767 0.305 -71.947
1347.833 0.298 -72.379 0.953 17.327 0.953 17.327 0.298 -72.379
1372.792 0.291 -72.799 0.955 16.899 0.955 16.899 0.291 -72.799
1397.75 0.284 -73.208 0.957 16.482 0.957 16.482 0.284 -73.208
1422.708 0.277 -73.606 0.959 16.076 0.959 16.076 0.277 -73.606
1447.667 0.27 -73.994 0.961 15.68 0.961 15.68 0.27 -73.994
1472.625 0.264 -74.372 0.963 15.293 0.963 15.293 0.264 -74.372
1497.583 0.257 -74.741 0.965 14.916 0.965 14.916 0.257 -74.741
1522.542 0.251 -75.1 0.966 14.547 0.966 14.547 0.251 -75.1
1547.5 0.245 -75.451 0.968 14.187 0.968 14.187 0.245 -75.451
1572.458 0.239 -75.793 0.969 13.835 0.969 13.835 0.239 -75.793
1597.417 0.233 -76.127 0.971 13.491 0.971 13.491 0.233 -76.127
1622.375 0.228 -76.453 0.972 13.155 0.972 13.155 0.228 -76.453
1647.333 0.222 -76.772 0.973 12.826 0.973 12.826 0.222 -76.772
1672.292 0.217 -77.084 0.975 12.504 0.975 12.504 0.217 -77.084
1697.25 0.211 -77.388 0.976 12.188 0.976 12.188 0.211 -77.388
1722.208 0.206 -77.686 0.977 11.879 0.977 11.879 0.206 -77.686
1747.167 0.201 -77.977 0.978 11.576 0.978 11.576 0.201 -77.977
1772.125 0.196 -78.262 0.979 11.279 0.979 11.279 0.196 -78.262
1797.083 0.191 -78.541 0.98 10.987 0.98 10.987 0.191 -78.541
1822.042 0.186 -78.814 0.981 10.701 0.981 10.701 0.186 -78.814
1847 0.181 -79.081 0.982 10.421 0.982 10.421 0.181 -79.081
1871.958 0.176 -79.343 0.983 10.145 0.983 10.145 0.176 -79.343
1896.917 0.172 -79.599 0.984 9.875 0.984 9.875 0.172 -79.599
1921.875 0.167 -79.85 0.984 9.609 0.984 9.609 0.167 -79.85
1946.833 0.162 -80.096 0.985 9.348 0.985 9.348 0.162 -80.096
1971.792 0.158 -80.336 0.986 9.092 0.986 9.092 0.158 -80.336
1996.75 0.154 -80.572 0.987 8.839 0.987 8.839 0.154 -80.572
2021.708 0.149 -80.803 0.987 8.591 0.987 8.591 0.149 -80.803
2046.667 0.145 -81.029 0.988 8.347 0.988 8.347 0.145 -81.029
2071.625 0.141 -81.251 0.988 8.106 0.988 8.106 0.141 -81.251
2096.583 0.137 -81.468 0.989 7.87 0.989 7.87 0.137 -81.468
2121.542 0.133 -81.68 0.99 7.637 0.99 7.637 0.133 -81.68
2146.5 0.129 -81.888 0.99 7.407 0.99 7.407 0.129 -81.888
2171.458 0.125 -82.092 0.991 7.181 0.991 7.181 0.125 -82.092
2196.417 0.121 -82.291 0.991 6.959 0.991 6.959 0.121 -82.291
2221.375 0.117 -82.486 0.992 6.739 0.992 6.739 0.117 -82.486
2246.333 0.114 -82.677 0.992 6.523 0.992 6.523 0.114 -82.677
2271.292 0.11 -82.863 0.992 6.309 0.992 6.309 0.11 -82.863
2296.25 0.106 -83.045 0.993 6.099 0.993 6.099 0.106 -83.045
2321.208 0.103 -83.222 0.993 5.891 0.993 5.891 0.103 -83.222
2346.167 0.099 -83.395 0.993 5.686 0.993 5.686 0.099 -83.395
2371.125 0.096 -83.563 0.994 5.484 0.994 5.484 0.096 -83.563
2396.083 0.092 -83.726 0.994 5.284 0.994 5.284 0.092 -83.726
2421.042 0.089 -83.885 0.994 5.087 0.994 5.087 0.089 -83.885
2446 0.085 -84.039 0.995 4.892 0.995 4.892 0.085 -84.039
2470.958 0.082 -84.187 0.995 4.7 0.995 4.7 0.082 -84.187
2495.917 0.079 -84.33 0.995 4.51 0.995 4.51 0.079 -84.33
2520.875 0.075 -84.467 0.996 4.322 0.996 4.322 0.075 -84.467
2545.833 0.072 -84.598 0.996 4.136 0.996 4.136 0.072 -84.598
2570.792 0.069 -84.723 0.996 3.952 0.996 3.952 0.069 -84.723
2595.75 0.066 -84.84 0.996 3.771 0.996 3.771 0.066 -84.84
2620.708 0.063 -84.95 0.996 3.591 0.996 3.591 0.063 -84.95
2645.667 0.06 -85.052 0.997 3.414 0.997 3.414 0.06 -85.052
2670.625 0.057 -85.144 0.997 3.238 0.997 3.238 0.057 -85.144
2695.583 0.053 -85.226 0.997 3.065 0.997 3.065 0.053 -85.226
2720.542 0.05 -85.296 0.997 2.893 0.997 2.893 0.05 -85.296
2745.5 0.048 -85.353 0.997 2.722 0.997 2.722 0.048 -85.353
2770.458 0.045 -85.395 0.997 2.554 0.997 2.554 0.045 -85.395
2795.417 0.042 -85.418 0.998 2.387 0.998 2.387 0.042 -85.418
2820.375 0.039 -85.42 0.998 2.222 0.998 2.222 0.039 -85.42
2845.333 0.036 -85.396 0.998 2.058 0.998 2.058 0.036 -85.396
2870.292 0.033 -85.341 0.998 1.896 0.998 1.896 0.033 -85.341
2895.25 0.03 -85.246 0.998 1.736 0.998 1.736 0.03 -85.246
2920.208 0.028 -85.101 0.998 1.577 0.998 1.577 0.028 -85.101
2945.167 0.025 -84.891 0.998 1.419 0.998 1.419 0.025 -84.891
2970.125 0.022 -84.592 0.998 1.263 0.998 1.263 0.022 -84.592
2995.083 0.019 -84.17 0.998 1.108 0.998 1.108 0.019 -84.17
3020.042 0.017 -83.568 0.998 0.955 0.998 0.955 0.017 -83.568
3045 0.014 -82.69 0.998 0.802 0.998 0.802 0.014 -82.69
3069.958 0.011 -81.352 0.998 0.652 0.998 0.652 0.011 -81.352
3094.917 8.906e-3 -79.164 0.998 0.502 0.998 0.502 8.906e-3 -79.164
3119.875 6.376e-3 -75.133 0.998 0.354 0.998 0.354 6.376e-3 -75.133
3144.833 3.942e-3 -65.881 0.998 0.206 0.998 0.206 3.942e-3 -65.881
3169.792 1.915e-3 -33.38 0.998 0.06 0.998 0.06 1.915e-3 -33.38
3194.75 2.173e-3 42.591 0.998 -0.084 0.998 -0.084 2.173e-3 42.591
3219.708 4.29e-3 67.908 0.998 -0.228 0.998 -0.228 4.29e-3 67.908
3244.667 6.666e-3 75.76 0.998 -0.371 0.998 -0.371 6.666e-3 75.76
3269.625 9.083e-3 79.357 0.998 -0.512 0.998 -0.512 9.083e-3 79.357
3294.583 0.012 81.365 0.998 -0.653 0.998 -0.653 0.012 81.365
3319.542 0.014 82.617 0.998 -0.792 0.998 -0.792 0.014 82.617
3344.5 0.016 83.453 0.998 -0.931 0.998 -0.931 0.016 83.453
3369.458 0.019 84.034 0.998 -1.068 0.998 -1.068 0.019 84.034
3394.417 0.021 84.451 0.998 -1.205 0.998 -1.205 0.021 84.451
3419.375 0.023 84.753 0.998 -1.34 0.998 -1.34 0.023 84.753
3444.333 0.026 84.974 0.998 -1.475 0.998 -1.475 0.026 84.974
3469.292 0.028 85.135 0.998 -1.609 0.998 -1.609 0.028 85.135
3494.25 0.03 85.25 0.998 -1.742 0.998 -1.742 0.03 85.25
3519.208 0.033 85.33 0.998 -1.873 0.998 -1.873 0.033 85.33
3544.167 0.035 85.382 0.998 -2.005 0.998 -2.005 0.035 85.382
3569.125 0.037 85.411 0.998 -2.135 0.998 -2.135 0.037 85.411
3594.083 0.04 85.422 0.998 -2.264 0.998 -2.264 0.04 85.422
3619.042 0.042 85.417 0.998 -2.393 0.998 -2.393 0.042 85.417
3644 0.044 85.401 0.997 -2.521 0.997 -2.521 0.044 85.401
3668.958 0.046 85.373 0.997 -2.648 0.997 -2.648 0.046 85.373
3693.917 0.048 85.337 0.997 -2.774 0.997 -2.774 0.048 85.337
3718.875 0.051 85.294 0.997 -2.9 0.997 -2.9 0.051 85.294
3743.833 0.053 85.243 0.997 -3.024 0.997 -3.024 0.053 85.243
3768.792 0.055 85.188 0.997 -3.148 0.997 -3.148 0.055 85.188
3793.75 0.057 85.127 0.997 -3.272 0.997 -3.272 0.057 85.127
3818.708 0.059 85.063 0.997 -3.394 0.997 -3.394 0.059 85.063
3843.667 0.061 84.994 0.997 -3.516 0.997 -3.516 0.061 84.994
3868.625 0.063 84.923 0.996 -3.638 0.996 -3.638 0.063 84.923
3893.583 0.066 84.848 0.996 -3.758 0.996 -3.758 0.066 84.848
3918.542 0.068 84.772 0.996 -3.878 0.996 -3.878 0.068 84.772
3943.5 0.07 84.693 0.996 -3.998 0.996 -3.998 0.07 84.693
3968.458 0.072 84.612 0.996 -4.116 0.996 -4.116 0.072 84.612
3993.417 0.074 84.529 0.996 -4.234 0.996 -4.234 0.074 84.529
4018.375 0.076 84.445 0.996 -4.352 0.996 -4.352 0.076 84.445
4043.333 0.078 84.36 0.995 -4.469 0.995 -4.469 0.078 84.36
4068.292 0.08 84.273 0.995 -4.585 0.995 -4.585 0.08 84.273
4093.25 0.082 84.186 0.995 -4.701 0.995 -4.701 0.082 84.186
4118.208 0.084 84.098 0.995 -4.816 0.995 -4.816 0.084 84.098
4143.167 0.086 84.008 0.995 -4.931 0.995 -4.931 0.086 84.008
4168.125 0.088 83.918 0.995 -5.045 0.995 -5.045 0.088 83.918
4193.083 0.09 83.828 0.994 -5.158 0.994 -5.158 0.09 83.828
4218.042 0.092 83.737 0.994 -5.271 0.994 -5.271 0.092 83.737
4243 0.094 83.645 0.994 -5.384 0.994 -5.384 0.094 83.645
4267.958 0.096 83.553 0.994 -5.496 0.994 -5.496 0.096 83.553
4292.917 0.098 83.461 0.994 -5.607 0.994 -5.607 0.098 83.461
4317.875 0.1 83.368 0.993 -5.718 0.993 -5.718 0.1 83.368
4342.833 0.102 83.275 0.993 -5.828 0.993 -5.828 0.102 83.275
4367.792 0.103 83.182 0.993 -5.938 0.993 -5.938 0.103 83.182
4392.75 0.105 83.088 0.993 -6.048 0.993 -6.048 0.105 83.088
4417.708 0.107 82.995 0.993 -6.157 0.993 -6.157 0.107 82.995
4442.667 0.109 82.901 0.992 -6.265 0.992 -6.265 0.109 82.901
4467.625 0.111 82.807 0.992 -6.373 0.992 -6.373 0.111 82.807
4492.583 0.113 82.713 0.992 -6.481 0.992 -6.481 0.113 82.713
4517.542 0.115 82.619 0.992 -6.588 0.992 -6.588 0.115 82.619
4542.5 0.117 82.525 0.992 -6.695 0.992 -6.695 0.117 82.525
4567.458 0.118 82.431 0.991 -6.801 0.991 -6.801 0.118 82.431
4592.417 0.12 82.337 0.991 -6.907 0.991 -6.907 0.12 82.337
4617.375 0.122 82.243 0.991 -7.013 0.991 -7.013 0.122 82.243
4642.333 0.124 82.149 0.991 -7.118 0.991 -7.118 0.124 82.149
4667.292 0.126 82.055 0.99 -7.222 0.99 -7.222 0.126 82.055
4692.25 0.128 81.961 0.99 -7.327 0.99 -7.327 0.128 81.961
4717.208 0.129 81.868 0.99 -7.43 0.99 -7.43 0.129 81.868
4742.167 0.131 81.774 0.99 -7.534 0.99 -7.534 0.131 81.774
4767.125 0.133 81.68 0.99 -7.637 0.99 -7.637 0.133 81.68
4792.083 0.135 81.587 0.989 -7.74 0.989 -7.74 0.135 81.587
4817.042 0.136 81.493 0.989 -7.842 0.989 -7.842 0.136 81.493
4842 0.138 81.4 0.989 -7.944 0.989 -7.944 0.138 81.4
4866.958 0.14 81.307 0.989 -8.046 0.989 -8.046 0.14 81.307
4891.917 0.142 81.214 0.988 -8.147 0.988 -8.147 0.142 81.214
4916.875 0.143 81.121 0.988 -8.248 0.988 -8.248 0.143 81.121
4941.833 0.145 81.028 0.988 -8.348 0.988 -8.348 0.145 81.028
4966.792 0.147 80.935 0.988 -8.448 0.988 -8.448 0.147 80.935
4991.75 0.149 80.843 0.987 -8.548 0.987 -8.548 0.149 80.843
5016.708 0.15 80.751 0.987 -8.648 0.987 -8.648 0.15 80.751
5041.667 0.152 80.658 0.987 -8.747 0.987 -8.747 0.152 80.658
5066.625 0.154 80.566 0.987 -8.846 0.987 -8.846 0.154 80.566
5091.583 0.155 80.474 0.986 -8.944 0.986 -8.944 0.155 80.474
5116.542 0.157 80.383 0.986 -9.042 0.986 -9.042 0.157 80.383
5141.5 0.159 80.291 0.986 -9.14 0.986 -9.14 0.159 80.291
5166.458 0.161 80.2 0.985 -9.237 0.985 -9.237 0.161 80.2
5191.417 0.162 80.108 0.985 -9.335 0.985 -9.335 0.162 80.108
5216.375 0.164 80.017 0.985 -9.432 0.985 -9.432 0.164 80.017
5241.333 0.166 79.926 0.985 -9.528 0.985 -9.528 0.166 79.926
5266.292 0.167 79.836 0.984 -9.624 0.984 -9.624 0.167 79.836
5291.25 0.169 79.745 0.984 -9.72 0.984 -9.72 0.169 79.745
5316.208 0.17 79.655 0.984 -9.816 0.984 -9.816 0.17 79.655
5341.167 0.172 79.565 0.984 -9.912 0.984 -9.912 0.172 79.565
5366.125 0.174 79.474 0.983 -10.007 0.983 -10.007 0.174 79.474
5391.083 0.175 79.385 0.983 -10.102 0.983 -10.102 0.175 79.385
5416.042 0.177 79.295 0.983 -10.196 0.983 -10.196 0.177 79.295
5441 0.179 79.205 0.982 -10.29 0.982 -10.29 0.179 79.205
5465.958 0.18 79.116 0.982 -10.384 0.982 -10.384 0.18 79.116
5490.917 0.182 79.027 0.982 -10.478 0.982 -10.478 0.182 79.027
5515.875 0.183 78.938 0.981 -10.572 0.981 -10.572 0.183 78.938
5540.833 0.185 78.849 0.981 -10.665 0.981 -10.665 0.185 78.849
5565.792 0.187 78.761 0.981 -10.758 0.981 -10.758 0.187 78.761
5590.75 0.188 78.672 0.981 -10.85 0.981 -10.85 0.188 78.672
5615.708 0.19 78.584 0.98 -10.943 0.98 -10.943 0.19 78.584
5640.667 0.191 78.496 0.98 -11.035 0.98 -11.035 0.191 78.496
5665.625 0.193 78.408 0.98 -11.127 0.98 -11.127 0.193 78.408
5690.583 0.195 78.32 0.979 -11.218 0.979 -11.218 0.195 78.32
5715.542 0.196 78.233 0.979 -11.31 0.979 -11.31 0.196 78.233
5740.5 0.198 78.145 0.979 -11.401 0.979 -11.401 0.198 78.145
5765.458 0.199 78.058 0.978 -11.492 0.978 -11.492 0.199 78.058
5790.417 0.201 77.971 0.978 -11.582 0.978 -11.582 0.201 77.971
5815.375 0.202 77.884 0.978 -11.673 0.978 -11.673 0.202 77.884
5840.333 0.204 77.797 0.977 -11.763 0.977 -11.763 0.204 77.797
5865.292 0.205 77.711 0.977 -11.853 0.977 -11.853 0.205 77.711
5890.25 0.207 77.624 0.977 -11.943 0.977 -11.943 0.207 77.624
5915.208 0.208 77.538 0.976 -12.032 0.976 -12.032 0.208 77.538
5940.167 0.21 77.452 0.976 -12.121 0.976 -12.121 0.21 77.452
5965.125 0.212 77.367 0.976 -12.21 0.976 -12.21 0.212 77.367
5990.083 0.213 77.281 0.975 -12.299 0.975 -12.299 0.213 77.281
6015.042 0.215 77.195 0.975 -12.388 0.975 -12.388 0.215 77.195
6040 0.216 77.11 0.975 -12.476 0.975 -12.476 0.216 77.11
6064.958 0.218 77.025 0.974 -12.564 0.974 -12.564 0.218 77.025
6089.917 0.219 76.94 0.974 -12.652 0.974 -12.652 0.219 76.94
6114.875 0.221 76.855 0.974 -12.74 0.974 -12.74 0.221 76.855
6139.833 0.222 76.77 0.973 -12.827 0.973 -12.827 0.222 76.77
6164.792 0.224 76.686 0.973 -12.915 0.973 -12.915 0.224 76.686
6189.75 0.225 76.602 0.973 -13.002 0.973 -13.002 0.225 76.602
6214.708 0.226 76.518 0.972 -13.089 0.972 -13.089 0.226 76.518
6239.667 0.228 76.434 0.972 -13.175 0.972 -13.175 0.228 76.434
6264.625 0.229 76.35 0.972 -13.262 0.972 -13.262 0.229 76.35
6289.583 0.231 76.266 0.971 -13.348 0.971 -13.348 0.231 76.266
6314.542 0.232 76.183 0.971 -13.434 0.971 -13.434 0.232 76.183
6339.5 0.234 76.099 0.971 -13.52 0.971 -13.52 0.234 76.099
6364.458 0.235 76.016 0.97 -13.606 0.97 -13.606 0.235 76.016
6389.417 0.237 75.933 0.97 -13.691 0.97 -13.691 0.237 75.933
6414.375 0.238 75.85 0.97 -13.776 0.97 -13.776 0.238 75.85
6439.333 0.24 75.768 0.969 -13.861 0.969 -13.861 0.24 75.768
6464.292 0.241 75.685 0.969 -13.946 0.969 -13.946 0.241 75.685
6489.25 0.242 75.603 0.969 -14.031 0.969 -14.031 0.242 75.603
6514.208 0.244 75.52 0.968 -14.116 0.968 -14.116 0.244 75.52
6539.167 0.245 75.438 0.968 -14.2 0.968 -14.2 0.245 75.438
6564.125 0.247 75.356 0.968 -14.284 0.968 -14.284 0.247 75.356
6589.083 0.248 75.275 0.967 -14.368 0.967 -14.368 0.248 75.275
6614.042 0.25 75.193 0.967 -14.452 0.967 -14.452 0.25 75.193
6639 0.251 75.112 0.966 -14.535 0.966 -14.535 0.251 75.112
6663.958 0.252 75.03 0.966 -14.619 0.966 -14.619 0.252 75.03
6688.917 0.254 74.949 0.966 -14.702 0.966 -14.702 0.254 74.949
6713.875 0.255 74.868 0.965 -14.785 0.965 -14.785 0.255 74.868
6738.833 0.257 74.787 0.965 -14.868 0.965 -14.868 0.257 74.787
6763.792 0.258 74.707 0.965 -14.951 0.965 -14.951 0.258 74.707
6788.75 0.259 74.626 0.964 -15.033 0.964 -15.033 0.259 74.626
6813.708 0.261 74.546 0.964 -15.115 0.964 -15.115 0.261 74.546
6838.667 0.262 74.465 0.963 -15.198 0.963 -15.198 0.262 74.465
6863.625 0.264 74.385 0.963 -15.28 0.963 -15.28 0.264 74.385
6888.583 0.265 74.305 0.963 -15.361 0.963 -15.361 0.265 74.305
6913.542 0.266 74.226 0.962 -15.443 0.962 -15.443 0.266 74.226
6938.5 0.268 74.146 0.962 -15.525 0.962 -15.525 0.268 74.146
6963.458 0.269 74.066 0.962 -15.606 0.962 -15.606 0.269 74.066
6988.417 0.27 73.987 0.961 -15.687 0.961 -15.687 0.27 73.987
7013.375 0.272 73.908 0.961 -15.768 0.961 -15.768 0.272 73.908
7038.333 0.273 73.829 0.96 -15.849 0.96 -15.849 0.273 73.829
7063.292 0.274 73.75 0.96 -15.93 0.96 -15.93 0.274 73.75
7088.25 0.276 73.671 0.96 -16.01 0.96 -16.01 0.276 73.671
7113.208 0.277 73.592 0.959 -16.091 0.959 -16.091 0.277 73.592
7138.167 0.279 73.514 0.959 -16.171 0.959 -16.171 0.279 73.514
7163.125 0.28 73.435 0.959 -16.251 0.959 -16.251 0.28 73.435
7188.083 0.281 73.357 0.958 -16.331 0.958 -16.331 0.281 73.357
7213.042 0.283 73.279 0.958 -16.41 0.958 -16.41 0.283 73.279
7238 0.284 73.201 0.957 -16.49 0.957 -16.49 0.284 73.201
7262.958 0.285 73.123 0.957 -16.569 0.957 -16.569 0.285 73.123
7287.917 0.287 73.045 0.957 -16.649 0.957 -16.649 0.287 73.045
7312.875 0.288 72.968 0.956 -16.728 0.956 -16.728 0.288 72.968
7337.833 0.289 72.89 0.956 -16.807 0.956 -16.807 0.289 72.89
7362.792 0.29 72.813 0.955 -16.886 0.955 -16.886 0.29 72.813
7387.75 0.292 72.736 0.955 -16.964 0.955 -16.964 0.292 72.736
7412.708 0.293 72.659 0.955 -17.043 0.955 -17.043 0.293 72.659
7437.667 0.294 72.582 0.954 -17.121 0.954 -17.121 0.294 72.582
7462.625 0.296 72.505 0.954 -17.199 0.954 -17.199 0.296 72.505
7487.583 0.297 72.428 0.953 -17.277 0.953 -17.277 0.297 72.428
7512.542 0.298 72.352 0.953 -17.355 0.953 -17.355 0.298 72.352
7537.5 0.3 72.275 0.953 -17.433 0.953 -17.433 0.3 72.275
7562.458 0.301 72.199 0.952 -17.511 0.952 -17.511 0.301 72.199
7587.417 0.302 72.123 0.952 -17.588 0.952 -17.588 0.302 72.123
7612.375 0.303 72.047 0.951 -17.666 0.951 -17.666 0.303 72.047
7637.333 0.305 71.971 0.951 -17.743 0.951 -17.743 0.305 71.971
7662.292 0.306 71.895 0.951 -17.82 0.951 -17.82 0.306 71.895
7687.25 0.307 71.82 0.95 -17.897 0.95 -17.897 0.307 71.82
7712.208 0.309 71.744 0.95 -17.974 0.95 -17.974 0.309 71.744
7737.167 0.31 71.669 0.949 -18.05 0.949 -18.05 0.31 71.669
7762.125 0.311 71.594 0.949 -18.127 0.949 -18.127 0.311 71.594
7787.083 0.312 71.518 0.948 -18.203 0.948 -18.203 0.312 71.518
7812.042 0.314 71.443 0.948 -18.279 0.948 -18.279 0.314 71.443
7837 0.315 71.369 0.948 -18.356 0.948 -18.356 0.315 71.369
7861.958 0.316 71.294 0.947 -18.432 0.947 -18.432 0.316 71.294
7886.917 0.317 71.219 0.947 -18.507 0.947 -18.507 0.317 71.219
7911.875 0.319 71.145 0.946 -18.583 0.946 -18.583 0.319 71.145
7936.833 0.32 71.07 0.946 -18.659 0.946 -18.659 0.32 71.07
7961.792 0.321 70.996 0.946 -18.734 0.946 -18.734 0.321 70.996
7986.75 0.322 70.922 0.945 -18.809 0.945 -18.809 0.322 70.922
8011.708 0.324 70.848 0.945 -18.885 0.945 -18.885 0.324 70.848
8036.667 0.325 70.774 0.944 -18.96 0.944 -18.96 0.325 70.774
8061.625 0.326 70.7 0.944 -19.035 0.944 -19.035 0.326 70.7
8086.583 0.327 70.626 0.943 -19.109 0.943 -19.109 0.327 70.626
8111.542 0.329 70.553 0.943 -19.184 0.943 -19.184 0.329 70.553
8136.5 0.33 70.479 0.943 -19.258 0.943 -19.258 0.33 70.479
8161.458 0.331 70.406 0.942 -19.333 0.942 -19.333 0.331 70.406
8186.417 0.332 70.333 0.942 -19.407 0.942 -19.407 0.332 70.333
8211.375 0.334 70.26 0.941 -19.481 0.941 -19.481 0.334 70.26
8236.333 0.335 70.187 0.941 -19.555 0.941 -19.555 0.335 70.187
8261.292 0.336 70.114 0.94 -19.629 0.94 -19.629 0.336 70.114
8286.25 0.337 70.041 0.94 -19.703 0.94 -19.703 0.337 70.041
8311.208 0.338 69.969 0.94 -19.777 0.94 -19.777 0.338 69.969
8336.167 0.34 69.896 0.939 -19.85 0.939 -19.85 0.34 69.896
8361.125 0.341 69.824 0.939 -19.923 0.939 -19.923 0.341 69.824
8386.083 0.342 69.752 0.938 -19.997 0.938 -19.997 0.342 69.752
8411.042 0.343 69.68 0.938 -20.07 0.938 -20.07 0.343 69.68
8436 0.344 69.607 0.937 -20.143 0.937 -20.143 0.344 69.607
8460.958 0.346 69.536 0.937 -20.216 0.937 -20.216 0.346 69.536
8485.917 0.347 69.464 0.936 -20.289 0.936 -20.289 0.347 69.464
8510.875 0.348 69.392 0.936 -20.361 0.936 -20.361 0.348 69.392
8535.833 0.349 69.32 0.936 -20.434 0.936 -20.434 0.349 69.32
8560.792 0.35 69.249 0.935 -20.506 0.935 -20.506 0.35 69.249
8585.75 0.351 69.178 0.935 -20.579 0.935 -20.579 0.351 69.178
8610.708 0.353 69.106 0.934 -20.651 0.934 -20.651 0.353 69.106
8635.667 0.354 69.035 0.934 -20.723 0.934 -20.723 0.354 69.035
8660.625 0.355 68.964 0.933 -20.795 0.933 -20.795 0.355 68.964
8685.583 0.356 68.893 0.933 -20.867 0.933 -20.867 0.356 68.893
8710.542 0.357 68.823 0.932 -20.938 0.932 -20.938 0.357 68.823
8735.5 0.359 68.752 0.932 -21.01 0.932 -21.01 0.359 68.752
8760.458 0.36 68.681 0.932 -21.081 0.932 -21.081 0.36 68.681
8785.417 0.361 68.611 0.931 -21.153 0.931 -21.153 0.361 68.611
8810.375 0.362 68.54 0.931 -21.224 0.931 -21.224 0.362 68.54
8835.333 0.363 68.47 0.93 -21.295 0.93 -21.295 0.363 68.47
8860.292 0.364 68.4 0.93 -21.366 0.93 -21.366 0.364 68.4
8885.25 0.365 68.33 0.929 -21.437 0.929 -21.437 0.365 68.33
8910.208 0.367 68.26 0.929 -21.508 0.929 -21.508 0.367 68.26
8935.167 0.368 68.19 0.928 -21.578 0.928 -21.578 0.368 68.19
8960.125 0.369 68.12 0.928 -21.649 0.928 -21.649 0.369 68.12
8985.083 0.37 68.051 0.928 -21.719 0.928 -21.719 0.37 68.051
9010.042 0.371 67.981 0.927 -21.79 0.927 -21.79 0.371 67.981
9035 0.372 67.912 0.927 -21.86 0.927 -21.86 0.372 67.912
9059.958 0.373 67.843 0.926 -21.93 0.926 -21.93 0.373 67.843
9084.917 0.375 67.773 0.926 -22 0.926 -22 0.375 67.773
9109.875 0.376 67.704 0.925 -22.07 0.925 -22.07 0.376 67.704
9134.833 0.377 67.635 0.925 -22.14 0.925 -22.14 0.377 67.635
9159.792 0.378 67.566 0.924 -22.209 0.924 -22.209 0.378 67.566
9184.75 0.379 67.498 0.924 -22.279 0.924 -22.279 0.379 67.498
9209.708 0.38 67.429 0.923 -22.348 0.923 -22.348 0.38 67.429
9234.667 0.381 67.36 0.923 -22.418 0.923 -22.418 0.381 67.36
9259.625 0.382 67.292 0.922 -22.487 0.922 -22.487 0.382 67.292
9284.583 0.384 67.224 0.922 -22.556 0.922 -22.556 0.384 67.224
9309.542 0.385 67.155 0.922 -22.625 0.922 -22.625 0.385 67.155
9334.5 0.386 67.087 0.921 -22.694 0.921 -22.694 0.386 67.087
9359.458 0.387 67.019 0.921 -22.763 0.921 -22.763 0.387 67.019
9384.417 0.388 66.951 0.92 -22.831 0.92 -22.831 0.388 66.951
9409.375 0.389 66.883 0.92 -22.9 0.92 -22.9 0.389 66.883
9434.333 0.39 66.816 0.919 -22.968 0.919 -22.968 0.39 66.816
9459.292 0.391 66.748 0.919 -23.037 0.919 -23.037 0.391 66.748
9484.25 0.392 66.68 0.918 -23.105 0.918 -23.105 0.392 66.68
9509.208 0.394 66.613 0.918 -23.173 0.918 -23.173 0.394 66.613
9534.167 0.395 66.545 0.917 -23.241 0.917 -23.241 0.395 66.545
9559.125 0.396 66.478 0.917 -23.309 0.917 -23.309 0.396 66.478
9584.083 0.397 66.411 0.916 -23.377 0.916 -23.377 0.397 66.411
9609.042 0.398 66.344 0.916 -23.445 0.916 -23.445 0.398 66.344
9634 0.399 66.277 0.916 -23.512 0.916 -23.512 0.399 66.277
9658.958 0.4 66.21 0.915 -23.58 0.915 -23.58 0.4 66.21
9683.917 0.401 66.143 0.915 -23.647 0.915 -23.647 0.401 66.143
9708.875 0.402 66.077 0.914 -23.715 0.914 -23.715 0.402 66.077
9733.833 0.403 66.01 0.914 -23.782 0.914 -23.782 0.403 66.01
9758.792 0.404 65.944 0.913 -23.849 0.913 -23.849 0.404 65.944
9783.75 0.405 65.877 0.913 -23.916 0.913 -23.916 0.405 65.877
9808.708 0.406 65.811 0.912 -23.983 0.912 -23.983 0.406 65.811
9833.667 0.408 65.745 0.912 -24.05 0.912 -24.05 0.408 65.745
9858.625 0.409 65.679 0.911 -24.117 0.911 -24.117 0.409 65.679
9883.583 0.41 65.613 0.911 -24.183 0.911 -24.183 0.41 65.613
9908.542 0.411 65.547 0.91 -24.25 0.91 -24.25 0.411 65.547
9933.5 0.412 65.481 0.91 -24.316 0.91 -24.316 0.412 65.481
9958.458 0.413 65.416 0.909 -24.382 0.909 -24.382 0.413 65.416
9983.417 0.414 65.35 0.909 -24.449 0.909 -24.449 0.414 65.35
10008.375 0.415 65.285 0.908 -24.515 0.908 -24.515 0.415 65.285
10033.333 0.416 65.219 0.908 -24.581 0.908 -24.581 0.416 65.219
10058.292 0.417 65.154 0.907 -24.647 0.907 -24.647 0.417 65.154
10083.25 0.418 65.089 0.907 -24.712 0.907 -24.712 0.418 65.089
10108.208 0.419 65.024 0.906 -24.778 0.906 -24.778 0.419 65.024
10133.167 0.42 64.959 0.906 -24.844 0.906 -24.844 0.42 64.959
10158.125 0.421 64.894 0.906 -24.909 0.906 -24.909 0.421 64.894
10183.083 0.422 64.829 0.905 -24.975 0.905 -24.975 0.422 64.829
10208.042 0.423 64.764 0.905 -25.04 0.905 -25.04 0.423 64.764
10233 0.424 64.699 0.904 -25.105 0.904 -25.105 0.424 64.699
10257.958 0.425 64.635 0.904 -25.17 0.904 -25.17 0.425 64.635
10282.917 0.426 64.57 0.903 -25.235 0.903 -25.235 0.426 64.57
10307.875 0.427 64.506 0.903 -25.3 0.903 -25.3 0.427 64.506
10332.833 0.428 64.442 0.902 -25.365 0.902 -25.365 0.428 64.442
10357.792 0.429 64.378 0.902 -25.43 0.902 -25.43 0.429 64.378
10382.75 0.43 64.314 0.901 -25.494 0.901 -25.494 0.43 64.314
10407.708 0.431 64.25 0.901 -25.559 0.901 -25.559 0.431 64.25
10432.667 0.432 64.186 0.9 -25.623 0.9 -25.623 0.432 64.186
10457.625 0.433 64.122 0.9 -25.688 0.9 -25.688 0.433 64.122
10482.583 0.434 64.058 0.899 -25.752 0.899 -25.752 0.434 64.058
10507.542 0.435 63.995 0.899 -25.816 0.899 -25.816 0.435 63.995
10532.5 0.436 63.931 0.898 -25.88 0.898 -25.88 0.436 63.931
10557.458 0.437 63.868 0.898 -25.944 0.898 -25.944 0.437 63.868
10582.417 0.439 63.804 0.897 -26.008 0.897 -26.008 0.439 63.804
10607.375 0.44 63.741 0.897 -26.072 0.897 -26.072 0.44 63.741
10632.333 0.44 63.678 0.896 -26.136 0.896 -26.136 0.44 63.678
10657.292 0.441 63.615 0.896 -26.199 0.896 -26.199 0.441 63.615
10682.25 0.442 63.552 0.895 -26.263 0.895 -26.263 0.442 63.552
10707.208 0.443 63.489 0.895 -26.326 0.895 -26.326 0.443 63.489
10732.167 0.444 63.426 0.894 -26.389 0.894 -26.389 0.444 63.426
10757.125 0.445 63.363 0.894 -26.453 0.894 -26.453 0.445 63.363
10782.083 0.446 63.301 0.893 -26.516 0.893 -26.516 0.446 63.301
10807.042 0.447 63.238 0.893 -26.579 0.893 -26.579 0.447 63.238
10832 0.448 63.176 0.892 -26.642 0.892 -26.642 0.448 63.176
10856.958 0.449 63.113 0.892 -26.705 0.892 -26.705 0.449 63.113
10881.917 0.45 63.051 0.891 -26.767 0.891 -26.767 0.45 63.051
10906.875 0.451 62.989 0.891 -26.83 0.891 -26.83 0.451 62.989
10931.833 0.452 62.927 0.89 -26.893 0.89 -26.893 0.452 62.927
10956.792 0.453 62.865 0.89 -26.955 0.89 -26.955 0.453 62.865
10981.75 0.454 62.803 0.889 -27.017 0.889 -27.017 0.454 62.803
11006.708 0.455 62.741 0.889 -27.08 0.889 -27.08 0.455 62.741
11031.667 0.456 62.679 0.888 -27.142 0.888 -27.142 0.456 62.679
11056.625 0.457 62.618 0.888 -27.204 0.888 -27.204 0.457 62.618
11081.583 0.458 62.556 0.887 -27.266 0.887 -27.266 0.458 62.556
11106.542 0.459 62.495 0.887 -27.328 0.887 -27.328 0.459 62.495
11131.5 0.46 62.433 0.886 -27.39 0.886 -27.39 0.46 62.433
11156.458 0.461 62.372 0.886 -27.452 0.886 -27.452 0.461 62.372
11181.417 0.462 62.311 0.885 -27.513 0.885 -27.513 0.462 62.311
11206.375 0.463 62.25 0.885 -27.575 0.885 -27.575 0.463 62.25
11231.333 0.464 62.189 0.884 -27.636 0.884 -27.636 0.464 62.189
11256.292 0.465 62.128 0.884 -27.698 0.884 -27.698 0.465 62.128
11281.25 0.466 62.067 0.883 -27.759 0.883 -27.759 0.466 62.067
11306.208 0.467 62.006 0.883 -27.82 0.883 -27.82 0.467 62.006
11331.167 0.468 61.946 0.883 -27.881 0.883 -27.881 0.468 61.946
11356.125 0.469 61.885 0.882 -27.942 0.882 -27.942 0.469 61.885
11381.083 0.47 61.824 0.882 -28.003 0.882 -28.003 0.47 61.824
11406.042 0.47 61.764 0.881 -28.064 0.881 -28.064 0.47 61.764
11431 0.471 61.704 0.881 -28.125 0.881 -28.125 0.471 61.704
11455.958 0.472 61.643 0.88 -28.186 0.88 -28.186 0.472 61.643
11480.917 0.473 61.583 0.88 -28.246 0.88 -28.246 0.473 61.583
11505.875 0.474 61.523 0.879 -28.307 0.879 -28.307 0.474 61.523
11530.833 0.475 61.463 0.879 -28.367 0.879 -28.367 0.475 61.463
11555.792 0.476 61.403 0.878 -28.428 0.878 -28.428 0.476 61.403
11580.75 0.477 61.343 0.878 -28.488 0.878 -28.488 0.477 61.343
11605.708 0.478 61.284 0.877 -28.548 0.877 -28.548 0.478 61.284
11630.667 0.479 61.224 0.877 -28.608 0.877 -28.608 0.479 61.224
11655.625 0.48 61.164 0.876 -28.668 0.876 -28.668 0.48 61.164
11680.583 0.481 61.105 0.876 -28.728 0.876 -28.728 0.481 61.105
11705.542 0.482 61.046 0.875 -28.788 0.875 -28.788 0.482 61.046
11730.5 0.482 60.986 0.875 -28.848 0.875 -28.848 0.482 60.986
11755.458 0.483 60.927 0.874 -28.907 0.874 -28.907 0.483 60.927
11780.417 0.484 60.868 0.874 -28.967 0.874 -28.967 0.484 60.868
11805.375 0.485 60.809 0.873 -29.026 0.873 -29.026 0.485 60.809
11830.333 0.486 60.75 0.872 -29.086 0.872 -29.086 0.486 60.75
11855.292 0.487 60.691 0.872 -29.145 0.872 -29.145 0.487 60.691
11880.25 0.488 60.632 0.871 -29.204 0.871 -29.204 0.488 60.632
11905.208 0.489 60.573 0.871 -29.263 0.871 -29.263 0.489 60.573
11930.167 0.49 60.515 0.87 -29.322 0.87 -29.322 0.49 60.515
11955.125 0.491 60.456 0.87 -29.381 0.87 -29.381 0.491 60.456
11980.083 0.492 60.398 0.869 -29.44 0.869 -29.44 0.492 60.398
12005.042 0.492 60.339 0.869 -29.499 0.869 -29.499 0.492 60.339
12030 0.493 60.281 0.868 -29.558 0.868 -29.558 0.493 60.281
12054.958 0.494 60.223 0.868 -29.616 0.868 -29.616 0.494 60.223
12079.917 0.495 60.164 0.867 -29.675 0.867 -29.675 0.495 60.164
12104.875 0.496 60.106 0.867 -29.733 0.867 -29.733 0.496 60.106
12129.833 0.497 60.048 0.866 -29.792 0.866 -29.792 0.497 60.048
12154.792 0.498 59.99 0.866 -29.85 0.866 -29.85 0.498 59.99
12179.75 0.499 59.933 0.865 -29.908 0.865 -29.908 0.499 59.933
12204.708 0.499 59.875 0.865 -29.966 0.865 -29.966 0.499 59.875
12229.667 0.5 59.817 0.864 -30.024 0.864 -30.024 0.5 59.817
12254.625 0.501 59.76 0.864 -30.082 0.864 -30.082 0.501 59.76
12279.583 0.502 59.702 0.863 -30.14 0.863 -30.14 0.502 59.702
12304.542 0.503 59.645 0.863 -30.198 0.863 -30.198 0.503 59.645
12329.5 0.504 59.587 0.862 -30.256 0.862 -30.256 0.504 59.587
12354.458 0.505 59.53 0.862 -30.313 0.862 -30.313 0.505 59.53
12379.417 0.506 59.473 0.861 -30.371 0.861 -30.371 0.506 59.473
12404.375 0.506 59.416 0.861 -30.428 0.861 -30.428 0.506 59.416
12429.333 0.507 59.359 0.86 -30.486 0.86 -30.486 0.507 59.359
12454.292 0.508 59.302 0.86 -30.543 0.86 -30.543 0.508 59.302
12479.25 0.509 59.245 0.859 -30.6 0.859 -30.6 0.509 59.245
12504.208 0.51 59.188 0.859 -30.657 0.859 -30.657 0.51 59.188
12529.167 0.511 59.131 0.858 -30.715 0.858 -30.715 0.511 59.131
12554.125 0.512 59.075 0.858 -30.772 0.858 -30.772 0.512 59.075
12579.083 0.512 59.018 0.857 -30.828 0.857 -30.828 0.512 59.018
12604.042 0.513 58.962 0.857 -30.885 0.857 -30.885 0.513 58.962
12629 0.514 58.905 0.856 -30.942 0.856 -30.942 0.514 58.905
12653.958 0.515 58.849 0.856 -30.999 0.856 -30.999 0.515 58.849
12678.917 0.516 58.793 0.855 -31.055 0.855 -31.055 0.516 58.793
12703.875 0.517 58.737 0.855 -31.112 0.855 -31.112 0.517 58.737
12728.833 0.518 58.68 0.854 -31.168 0.854 -31.168 0.518 58.68
12753.792 0.518 58.624 0.854 -31.224 0.854 -31.224 0.518 58.624
12778.75 0.519 58.569 0.853 -31.281 0.853 -31.281 0.519 58.569
12803.708 0.52 58.513 0.853 -31.337 0.853 -31.337 0.52 58.513
12828.667 0.521 58.457 0.852 -31.393 0.852 -31.393 0.521 58.457
12853.625 0.522 58.401 0.852 -31.449 0.852 -31.449 0.522 58.401
12878.583 0.523 58.346 0.851 -31.505 0.851 -31.505 0.523 58.346
12903.542 0.523 58.29 0.851 -31.561 0.851 -31.561 0.523 58.29
12928.5 0.524 58.235 0.85 -31.617 0.85 -31.617 0.524 58.235
12953.458 0.525 58.179 0.85 -31.672 0.85 -31.672 0.525 58.179
12978.417 0.526 58.124 0.849 -31.728 0.849 -31.728 0.526 58.124
13003.375 0.527 58.069 0.849 -31.783 0.849 -31.783 0.527 58.069
13028.333 0.528 58.014 0.848 -31.839 0.848 -31.839 0.528 58.014
13053.292 0.528 57.959 0.848 -31.894 0.848 -31.894 0.528 57.959
13078.25 0.529 57.904 0.847 -31.95 0.847 -31.95 0.529 57.904
13103.208 0.53 57.849 0.847 -32.005 0.847 -32.005 0.53 57.849
13128.167 0.531 57.794 0.846 -32.06 0.846 -32.06 0.531 57.794
13153.125 0.532 57.739 0.846 -32.115 0.846 -32.115 0.532 57.739
13178.083 0.532 57.684 0.845 -32.17 0.845 -32.17 0.532 57.684
13203.042 0.533 57.63 0.845 -32.225 0.845 -32.225 0.533 57.63
13228 0.534 57.575 0.844 -32.28 0.844 -32.28 0.534 57.575
13252.958 0.535 57.521 0.844 -32.335 0.844 -32.335 0.535 57.521
13277.917 0.536 57.466 0.843 -32.389 0.843 -32.389 0.536 57.466
13302.875 0.536 57.412 0.843 -32.444 0.843 -32.444 0.536 57.412
13327.833 0.537 57.358 0.842 -32.498 0.842 -32.498 0.537 57.358
13352.792 0.538 57.304 0.842 -32.553 0.842 -32.553 0.538 57.304
13377.75 0.539 57.25 0.841 -32.607 0.841 -32.607 0.539 57.25
13402.708 0.54 57.196 0.841 -32.661 0.841 -32.661 0.54 57.196
13427.667 0.54 57.142 0.84 -32.716 0.84 -32.716 0.54 57.142
13452.625 0.541 57.088 0.84 -32.77 0.84 -32.77 0.541 57.088
13477.583 0.542 57.034 0.839 -32.824 0.839 -32.824 0.542 57.034
13502.542 0.543 56.98 0.838 -32.878 0.838 -32.878 0.543 56.98
13527.5 0.544 56.927 0.838 -32.932 0.838 -32.932 0.544 56.927
13552.458 0.544 56.873 0.837 -32.986 0.837 -32.986 0.544 56.873
13577.417 0.545 56.82 0.837 -33.039 0.837 -33.039 0.545 56.82
13602.375 0.546 56.766 0.836 -33.093 0.836 -33.093 0.546 56.766
13627.333 0.547 56.713 0.836 -33.147 0.836 -33.147 0.547 56.713
13652.292 0.548 56.66 0.835 -33.2 0.835 -33.2 0.548 56.66
13677.25 0.548 56.607 0.835 -33.254 0.835 -33.254 0.548 56.607
13702.208 0.549 56.554 0.834 -33.307 0.834 -33.307 0.549 56.554
13727.167 0.55 56.5 0.834 -33.36 0.834 -33.36 0.55 56.5
13752.125 0.551 56.448 0.833 -33.414 0.833 -33.414 0.551 56.448
13777.083 0.551 56.395 0.833 -33.467 0.833 -33.467 0.551 56.395
13802.042 0.552 56.342 0.832 -33.52 0.832 -33.52 0.552 56.342
13827 0.553 56.289 0.832 -33.573 0.832 -33.573 0.553 56.289
13851.958 0.554 56.236 0.831 -33.626 0.831 -33.626 0.554 56.236
13876.917 0.555 56.184 0.831 -33.679 0.831 -33.679 0.555 56.184
13901.875 0.555 56.131 0.83 -33.732 0.83 -33.732 0.555 56.131
13926.833 0.556 56.079 0.83 -33.784 0.83 -33.784 0.556 56.079
13951.792 0.557 56.027 0.829 -33.837 0.829 -33.837 0.557 56.027
13976.75 0.558 55.974 0.829 -33.889 0.829 -33.889 0.558 55.974
14001.708 0.558 55.922 0.828 -33.942 0.828 -33.942 0.558 55.922
14026.667 0.559 55.87 0.828 -33.994 0.828 -33.994 0.559 55.87
14051.625 0.56 55.818 0.827 -34.047 0.827 -34.047 0.56 55.818
14076.583 0.561 55.766 0.827 -34.099 0.827 -34.099 0.561 55.766
14101.542 0.561 55.714 0.826 -34.151 0.826 -34.151 0.561 55.714
14126.5 0.562 55.662 0.826 -34.203 0.826 -34.203 0.562 55.662
14151.458 0.563 55.61 0.825 -34.255 0.825 -34.255 0.563 55.61
14176.417 0.564 55.558 0.825 -34.307 0.825 -34.307 0.564 55.558
14201.375 0.564 55.507 0.824 -34.359 0.824 -34.359 0.564 55.507
14226.333 0.565 55.455 0.824 -34.411 0.824 -34.411 0.565 55.455
14251.292 0.566 55.404 0.823 -34.463 0.823 -34.463 0.566 55.404
14276.25 0.567 55.352 0.823 -34.514 0.823 -34.514 0.567 55.352
14301.208 0.567 55.301 0.822 -34.566 0.822 -34.566 0.567 55.301
14326.167 0.568 55.25 0.822 -34.618 0.822 -34.618 0.568 55.25
14351.125 0.569 55.198 0.821 -34.669 0.821 -34.669 0.569 55.198
14376.083 0.57 55.147 0.821 -34.721 0.821 -34.721 0.57 55.147
14401.042 0.57 55.096 0.82 -34.772 0.82 -34.772 0.57 55.096
14426 0.571 55.045 0.82 -34.823 0.82 -34.823 0.571 55.045
14450.958 0.572 54.994 0.819 -34.874 0.819 -34.874 0.572 54.994
14475.917 0.573 54.943 0.819 -34.925 0.819 -34.925 0.573 54.943
14500.875 0.573 54.893 0.818 -34.976 0.818 -34.976 0.573 54.893
14525.833 0.574 54.842 0.818 -35.027 0.818 -35.027 0.574 54.842
14550.792 0.575 54.791 0.817 -35.078 0.817 -35.078 0.575 54.791
14575.75 0.575 54.741 0.817 -35.129 0.817 -35.129 0.575 54.741
14600.708 0.576 54.69 0.816 -35.18 0.816 -35.18 0.576 54.69
14625.667 0.577 54.64 0.816 -35.231 0.816 -35.231 0.577 54.64
14650.625 0.578 54.589 0.815 -35.281 0.815 -35.281 0.578 54.589
14675.583 0.578 54.539 0.815 -35.332 0.815 -35.332 0.578 54.539
14700.542 0.579 54.489 0.814 -35.382 0.814 -35.382 0.579 54.489
14725.5 0.58 54.439 0.813 -35.433 0.813 -35.433 0.58 54.439
14750.458 0.58 54.389 0.813 -35.483 0.813 -35.483 0.58 54.389
14775.417 0.581 54.339 0.812 -35.533 0.812 -35.533 0.581 54.339
14800.375 0.582 54.289 0.812 -35.583 0.812 -35.583 0.582 54.289
14825.333 0.583 54.239 0.811 -35.633 0.811 -35.633 0.583 54.239
14850.292 0.583 54.189 0.811 -35.683 0.811 -35.683 0.583 54.189
14875.25 0.584 54.139 0.81 -35.733 0.81 -35.733 0.584 54.139
14900.208 0.585 54.09 0.81 -35.783 0.81 -35.783 0.585 54.09
14925.167 0.585 54.04 0.809 -35.833 0.809 -35.833 0.585 54.04
14950.125 0.586 53.99 0.809 -35.883 0.809 -35.883 0.586 53.99
14975.083 0.587 53.941 0.808 -35.933 0.808 -35.933 0.587 53.941
15000.042 0.588 53.892 0.808 -35.982 0.808 -35.982 0.588 53.892
15025 0.588 53.842 0.807 -36.032 0.807 -36.032 0.588 53.842
15049.958 0.589 53.793 0.807 -36.081 0.807 -36.081 0.589 53.793
15074.917 0.59 53.744 0.806 -36.131 0.806 -36.131 0.59 53.744
15099.875 0.59 53.695 0.806 -36.18 0.806 -36.18 0.59 53.695
15124.833 0.591 53.646 0.805 -36.229 0.805 -36.229 0.591 53.646
15149.792 0.592 53.597 0.805 -36.279 0.805 -36.279 0.592 53.597
15174.75 0.592 53.548 0.804 -36.328 0.804 -36.328 0.592 53.548
15199.708 0.593 53.499 0.804 -36.377 0.804 -36.377 0.593 53.499
15224.667 0.594 53.45 0.803 -36.426 0.803 -36.426 0.594 53.45
15249.625 0.594 53.401 0.803 -36.475 0.803 -36.475 0.594 53.401
15274.583 0.595 53.353 0.802 -36.524 0.802 -36.524 0.595 53.353
15299.542 0.596 53.304 0.802 -36.572 0.802 -36.572 0.596 53.304
15324.5 0.597 53.256 0.801 -36.621 0.801 -36.621 0.597 53.256
15349.458 0.597 53.207 0.801 -36.67 0.801 -36.67 0.597 53.207
15374.417 0.598 53.159 0.8 -36.718 0.8 -36.718 0.598 53.159
15399.375 0.599 53.111 0.8 -36.767 0.8 -36.767 0.599 53.111
15424.333 0.599 53.062 0.799 -36.815 0.799 -36.815 0.599 53.062
15449.292 0.6 53.014 0.799 -36.864 0.799 -36.864 0.6 53.014
15474.25 0.601 52.966 0.798 -36.912 0.798 -36.912 0.601 52.966
15499.208 0.601 52.918 0.798 -36.96 0.798 -36.96 0.601 52.918
15524.167 0.602 52.87 0.797 -37.009 0.797 -37.009 0.602 52.87
15549.125 0.603 52.822 0.797 -37.057 0.797 -37.057 0.603 52.822
15574.083 0.603 52.774 0.796 -37.105 0.796 -37.105 0.603 52.774
15599.042 0.604 52.726 0.796 -37.153 0.796 -37.153 0.604 52.726
15624 0.605 52.679 0.795 -37.201 0.795 -37.201 0.605 52.679
15648.958 0.605 52.631 0.795 -37.248 0.795 -37.248 0.605 52.631
15673.917 0.606 52.584 0.794 -37.296 0.794 -37.296 0.606 52.584
15698.875 0.607 52.536 0.794 -37.344 0.794 -37.344 0.607 52.536
15723.833 0.607 52.489 0.793 -37.392 0.793 -37.392 0.607 52.489
15748.792 0.608 52.441 0.793 -37.439 0.793 -37.439 0.608 52.441
15773.75 0.609 52.394 0.792 -37.487 0.792 -37.487 0.609 52.394
15798.708 0.609 52.347 0.792 -37.534 0.792 -37.534 0.609 52.347
15823.667 0.61 52.299 0.791 -37.582 0.791 -37.582 0.61 52.299
15848.625 0.611 52.252 0.791 -37.629 0.791 -37.629 0.611 52.252
15873.583 0.611 52.205 0.79 -37.676 0.79 -37.676 0.611 52.205
15898.542 0.612 52.158 0.79 -37.723 0.79 -37.723 0.612 52.158
15923.5 0.613 52.111 0.789 -37.77 0.789 -37.77 0.613 52.111
15948.458 0.613 52.064 0.789 -37.818 0.789 -37.818 0.613 52.064
15973.417 0.614 52.018 0.788 -37.865 0.788 -37.865 0.614 52.018
15998.375 0.614 51.971 0.788 -37.911 0.788 -37.911 0.614 51.971
16023.333 0.615 51.924 0.787 -37.958 0.787 -37.958 0.615 51.924
16048.292 0.616 51.878 0.787 -38.005 0.787 -38.005 0.616 51.878
16073.25 0.616 51.831 0.786 -38.052 0.786 -38.052 0.616 51.831
16098.208 0.617 51.785 0.786 -38.099 0.786 -38.099 0.617 51.785
16123.167 0.618 51.738 0.785 -38.145 0.785 -38.145 0.618 51.738
16148.125 0.618 51.692 0.785 -38.192 0.785 -38.192 0.618 51.692
16173.083 0.619 51.646 0.784 -38.238 0.784 -38.238 0.619 51.646
16198.042 0.62 51.599 0.784 -38.285 0.784 -38.285 0.62 51.599
16223 0.62 51.553 0.783 -38.331 0.783 -38.331 0.62 51.553
16247.958 0.621 51.507 0.783 -38.377 0.783 -38.377 0.621 51.507
16272.917 0.621 51.461 0.782 -38.423 0.782 -38.423 0.621 51.461
16297.875 0.622 51.415 0.782 -38.47 0.782 -38.47 0.622 51.415
16322.833 0.623 51.369 0.781 -38.516 0.781 -38.516 0.623 51.369
16347.792 0.623 51.323 0.781 -38.562 0.781 -38.562 0.623 51.323
16372.75 0.624 51.278 0.78 -38.608 0.78 -38.608 0.624 51.278
16397.708 0.625 51.232 0.78 -38.654 0.78 -38.654 0.625 51.232
16422.667 0.625 51.186 0.779 -38.699 0.779 -38.699 0.625 51.186
16447.625 0.626 51.141 0.779 -38.745 0.779 -38.745 0.626 51.141
16472.583 0.626 51.095 0.778 -38.791 0.778 -38.791 0.626 51.095
16497.542 0.627 51.05 0.778 -38.836 0.778 -38.836 0.627 51.05
16522.5 0.628 51.004 0.777 -38.882 0.777 -38.882 0.628 51.004
16547.458 0.628 50.959 0.777 -38.928 0.777 -38.928 0.628 50.959
16572.417 0.629 50.914 0.776 -38.973 0.776 -38.973 0.629 50.914
16597.375 0.63 50.869 0.776 -39.018 0.776 -39.018 0.63 50.869
16622.333 0.63 50.823 0.775 -39.064 0.775 -39.064 0.63 50.823
16647.292 0.631 50.778 0.775 -39.109 0.775 -39.109 0.631 50.778
16672.25 0.631 50.733 0.774 -39.154 0.774 -39.154 0.631 50.733
16697.208 0.632 50.688 0.774 -39.199 0.774 -39.199 0.632 50.688
16722.167 0.633 50.644 0.773 -39.244 0.773 -39.244 0.633 50.644
16747.125 0.633 50.599 0.773 -39.289 0.773 -39.289 0.633 50.599
16772.083 0.634 50.554 0.772 -39.334 0.772 -39.334 0.634 50.554
16797.042 0.634 50.509 0.772 -39.379 0.772 -39.379 0.634 50.509
16822 0.635 50.465 0.771 -39.424 0.771 -39.424 0.635 50.465
16846.958 0.636 50.42 0.771 -39.469 0.771 -39.469 0.636 50.42
16871.917 0.636 50.375 0.77 -39.514 0.77 -39.514 0.636 50.375
16896.875 0.637 50.331 0.77 -39.558 0.77 -39.558 0.637 50.331
16921.833 0.637 50.287 0.769 -39.603 0.769 -39.603 0.637 50.287
16946.792 0.638 50.242 0.769 -39.647 0.769 -39.647 0.638 50.242
16971.75 0.639 50.198 0.768 -39.692 0.768 -39.692 0.639 50.198
16996.708 0.639 50.154 0.768 -39.736 0.768 -39.736 0.639 50.154
17021.667 0.64 50.11 0.767 -39.78 0.767 -39.78 0.64 50.11
17046.625 0.64 50.066 0.767 -39.825 0.767 -39.825 0.64 50.066
17071.583 0.641 50.021 0.766 -39.869 0.766 -39.869 0.641 50.021
17096.542 0.642 49.977 0.766 -39.913 0.766 -39.913 0.642 49.977
17121.5 0.642 49.934 0.765 -39.957 0.765 -39.957 0.642 49.934
17146.458 0.643 49.89 0.765 -40.001 0.765 -40.001 0.643 49.89
17171.417 0.643 49.846 0.764 -40.045 0.764 -40.045 0.643 49.846
17196.375 0.644 49.802 0.764 -40.089 0.764 -40.089 0.644 49.802
17221.333 0.645 49.759 0.763 -40.133 0.763 -40.133 0.645 49.759
17246.292 0.645 49.715 0.763 -40.177 0.763 -40.177 0.645 49.715
17271.25 0.646 49.671 0.762 -40.22 0.762 -40.22 0.646 49.671
17296.208 0.646 49.628 0.762 -40.264 0.762 -40.264 0.646 49.628
17321.167 0.647 49.584 0.761 -40.308 0.761 -40.308 0.647 49.584
17346.125 0.647 49.541 0.761 -40.351 0.761 -40.351 0.647 49.541
17371.083 0.648 49.498 0.76 -40.395 0.76 -40.395 0.648 49.498
17396.042 0.649 49.455 0.76 -40.438 0.76 -40.438 0.649 49.455
17421 0.649 49.411 0.759 -40.481 0.759 -40.481 0.649 49.411
17445.958 0.65 49.368 0.759 -40.525 0.759 -40.525 0.65 49.368
17470.917 0.65 49.325 0.758 -40.568 0.758 -40.568 0.65 49.325
17495.875 0.651 49.282 0.758 -40.611 0.758 -40.611 0.651 49.282
17520.833 0.651 49.239 0.757 -40.654 0.757 -40.654 0.651 49.239
17545.792 0.652 49.196 0.757 -40.697 0.757 -40.697 0.652 49.196
17570.75 0.653 49.153 0.756 -40.74 0.756 -40.74 0.653 49.153
17595.708 0.653 49.111 0.756 -40.783 0.756 -40.783 0.653 49.111
17620.667 0.654 49.068 0.755 -40.826 0.755 -40.826 0.654 49.068
17645.625 0.654 49.025 0.755 -40.869 0.755 -40.869 0.654 49.025
17670.583 0.655 48.983 0.755 -40.912 0.755 -40.912 0.655 48.983
17695.542 0.655 48.94 0.754 -40.954 0.754 -40.954 0.655 48.94
17720.5 0.656 48.898 0.754 -40.997 0.754 -40.997 0.656 48.898
17745.458 0.657 48.855 0.753 -41.04 0.753 -41.04 0.657 48.855
17770.417 0.657 48.813 0.753 -41.082 0.753 -41.082 0.657 48.813
17795.375 0.658 48.77 0.752 -41.125 0.752 -41.125 0.658 48.77
17820.333 0.658 48.728 0.752 -41.167 0.752 -41.167 0.658 48.728
17845.292 0.659 48.686 0.751 -41.209 0.751 -41.209 0.659 48.686
17870.25 0.659 48.644 0.751 -41.252 0.751 -41.252 0.659 48.644
17895.208 0.66 48.602 0.75 -41.294 0.75 -41.294 0.66 48.602
17920.167 0.66 48.56 0.75 -41.336 0.75 -41.336 0.66 48.56
17945.125 0.661 48.518 0.749 -41.378 0.749 -41.378 0.661 48.518
17970.083 0.662 48.476 0.749 -41.42 0.749 -41.42 0.662 48.476
17995.042 0.662 48.434 0.748 -41.462 0.748 -41.462 0.662 48.434
18020 0.663 48.392 0.748 -41.504 0.748 -41.504 0.663 48.392
18044.958 0.663 48.351 0.747 -41.546 0.747 -41.546 0.663 48.351
18069.917 0.664 48.309 0.747 -41.588 0.747 -41.588 0.664 48.309
18094.875 0.664 48.267 0.746 -41.63 0.746 -41.63 0.664 48.267
18119.833 0.665 48.226 0.746 -41.671 0.746 -41.671 0.665 48.226
18144.792 0.665 48.184 0.745 -41.713 0.745 -41.713 0.665 48.184
18169.75 0.666 48.143 0.745 -41.755 0.745 -41.755 0.666 48.143
18194.708 0.666 48.101 0.744 -41.796 0.744 -41.796 0.666 48.101
18219.667 0.667 48.06 0.744 -41.838 0.744 -41.838 0.667 48.06
18244.625 0.668 48.019 0.743 -41.879 0.743 -41.879 0.668 48.019
18269.583 0.668 47.978 0.743 -41.92 0.743 -41.92 0.668 47.978
18294.542 0.669 47.936 0.742 -41.962 0.742 -41.962 0.669 47.936
18319.5 0.669 47.895 0.742 -42.003 0.742 -42.003 0.669 47.895
18344.458 0.67 47.854 0.741 -42.044 0.741 -42.044 0.67 47.854
18369.417 0.67 47.813 0.741 -42.085 0.741 -42.085 0.67 47.813
18394.375 0.671 47.772 0.74 -42.126 0.74 -42.126 0.671 47.772
18419.333 0.671 47.731 0.74 -42.168 0.74 -42.168 0.671 47.731
18444.292 0.672 47.691 0.74 -42.208 0.74 -42.208 0.672 47.691
18469.25 0.672 47.65 0.739 -42.249 0.739 -42.249 0.672 47.65
18494.208 0.673 47.609 0.739 -42.29 0.739 -42.29 0.673 47.609
18519.167 0.673 47.568 0.738 -42.331 0.738 -42.331 0.673 47.568
18544.125 0.674 47.528 0.738 -42.372 0.738 -42.372 0.674 47.528
18569.083 0.674 47.487 0.737 -42.413 0.737 -42.413 0.674 47.487
18594.042 0.675 47.447 0.737 -42.453 0.737 -42.453 0.675 47.447
18619 0.676 47.406 0.736 -42.494 0.736 -42.494 0.676 47.406
18643.958 0.676 47.366 0.736 -42.534 0.736 -42.534 0.676 47.366
18668.917 0.677 47.326 0.735 -42.575 0.735 -42.575 0.677 47.326
18693.875 0.677 47.285 0.735 -42.615 0.735 -42.615 0.677 47.285
18718.833 0.678 47.245 0.734 -42.656 0.734 -42.656 0.678 47.245
18743.792 0.678 47.205 0.734 -42.696 0.734 -42.696 0.678 47.205
18768.75 0.679 47.165 0.733 -42.736 0.733 -42.736 0.679 47.165
18793.708 0.679 47.125 0.733 -42.776 0.733 -42.776 0.679 47.125
18818.667 0.68 47.085 0.732 -42.816 0.732 -42.816 0.68 47.085
18843.625 0.68 47.045 0.732 -42.856 0.732 -42.856 0.68 47.045
18868.583 0.681 47.005 0.731 -42.897 0.731 -42.897 0.681 47.005
18893.542 0.681 46.965 0.731 -42.936 0.731 -42.936 0.681 46.965
18918.5 0.682 46.925 0.73 -42.976 0.73 -42.976 0.682 46.925
18943.458 0.682 46.886 0.73 -43.016 0.73 -43.016 0.682 46.886
18968.417 0.683 46.846 0.73 -43.056 0.73 -43.056 0.683 46.846
18993.375 0.683 46.806 0.729 -43.096 0.729 -43.096 0.683 46.806
19018.333 0.684 46.767 0.729 -43.136 0.729 -43.136 0.684 46.767
19043.292 0.684 46.727 0.728 -43.175 0.728 -43.175 0.684 46.727
19068.25 0.685 46.688 0.728 -43.215 0.728 -43.215 0.685 46.688
19093.208 0.685 46.648 0.727 -43.254 0.727 -43.254 0.685 46.648
19118.167 0.686 46.609 0.727 -43.294 0.727 -43.294 0.686 46.609
19143.125 0.686 46.57 0.726 -43.333 0.726 -43.333 0.686 46.57
19168.083 0.687 46.53 0.726 -43.373 0.726 -43.373 0.687 46.53
19193.042 0.687 46.491 0.725 -43.412 0.725 -43.412 0.687 46.491
19218 0.688 46.452 0.725 -43.451 0.725 -43.451 0.688 46.452
19242.958 0.688 46.413 0.724 -43.49 0.724 -43.49 0.688 46.413
19267.917 0.689 46.374 0.724 -43.53 0.724 -43.53 0.689 46.374
19292.875 0.689 46.335 0.723 -43.569 0.723 -43.569 0.689 46.335
19317.833 0.69 46.296 0.723 -43.608 0.723 -43.608 0.69 46.296
19342.792 0.69 46.257 0.722 -43.647 0.722 -43.647 0.69 46.257
19367.75 0.691 46.218 0.722 -43.686 0.722 -43.686 0.691 46.218
19392.708 0.691 46.18 0.722 -43.725 0.722 -43.725 0.691 46.18
19417.667 0.692 46.141 0.721 -43.763 0.721 -43.763 0.692 46.141
19442.625 0.692 46.102 0.721 -43.802 0.721 -43.802 0.692 46.102
19467.583 0.693 46.064 0.72 -43.841 0.72 -43.841 0.693 46.064
19492.542 0.693 46.025 0.72 -43.88 0.72 -43.88 0.693 46.025
19517.5 0.694 45.987 0.719 -43.918 0.719 -43.918 0.694 45.987
19542.458 0.694 45.948 0.719 -43.957 0.719 -43.957 0.694 45.948
19567.417 0.695 45.91 0.718 -43.995 0.718 -43.995 0.695 45.91
19592.375 0.695 45.871 0.718 -44.034 0.718 -44.034 0.695 45.871
19617.333 0.696 45.833 0.717 -44.072 0.717 -44.072 0.696 45.833
19642.292 0.696 45.795 0.717 -44.111 0.717 -44.111 0.696 45.795
19667.25 0.697 45.757 0.716 -44.149 0.716 -44.149 0.697 45.757
19692.208 0.697 45.719 0.716 -44.187 0.716 -44.187 0.697 45.719
19717.167 0.697 45.68 0.715 -44.225 0.715 -44.225 0.697 45.68
19742.125 0.698 45.642 0.715 -44.264 0.715 -44.264 0.698 45.642
19767.083 0.698 45.604 0.715 -44.302 0.715 -44.302 0.698 45.604
19792.042 0.699 45.567 0.714 -44.34 0.714 -44.34 0.699 45.567
19817 0.699 45.529 0.714 -44.378 0.714 -44.378 0.699 45.529
19841.958 0.7 45.491 0.713 -44.416 0.713 -44.416 0.7 45.491
19866.917 0.7 45.453 0.713 -44.454 0.713 -44.454 0.7 45.453
19891.875 0.701 45.415 0.712 -44.491 0.712 -44.491 0.701 45.415
19916.833 0.701 45.378 0.712 -44.529 0.712 -44.529 0.701 45.378
19941.792 0.702 45.34 0.711 -44.567 0.711 -44.567 0.702 45.34
19966.75 0.702 45.302 0.711 -44.605 0.711 -44.605 0.702 45.302
19991.708 0.703 45.265 0.71 -44.642 0.71 -44.642 0.703 45.265
20016.667 0.703 45.227 0.71 -44.68 0.71 -44.68 0.703 45.227
20041.625 0.704 45.19 0.709 -44.717 0.709 -44.717 0.704 45.19
20066.583 0.704 45.153 0.709 -44.755 0.709 -44.755 0.704 45.153
20091.542 0.705 45.115 0.709 -44.792 0.709 -44.792 0.705 45.115
20116.5 0.705 45.078 0.708 -44.83 0.708 -44.83 0.705 45.078
20141.458 0.705 45.041 0.708 -44.867 0.708 -44.867 0.705 45.041
20166.417 0.706 45.004 0.707 -44.904 0.707 -44.904 0.706 45.004
20191.375 0.706 44.967 0.707 -44.942 0.707 -44.942 0.706 44.967
20216.333 0.707 44.929 0.706 -44.979 0.706 -44.979 0.707 44.929
20241.292 0.707 44.892 0.706 -45.016 0.706 -45.016 0.707 44.892
20266.25 0.708 44.856 0.705 -45.053 0.705 -45.053 0.708 44.856
20291.208 0.708 44.819 0.705 -45.09 0.705 -45.09 0.708 44.819
20316.167 0.709 44.782 0.704 -45.127 0.704 -45.127 0.709 44.782
20341.125 0.709 44.745 0.704 -45.164 0.704 -45.164 0.709 44.745
20366.083 0.71 44.708 0.703 -45.201 0.703 -45.201 0.71 44.708
20391.042 0.71 44.671 0.703 -45.238 0.703 -45.238 0.71 44.671
20416 0.71 44.635 0.703 -45.275 0.703 -45.275 0.71 44.635
20440.958 0.711 44.598 0.702 -45.311 0.702 -45.311 0.711 44.598
20465.917 0.711 44.562 0.702 -45.348 0.702 -45.348 0.711 44.562
20490.875 0.712 44.525 0.701 -45.385 0.701 -45.385 0.712 44.525
20515.833 0.712 44.489 0.701 -45.421 0.701 -45.421 0.712 44.489
20540.792 0.713 44.452 0.7 -45.458 0.7 -45.458 0.713 44.452
20565.75 0.713 44.416 0.7 -45.494 0.7 -45.494 0.713 44.416
20590.708 0.714 44.379 0.699 -45.531 0.699 -45.531 0.714 44.379
20615.667 0.714 44.343 0.699 -45.567 0.699 -45.567 0.714 44.343
20640.625 0.715 44.307 0.699 -45.603 0.699 -45.603 0.715 44.307
20665.583 0.715 44.271 0.698 -45.64 0.698 -45.64 0.715 44.271
20690.542 0.715 44.235 0.698 -45.676 0.698 -45.676 0.715 44.235
20715.5 0.716 44.199 0.697 -45.712 0.697 -45.712 0.716 44.199
20740.458 0.716 44.162 0.697 -45.748 0.697 -45.748 0.716 44.162
20765.417 0.717 44.127 0.696 -45.784 0.696 -45.784 0.717 44.127
20790.375 0.717 44.091 0.696 -45.82 0.696 -45.82 0.717 44.091
20815.333 0.718 44.055 0.695 -45.856 0.695 -45.856 0.718 44.055
20840.292 0.718 44.019 0.695 -45.892 0.695 -45.892 0.718 44.019
20865.25 0.718 43.983 0.694 -45.928 0.694 -45.928 0.718 43.983
20890.208 0.719 43.947 0.694 -45.964 0.694 -45.964 0.719 43.947
20915.167 0.719 43.912 0.694 -46 0.694 -46 0.719 43.912
20940.125 0.72 43.876 0.693 -46.036 0.693 -46.036 0.72 43.876
20965.083 0.72 43.84 0.693 -46.071 0.693 -46.071 0.72 43.84
20990.042 0.721 43.805 0.692 -46.107 0.692 -46.107 0.721 43.805
21015 0.721 43.769 0.692 -46.143 0.692 -46.143 0.721 43.769
21039.958 0.721 43.734 0.691 -46.178 0.691 -46.178 0.721 43.734
21064.917 0.722 43.698 0.691 -46.214 0.691 -46.214 0.722 43.698
21089.875 0.722 43.663 0.69 -46.249 0.69 -46.249 0.722 43.663
21114.833 0.723 43.628 0.69 -46.285 0.69 -46.285 0.723 43.628
21139.792 0.723 43.593 0.69 -46.32 0.69 -46.32 0.723 43.593
21164.75 0.724 43.557 0.689 -46.355 0.689 -46.355 0.724 43.557
21189.708 0.724 43.522 0.689 -46.391 0.689 -46.391 0.724 43.522
21214.667 0.724 43.487 0.688 -46.426 0.688 -46.426 0.724 43.487
21239.625 0.725 43.452 0.688 -46.461 0.688 -46.461 0.725 43.452
21264.583 0.725 43.417 0.687 -46.496 0.687 -46.496 0.725 43.417
21289.542 0.726 43.382 0.687 -46.531 0.687 -46.531 0.726 43.382
21314.5 0.726 43.347 0.686 -46.566 0.686 -46.566 0.726 43.347
21339.458 0.727 43.312 0.686 -46.601 0.686 -46.601 0.727 43.312
21364.417 0.727 43.277 0.686 -46.636 0.686 -46.636 0.727 43.277
21389.375 0.727 43.242 0.685 -46.671 0.685 -46.671 0.727 43.242
21414.333 0.728 43.208 0.685 -46.706 0.685 -46.706 0.728 43.208
21439.292 0.728 43.173 0.684 -46.741 0.684 -46.741 0.728 43.173
21464.25 0.729 43.138 0.684 -46.776 0.684 -46.776 0.729 43.138
21489.208 0.729 43.104 0.683 -46.81 0.683 -46.81 0.729 43.104
21514.167 0.73 43.069 0.683 -46.845 0.683 -46.845 0.73 43.069
21539.125 0.73 43.035 0.682 -46.88 0.682 -46.88 0.73 43.035
21564.083 0.73 43 0.682 -46.914 0.682 -46.914 0.73 43
21589.042 0.731 42.966 0.682 -46.949 0.682 -46.949 0.731 42.966
21614 0.731 42.931 0.681 -46.983 0.681 -46.983 0.731 42.931
21638.958 0.732 42.897 0.681 -47.018 0.681 -47.018 0.732 42.897
21663.917 0.732 42.863 0.68 -47.052 0.68 -47.052 0.732 42.863
21688.875 0.732 42.828 0.68 -47.086 0.68 -47.086 0.732 42.828
21713.833 0.733 42.794 0.679 -47.121 0.679 -47.121 0.733 42.794
21738.792 0.733 42.76 0.679 -47.155 0.679 -47.155 0.733 42.76
21763.75 0.734 42.726 0.678 -47.189 0.678 -47.189 0.734 42.726
21788.708 0.734 42.692 0.678 -47.223 0.678 -47.223 0.734 42.692
21813.667 0.734 42.658 0.678 -47.257 0.678 -47.257 0.734 42.658
21838.625 0.735 42.624 0.677 -47.292 0.677 -47.292 0.735 42.624
21863.583 0.735 42.59 0.677 -47.326 0.677 -47.326 0.735 42.59
21888.542 0.736 42.556 0.676 -47.36 0.676 -47.36 0.736 42.556
21913.5 0.736 42.522 0.676 -47.393 0.676 -47.393 0.736 42.522
21938.458 0.736 42.489 0.675 -47.427 0.675 -47.427 0.736 42.489
21963.417 0.737 42.455 0.675 -47.461 0.675 -47.461 0.737 42.455
21988.375 0.737 42.421 0.675 -47.495 0.675 -47.495 0.737 42.421
22013.333 0.738 42.387 0.674 -47.529 0.674 -47.529 0.738 42.387
22038.292 0.738 42.354 0.674 -47.562 0.674 -47.562 0.738 42.354
22063.25 0.738 42.32 0.673 -47.596 0.673 -47.596 0.738 42.32
22088.208 0.739 42.287 0.673 -47.63 0.673 -47.63 0.739 42.287
22113.167 0.739 42.253 0.672 -47.663 0.672 -47.663 0.739 42.253
22138.125 0.74 42.22 0.672 -47.697 0.672 -47.697 0.74 42.22
22163.083 0.74 42.186 0.672 -47.73 0.672 -47.73 0.74 42.186
22188.042 0.74 42.153 0.671 -47.764 0.671 -47.764 0.74 42.153
22213 0.741 42.12 0.671 -47.797 0.671 -47.797 0.741 42.12
22237.958 0.741 42.086 0.67 -47.831 0.67 -47.831 0.741 42.086
22262.917 0.742 42.053 0.67 -47.864 0.67 -47.864 0.742 42.053
22287.875 0.742 42.02 0.669 -47.897 0.669 -47.897 0.742 42.02
22312.833 0.742 41.987 0.669 -47.93 0.669 -47.93 0.742 41.987
22337.792 0.743 41.954 0.669 -47.964 0.669 -47.964 0.743 41.954
22362.75 0.743 41.921 0.668 -47.997 0.668 -47.997 0.743 41.921
22387.708 0.743 41.888 0.668 -48.03 0.668 -48.03 0.743 41.888
22412.667 0.744 41.855 0.667 -48.063 0.667 -48.063 0.744 41.855
22437.625 0.744 41.822 0.667 -48.096 0.667 -48.096 0.744 41.822
22462.583 0.745 41.789 0.666 -48.129 0.666 -48.129 0.745 41.789
22487.542 0.745 41.756 0.666 -48.162 0.666 -48.162 0.745 41.756
22512.5 0.745 41.724 0.666 -48.195 0.666 -48.195 0.745 41.724
22537.458 0.746 41.691 0.665 -48.227 0.665 -48.227 0.746 41.691
22562.417 0.746 41.658 0.665 -48.26 0.665 -48.26 0.746 41.658
22587.375 0.747 41.626 0.664 -48.293 0.664 -48.293 0.747 41.626
22612.333 0.747 41.593 0.664 -48.326 0.664 -48.326 0.747 41.593
22637.292 0.747 41.56 0.663 -48.358 0.663 -48.358 0.747 41.56
22662.25 0.748 41.528 0.663 -48.391 0.663 -48.391 0.748 41.528
22687.208 0.748 41.495 0.663 -48.423 0.663 -48.423 0.748 41.495
22712.167 0.748 41.463 0.662 -48.456 0.662 -48.456 0.748 41.463
22737.125 0.749 41.431 0.662 -48.488 0.662 -48.488 0.749 41.431
22762.083 0.749 41.398 0.661 -48.521 0.661 -48.521 0.749 41.398
22787.042 0.75 41.366 0.661 -48.553 0.661 -48.553 0.75 41.366
22812 0.75 41.334 0.66 -48.586 0.66 -48.586 0.75 41.334
22836.958 0.75 41.301 0.66 -48.618 0.66 -48.618 0.75 41.301
22861.917 0.751 41.269 0.66 -48.65 0.66 -48.65 0.751 41.269
22886.875 0.751 41.237 0.659 -48.682 0.659 -48.682 0.751 41.237
22911.833 0.751 41.205 0.659 -48.715 0.659 -48.715 0.751 41.205
22936.792 0.752 41.173 0.658 -48.747 0.658 -48.747 0.752 41.173
22961.75 0.752 41.141 0.658 -48.779 0.658 -48.779 0.752 41.141
22986.708 0.753 41.109 0.657 -48.811 0.657 -48.811 0.753 41.109
23011.667 0.753 41.077 0.657 -48.843 0.657 -48.843 0.753 41.077
23036.625 0.753 41.045 0.657 -48.875 0.657 -48.875 0.753 41.045
23061.583 0.754 41.013 0.656 -48.907 0.656 -48.907 0.754 41.013
23086.542 0.754 40.982 0.656 -48.939 0.656 -48.939 0.754 40.982
23111.5 0.754 40.95 0.655 -48.97 0.655 -48.97 0.754 40.95
23136.458 0.755 40.918 0.655 -49.002 0.655 -49.002 0.755 40.918
23161.417 0.755 40.886 0.655 -49.034 0.655 -49.034 0.755 40.886
23186.375 0.755 40.855 0.654 -49.066 0.654 -49.066 0.755 40.855
23211.333 0.756 40.823 0.654 -49.097 0.654 -49.097 0.756 40.823
23236.292 0.756 40.792 0.653 -49.129 0.653 -49.129 0.756 40.792
23261.25 0.757 40.76 0.653 -49.161 0.653 -49.161 0.757 40.76
23286.208 0.757 40.729 0.652 -49.192 0.652 -49.192 0.757 40.729
23311.167 0.757 40.697 0.652 -49.224 0.652 -49.224 0.757 40.697
23336.125 0.758 40.666 0.652 -49.255 0.652 -49.255 0.758 40.666
23361.083 0.758 40.635 0.651 -49.287 0.651 -49.287 0.758 40.635
23386.042 0.758 40.603 0.651 -49.318 0.651 -49.318 0.758 40.603
23411 0.759 40.572 0.65 -49.349 0.65 -49.349 0.759 40.572
23435.958 0.759 40.541 0.65 -49.381 0.65 -49.381 0.759 40.541
23460.917 0.759 40.51 0.65 -49.412 0.65 -49.412 0.759 40.51
23485.875 0.76 40.478 0.649 -49.443 0.649 -49.443 0.76 40.478
23510.833 0.76 40.447 0.649 -49.474 0.649 -49.474 0.76 40.447
23535.792 0.76 40.416 0.648 -49.505 0.648 -49.505 0.76 40.416
23560.75 0.761 40.385 0.648 -49.537 0.648 -49.537 0.761 40.385
23585.708 0.761 40.354 0.648 -49.568 0.648 -49.568 0.761 40.354
23610.667 0.762 40.323 0.647 -49.599 0.647 -49.599 0.762 40.323
23635.625 0.762 40.292 0.647 -49.63 0.647 -49.63 0.762 40.292
23660.583 0.762 40.262 0.646 -49.661 0.646 -49.661 0.762 40.262
23685.542 0.763 40.231 0.646 -49.691 0.646 -49.691 0.763 40.231
23710.5 0.763 40.2 0.645 -49.722 0.645 -49.722 0.763 40.2
23735.458 0.763 40.169 0.645 -49.753 0.645 -49.753 0.763 40.169
23760.417 0.764 40.139 0.645 -49.784 0.645 -49.784 0.764 40.139
23785.375 0.764 40.108 0.644 -49.815 0.644 -49.815 0.764 40.108
23810.333 0.764 40.077 0.644 -49.845 0.644 -49.845 0.764 40.077
23835.292 0.765 40.047 0.643 -49.876 0.643 -49.876 0.765 40.047
23860.25 0.765 40.016 0.643 -49.907 0.643 -49.907 0.765 40.016
23885.208 0.765 39.986 0.643 -49.937 0.643 -49.937 0.765 39.986
23910.167 0.766 39.955 0.642 -49.968 0.642 -49.968 0.766 39.955
23935.125 0.766 39.925 0.642 -49.998 0.642 -49.998 0.766 39.925
23960.083 0.766 39.895 0.641 -50.029 0.641 -50.029 0.766 39.895
23985.042 0.767 39.864 0.641 -50.059 0.641 -50.059 0.767 39.864
24010 0.767 39.834 0.641 -50.089 0.641 -50.089 0.767 39.834
24034.958 0.767 39.804 0.64 -50.12 0.64 -50.12 0.767 39.804
24059.917 0.768 39.773 0.64 -50.15 0.64 -50.15 0.768 39.773
24084.875 0.768 39.743 0.639 -50.18 0.639 -50.18 0.768 39.743
24109.833 0.768 39.713 0.639 -50.211 0.639 -50.211 0.768 39.713
24134.792 0.769 39.683 0.639 -50.241 0.639 -50.241 0.769 39.683
24159.75 0.769 39.653 0.638 -50.271 0.638 -50.271 0.769 39.653
24184.708 0.769 39.623 0.638 -50.301 0.638 -50.301 0.769 39.623
24209.667 0.77 39.593 0.637 -50.331 0.637 -50.331 0.77 39.593
24234.625 0.77 39.563 0.637 -50.361 0.637 -50.361 0.77 39.563
24259.583 0.77 39.533 0.637 -50.391 0.637 -50.391 0.77 39.533
24284.542 0.771 39.503 0.636 -50.421 0.636 -50.421 0.771 39.503
24309.5 0.771 39.473 0.636 -50.451 0.636 -50.451 0.771 39.473
24334.458 0.771 39.444 0.635 -50.481 0.635 -50.481 0.771 39.444
24359.417 0.772 39.414 0.635 -50.511 0.635 -50.511 0.772 39.414
24384.375 0.772 39.384 0.635 -50.54 0.635 -50.54 0.772 39.384
24409.333 0.772 39.354 0.634 -50.57 0.634 -50.57 0.772 39.354
24434.292 0.773 39.325 0.634 -50.6 0.634 -50.6 0.773 39.325
24459.25 0.773 39.295 0.633 -50.63 0.633 -50.63 0.773 39.295
24484.208 0.773 39.266 0.633 -50.659 0.633 -50.659 0.773 39.266
24509.167 0.774 39.236 0.633 -50.689 0.633 -50.689 0.774 39.236
24534.125 0.774 39.207 0.632 -50.718 0.632 -50.718 0.774 39.207
24559.083 0.774 39.177 0.632 -50.748 0.632 -50.748 0.774 39.177
24584.042 0.775 39.148 0.631 -50.777 0.631 -50.777 0.775 39.148
24609 0.775 39.118 0.631 -50.807 0.631 -50.807 0.775 39.118
24633.958 0.775 39.089 0.631 -50.836 0.631 -50.836 0.775 39.089
24658.917 0.776 39.06 0.63 -50.866 0.63 -50.866 0.776 39.06
24683.875 0.776 39.031 0.63 -50.895 0.63 -50.895 0.776 39.031
24708.833 0.776 39.001 0.629 -50.924 0.629 -50.924 0.776 39.001
24733.792 0.777 38.972 0.629 -50.953 0.629 -50.953 0.777 38.972
24758.75 0.777 38.943 0.629 -50.983 0.629 -50.983 0.777 38.943
24783.708 0.777 38.914 0.628 -51.012 0.628 -51.012 0.777 38.914
24808.667 0.778 38.885 0.628 -51.041 0.628 -51.041 0.778 38.885
24833.625 0.778 38.856 0.627 -51.07 0.627 -51.07 0.778 38.856
24858.583 0.778 38.827 0.627 -51.099 0.627 -51.099 0.778 38.827
24883.542 0.779 38.798 0.627 -51.128 0.627 -51.128 0.779 38.798
24908.5 0.779 38.769 0.626 -51.157 0.626 -51.157 0.779 38.769
24933.458 0.779 38.74 0.626 -51.186 0.626 -51.186 0.779 38.74
24958.417 0.78 38.711 0.625 -51.215 0.625 -51.215 0.78 38.711
24983.375 0.78 38.682 0.625 -51.244 0.625 -51.244 0.78 38.682
25008.333 0.78 38.654 0.625 -51.273 0.625 -51.273 0.78 38.654
25033.292 0.78 38.625 0.624 -51.302 0.624 -51.302 0.78 38.625
25058.25 0.781 38.596 0.624 -51.33 0.624 -51.33 0.781 38.596
25083.208 0.781 38.568 0.623 -51.359 0.623 -51.359 0.781 38.568
25108.167 0.781 38.539 0.623 -51.388 0.623 -51.388 0.781 38.539
25133.125 0.782 38.51 0.623 -51.416 0.623 -51.416 0.782 38.51
25158.083 0.782 38.482 0.622 -51.445 0.622 -51.445 0.782 38.482
25183.042 0.782 38.453 0.622 -51.474 0.622 -51.474 0.782 38.453
25208 0.783 38.425 0.621 -51.502 0.621 -51.502 0.783 38.425
25232.958 0.783 38.396 0.621 -51.531 0.621 -51.531 0.783 38.396
25257.917 0.783 38.368 0.621 -51.559 0.621 -51.559 0.783 38.368
25282.875 0.784 38.34 0.62 -51.588 0.62 -51.588 0.784 38.34
25307.833 0.784 38.311 0.62 -51.616 0.62 -51.616 0.784 38.311
25332.792 0.784 38.283 0.62 -51.644 0.62 -51.644 0.784 38.283
25357.75 0.784 38.255 0.619 -51.673 0.619 -51.673 0.784 38.255
25382.708 0.785 38.227 0.619 -51.701 0.619 -51.701 0.785 38.227
25407.667 0.785 38.198 0.618 -51.729 0.618 -51.729 0.785 38.198
25432.625 0.785 38.17 0.618 -51.758 0.618 -51.758 0.785 38.17
25457.583 0.786 38.142 0.618 -51.786 0.618 -51.786 0.786 38.142
25482.542 0.786 38.114 0.617 -51.814 0.617 -51.814 0.786 38.114
25507.5 0.786 38.086 0.617 -51.842 0.617 -51.842 0.786 38.086
25532.458 0.787 38.058 0.616 -51.87 0.616 -51.87 0.787 38.058
25557.417 0.787 38.03 0.616 -51.898 0.616 -51.898 0.787 38.03
25582.375 0.787 38.002 0.616 -51.926 0.616 -51.926 0.787 38.002
25607.333 0.788 37.974 0.615 -51.954 0.615 -51.954 0.788 37.974
25632.292 0.788 37.946 0.615 -51.982 0.615 -51.982 0.788 37.946
25657.25 0.788 37.919 0.615 -52.01 0.615 -52.01 0.788 37.919
25682.208 0.788 37.891 0.614 -52.038 0.614 -52.038 0.788 37.891
25707.167 0.789 37.863 0.614 -52.066 0.614 -52.066 0.789 37.863
25732.125 0.789 37.835 0.613 -52.093 0.613 -52.093 0.789 37.835
25757.083 0.789 37.808 0.613 -52.121 0.613 -52.121 0.789 37.808
25782.042 0.79 37.78 0.613 -52.149 0.613 -52.149 0.79 37.78
25807 0.79 37.752 0.612 -52.177 0.612 -52.177 0.79 37.752
25831.958 0.79 37.725 0.612 -52.204 0.612 -52.204 0.79 37.725
25856.917 0.79 37.697 0.611 -52.232 0.611 -52.232 0.79 37.697
25881.875 0.791 37.67 0.611 -52.259 0.611 -52.259 0.791 37.67
25906.833 0.791 37.642 0.611 -52.287 0.611 -52.287 0.791 37.642
25931.792 0.791 37.615 0.61 -52.314 0.61 -52.314 0.791 37.615
25956.75 0.792 37.587 0.61 -52.342 0.61 -52.342 0.792 37.587
25981.708 0.792 37.56 0.61 -52.369 0.61 -52.369 0.792 37.56
26006.667 0.792 37.533 0.609 -52.397 0.609 -52.397 0.792 37.533
26031.625 0.793 37.505 0.609 -52.424 0.609 -52.424 0.793 37.505
26056.583 0.793 37.478 0.608 -52.452 0.608 -52.452 0.793 37.478
26081.542 0.793 37.451 0.608 -52.479 0.608 -52.479 0.793 37.451
26106.5 0.793 37.424 0.608 -52.506 0.608 -52.506 0.793 37.424
26131.458 0.794 37.396 0.607 -52.533 0.607 -52.533 0.794 37.396
26156.417 0.794 37.369 0.607 -52.561 0.607 -52.561 0.794 37.369
26181.375 0.794 37.342 0.607 -52.588 0.607 -52.588 0.794 37.342
26206.333 0.795 37.315 0.606 -52.615 0.606 -52.615 0.795 37.315
26231.292 0.795 37.288 0.606 -52.642 0.606 -52.642 0.795 37.288
26256.25 0.795 37.261 0.605 -52.669 0.605 -52.669 0.795 37.261
26281.208 0.795 37.234 0.605 -52.696 0.605 -52.696 0.795 37.234
26306.167 0.796 37.207 0.605 -52.723 0.605 -52.723 0.796 37.207
26331.125 0.796 37.18 0.604 -52.75 0.604 -52.75 0.796 37.18
26356.083 0.796 37.154 0.604 -52.777 0.604 -52.777 0.796 37.154
26381.042 0.797 37.127 0.604 -52.804 0.604 -52.804 0.797 37.127
26406 0.797 37.1 0.603 -52.831 0.603 -52.831 0.797 37.1
26430.958 0.797 37.073 0.603 -52.857 0.603 -52.857 0.797 37.073
26455.917 0.797 37.046 0.602 -52.884 0.602 -52.884 0.797 37.046
26480.875 0.798 37.02 0.602 -52.911 0.602 -52.911 0.798 37.02
26505.833 0.798 36.993 0.602 -52.938 0.602 -52.938 0.798 36.993
26530.792 0.798 36.967 0.601 -52.964 0.601 -52.964 0.798 36.967
26555.75 0.799 36.94 0.601 -52.991 0.601 -52.991 0.799 36.94
26580.708 0.799 36.913 0.601 -53.018 0.601 -53.018 0.799 36.913
26605.667 0.799 36.887 0.6 -53.044 0.6 -53.044 0.799 36.887
26630.625 0.799 36.86 0.6 -53.071 0.6 -53.071 0.799 36.86
26655.583 0.8 36.834 0.599 -53.097 0.599 -53.097 0.8 36.834
26680.542 0.8 36.807 0.599 -53.124 0.599 -53.124 0.8 36.807
26705.5 0.8 36.781 0.599 -53.15 0.599 -53.15 0.8 36.781
26730.458 0.8 36.755 0.598 -53.177 0.598 -53.177 0.8 36.755
26755.417 0.801 36.728 0.598 -53.203 0.598 -53.203 0.801 36.728
26780.375 0.801 36.702 0.598 -53.229 0.598 -53.229 0.801 36.702
26805.333 0.801 36.676 0.597 -53.256 0.597 -53.256 0.801 36.676
26830.292 0.802 36.65 0.597 -53.282 0.597 -53.282 0.802 36.65
26855.25 0.802 36.623 0.597 -53.308 0.597 -53.308 0.802 36.623
26880.208 0.802 36.597 0.596 -53.334 0.596 -53.334 0.802 36.597
26905.167 0.802 36.571 0.596 -53.361 0.596 -53.361 0.802 36.571
26930.125 0.803 36.545 0.595 -53.387 0.595 -53.387 0.803 36.545
26955.083 0.803 36.519 0.595 -53.413 0.595 -53.413 0.803 36.519
26980.042 0.803 36.493 0.595 -53.439 0.595 -53.439 0.803 36.493
27005 0.803 36.467 0.594 -53.465 0.594 -53.465 0.803 36.467
27029.958 0.804 36.441 0.594 -53.491 0.594 -53.491 0.804 36.441
27054.917 0.804 36.415 0.594 -53.517 0.594 -53.517 0.804 36.415
27079.875 0.804 36.389 0.593 -53.543 0.593 -53.543 0.804 36.389
27104.833 0.805 36.363 0.593 -53.569 0.593 -53.569 0.805 36.363
27129.792 0.805 36.338 0.593 -53.595 0.593 -53.595 0.805 36.338
27154.75 0.805 36.312 0.592 -53.621 0.592 -53.621 0.805 36.312
27179.708 0.805 36.286 0.592 -53.647 0.592 -53.647 0.805 36.286
27204.667 0.806 36.26 0.591 -53.672 0.591 -53.672 0.806 36.26
27229.625 0.806 36.235 0.591 -53.698 0.591 -53.698 0.806 36.235
27254.583 0.806 36.209 0.591 -53.724 0.591 -53.724 0.806 36.209
27279.542 0.806 36.183 0.59 -53.75 0.59 -53.75 0.806 36.183
27304.5 0.807 36.158 0.59 -53.775 0.59 -53.775 0.807 36.158
27329.458 0.807 36.132 0.59 -53.801 0.59 -53.801 0.807 36.132
27354.417 0.807 36.106 0.589 -53.827 0.589 -53.827 0.807 36.106
27379.375 0.807 36.081 0.589 -53.852 0.589 -53.852 0.807 36.081
27404.333 0.808 36.056 0.589 -53.878 0.589 -53.878 0.808 36.056
27429.292 0.808 36.03 0.588 -53.903 0.588 -53.903 0.808 36.03
27454.25 0.808 36.005 0.588 -53.929 0.588 -53.929 0.808 36.005
27479.208 0.809 35.979 0.587 -53.954 0.587 -53.954 0.809 35.979
27504.167 0.809 35.954 0.587 -53.979 0.587 -53.979 0.809 35.954
27529.125 0.809 35.929 0.587 -54.005 0.587 -54.005 0.809 35.929
27554.083 0.809 35.903 0.586 -54.03 0.586 -54.03 0.809 35.903
27579.042 0.81 35.878 0.586 -54.056 0.586 -54.056 0.81 35.878
27604 0.81 35.853 0.586 -54.081 0.586 -54.081 0.81 35.853
27628.958 0.81 35.828 0.585 -54.106 0.585 -54.106 0.81 35.828
27653.917 0.81 35.802 0.585 -54.131 0.585 -54.131 0.81 35.802
27678.875 0.811 35.777 0.585 -54.157 0.585 -54.157 0.811 35.777
27703.833 0.811 35.752 0.584 -54.182 0.584 -54.182 0.811 35.752
27728.792 0.811 35.727 0.584 -54.207 0.584 -54.207 0.811 35.727
27753.75 0.811 35.702 0.584 -54.232 0.584 -54.232 0.811 35.702
27778.708 0.812 35.677 0.583 -54.257 0.583 -54.257 0.812 35.677
27803.667 0.812 35.652 0.583 -54.282 0.583 -54.282 0.812 35.652
27828.625 0.812 35.627 0.583 -54.307 0.583 -54.307 0.812 35.627
27853.583 0.812 35.602 0.582 -54.332 0.582 -54.332 0.812 35.602
27878.542 0.813 35.577 0.582 -54.357 0.582 -54.357 0.813 35.577
27903.5 0.813 35.552 0.581 -54.382 0.581 -54.382 0.813 35.552
27928.458 0.813 35.528 0.581 -54.407 0.581 -54.407 0.813 35.528
27953.417 0.813 35.503 0.581 -54.432 0.581 -54.432 0.813 35.503
27978.375 0.814 35.478 0.58 -54.456 0.58 -54.456 0.814 35.478
28003.333 0.814 35.453 0.58 -54.481 0.58 -54.481 0.814 35.453
28028.292 0.814 35.429 0.58 -54.506 0.58 -54.506 0.814 35.429
28053.25 0.814 35.404 0.579 -54.531 0.579 -54.531 0.814 35.404
28078.208 0.815 35.379 0.579 -54.555 0.579 -54.555 0.815 35.379
28103.167 0.815 35.355 0.579 -54.58 0.579 -54.58 0.815 35.355
28128.125 0.815 35.33 0.578 -54.605 0.578 -54.605 0.815 35.33
28153.083 0.815 35.306 0.578 -54.629 0.578 -54.629 0.815 35.306
28178.042 0.816 35.281 0.578 -54.654 0.578 -54.654 0.816 35.281
28203 0.816 35.257 0.577 -54.678 0.577 -54.678 0.816 35.257
28227.958 0.816 35.232 0.577 -54.703 0.577 -54.703 0.816 35.232
28252.917 0.816 35.208 0.577 -54.728 0.577 -54.728 0.816 35.208
28277.875 0.817 35.183 0.576 -54.752 0.576 -54.752 0.817 35.183
28302.833 0.817 35.159 0.576 -54.776 0.576 -54.776 0.817 35.159
28327.792 0.817 35.135 0.575 -54.801 0.575 -54.801 0.817 35.135
28352.75 0.817 35.11 0.575 -54.825 0.575 -54.825 0.817 35.11
28377.708 0.818 35.086 0.575 -54.849 0.575 -54.849 0.818 35.086
28402.667 0.818 35.062 0.574 -54.874 0.574 -54.874 0.818 35.062
28427.625 0.818 35.038 0.574 -54.898 0.574 -54.898 0.818 35.038
28452.583 0.818 35.013 0.574 -54.922 0.574 -54.922 0.818 35.013
28477.542 0.819 34.989 0.573 -54.947 0.573 -54.947 0.819 34.989
28502.5 0.819 34.965 0.573 -54.971 0.573 -54.971 0.819 34.965
28527.458 0.819 34.941 0.573 -54.995 0.573 -54.995 0.819 34.941
28552.417 0.819 34.917 0.572 -55.019 0.572 -55.019 0.819 34.917
28577.375 0.82 34.893 0.572 -55.043 0.572 -55.043 0.82 34.893
28602.333 0.82 34.869 0.572 -55.067 0.572 -55.067 0.82 34.869
28627.292 0.82 34.845 0.571 -55.091 0.571 -55.091 0.82 34.845
28652.25 0.82 34.821 0.571 -55.115 0.571 -55.115 0.82 34.821
28677.208 0.821 34.797 0.571 -55.139 0.571 -55.139 0.821 34.797
28702.167 0.821 34.773 0.57 -55.163 0.57 -55.163 0.821 34.773
28727.125 0.821 34.749 0.57 -55.187 0.57 -55.187 0.821 34.749
28752.083 0.821 34.725 0.57 -55.211 0.57 -55.211 0.821 34.725
28777.042 0.821 34.702 0.569 -55.235 0.569 -55.235 0.821 34.702
28802 0.822 34.678 0.569 -55.259 0.569 -55.259 0.822 34.678
28826.958 0.822 34.654 0.569 -55.283 0.569 -55.283 0.822 34.654
28851.917 0.822 34.63 0.568 -55.306 0.568 -55.306 0.822 34.63
28876.875 0.822 34.607 0.568 -55.33 0.568 -55.33 0.822 34.607
28901.833 0.823 34.583 0.568 -55.354 0.568 -55.354 0.823 34.583
28926.792 0.823 34.559 0.567 -55.378 0.567 -55.378 0.823 34.559
28951.75 0.823 34.536 0.567 -55.401 0.567 -55.401 0.823 34.536
28976.708 0.823 34.512 0.567 -55.425 0.567 -55.425 0.823 34.512
29001.667 0.824 34.489 0.566 -55.448 0.566 -55.448 0.824 34.489
29026.625 0.824 34.465 0.566 -55.472 0.566 -55.472 0.824 34.465
29051.583 0.824 34.441 0.566 -55.496 0.566 -55.496 0.824 34.441
29076.542 0.824 34.418 0.565 -55.519 0.565 -55.519 0.824 34.418
29101.5 0.825 34.395 0.565 -55.543 0.565 -55.543 0.825 34.395
29126.458 0.825 34.371 0.565 -55.566 0.565 -55.566 0.825 34.371
29151.417 0.825 34.348 0.564 -55.589 0.564 -55.589 0.825 34.348
29176.375 0.825 34.324 0.564 -55.613 0.564 -55.613 0.825 34.324
29201.333 0.825 34.301 0.564 -55.636 0.564 -55.636 0.825 34.301
29226.292 0.826 34.278 0.563 -55.66 0.563 -55.66 0.826 34.278
29251.25 0.826 34.255 0.563 -55.683 0.563 -55.683 0.826 34.255
29276.208 0.826 34.231 0.563 -55.706 0.563 -55.706 0.826 34.231
29301.167 0.826 34.208 0.562 -55.729 0.562 -55.729 0.826 34.208
29326.125 0.827 34.185 0.562 -55.753 0.562 -55.753 0.827 34.185
29351.083 0.827 34.162 0.562 -55.776 0.562 -55.776 0.827 34.162
29376.042 0.827 34.139 0.561 -55.799 0.561 -55.799 0.827 34.139
29401 0.827 34.116 0.561 -55.822 0.561 -55.822 0.827 34.116
29425.958 0.828 34.092 0.561 -55.845 0.561 -55.845 0.828 34.092
29450.917 0.828 34.069 0.56 -55.868 0.56 -55.868 0.828 34.069
29475.875 0.828 34.046 0.56 -55.892 0.56 -55.892 0.828 34.046
29500.833 0.828 34.023 0.56 -55.915 0.56 -55.915 0.828 34.023
29525.792 0.828 34 0.559 -55.938 0.559 -55.938 0.828 34
29550.75 0.829 33.978 0.559 -55.961 0.559 -55.961 0.829 33.978
29575.708 0.829 33.955 0.559 -55.984 0.559 -55.984 0.829 33.955
29600.667 0.829 33.932 0.558 -56.006 0.558 -56.006 0.829 33.932
29625.625 0.829 33.909 0.558 -56.029 0.558 -56.029 0.829 33.909
29650.583 0.83 33.886 0.558 -56.052 0.558 -56.052 0.83 33.886
29675.542 0.83 33.863 0.557 -56.075 0.557 -56.075 0.83 33.863
29700.5 0.83 33.841 0.557 -56.098 0.557 -56.098 0.83 33.841
29725.458 0.83 33.818 0.557 -56.121 0.557 -56.121 0.83 33.818
29750.417 0.83 33.795 0.556 -56.143 0.556 -56.143 0.83 33.795
29775.375 0.831 33.772 0.556 -56.166 0.556 -56.166 0.831 33.772
29800.333 0.831 33.75 0.556 -56.189 0.556 -56.189 0.831 33.75
29825.292 0.831 33.727 0.555 -56.212 0.555 -56.212 0.831 33.727
29850.25 0.831 33.704 0.555 -56.234 0.555 -56.234 0.831 33.704
29875.208 0.832 33.682 0.555 -56.257 0.555 -56.257 0.832 33.682
29900.167 0.832 33.659 0.554 -56.28 0.554 -56.28 0.832 33.659
29925.125 0.832 33.637 0.554 -56.302 0.554 -56.302 0.832 33.637
29950.083 0.832 33.614 0.554 -56.325 0.554 -56.325 0.832 33.614
29975.042 0.832 33.592 0.553 -56.347 0.553 -56.347 0.832 33.592
30000 0.833 33.569 0.553 -56.37 0.553 -56.37 0.833 33.569
