!	AVX Thin Film Operation 	Date: April 2014		
!	Description: Accu-P® Series, Thin Film  SMD RF Capacitor
!	Part Number: 06031JA95PBSTR					
!								
# MHZ S MA R 50

50 0.998 -3.506 0.061 86.487 0.061 86.487 0.998 -3.506
74.958 0.996 -5.249 0.091 84.741 0.091 84.741 0.996 -5.249
99.917 0.993 -6.984 0.122 83.003 0.122 83.003 0.993 -6.984
124.875 0.988 -8.707 0.151 81.277 0.151 81.277 0.988 -8.707
149.833 0.983 -10.416 0.181 79.564 0.181 79.564 0.983 -10.416
174.792 0.978 -12.109 0.21 77.868 0.21 77.868 0.978 -12.109
199.75 0.971 -13.783 0.238 76.19 0.238 76.19 0.971 -13.783
224.708 0.964 -15.437 0.266 74.534 0.266 74.534 0.964 -15.437
249.667 0.956 -17.068 0.294 72.899 0.294 72.899 0.956 -17.068
274.625 0.947 -18.675 0.32 71.29 0.32 71.29 0.947 -18.675
299.583 0.938 -20.255 0.346 69.706 0.346 69.706 0.938 -20.255
324.542 0.928 -21.808 0.371 68.15 0.371 68.15 0.928 -21.808
349.5 0.918 -23.332 0.396 66.622 0.396 66.622 0.918 -23.332
374.458 0.907 -24.827 0.42 65.124 0.42 65.124 0.907 -24.827
399.417 0.896 -26.291 0.443 63.656 0.443 63.656 0.896 -26.291
424.375 0.885 -27.725 0.465 62.22 0.465 62.22 0.885 -27.725
449.333 0.873 -29.126 0.487 60.814 0.487 60.814 0.873 -29.126
474.292 0.861 -30.496 0.507 59.441 0.507 59.441 0.861 -30.496
499.25 0.849 -31.834 0.527 58.1 0.527 58.1 0.849 -31.834
524.208 0.837 -33.14 0.547 56.79 0.547 56.79 0.837 -33.14
549.167 0.824 -34.414 0.565 55.513 0.565 55.513 0.824 -34.414
574.125 0.812 -35.657 0.583 54.267 0.583 54.267 0.812 -35.657
599.083 0.799 -36.868 0.6 53.053 0.6 53.053 0.799 -36.868
624.042 0.787 -38.048 0.616 51.869 0.616 51.869 0.787 -38.048
649 0.774 -39.197 0.632 50.716 0.632 50.716 0.774 -39.197
673.958 0.761 -40.317 0.647 49.593 0.647 49.593 0.761 -40.317
698.917 0.749 -41.406 0.661 48.5 0.661 48.5 0.749 -41.406
723.875 0.737 -42.467 0.675 47.435 0.675 47.435 0.737 -42.467
748.833 0.724 -43.5 0.688 46.399 0.688 46.399 0.724 -43.5
773.792 0.712 -44.505 0.701 45.39 0.701 45.39 0.712 -44.505
798.75 0.7 -45.484 0.713 44.408 0.713 44.408 0.7 -45.484
823.708 0.688 -46.436 0.725 43.453 0.725 43.453 0.688 -46.436
848.667 0.676 -47.362 0.736 42.522 0.736 42.522 0.676 -47.362
873.625 0.664 -48.264 0.746 41.617 0.746 41.617 0.664 -48.264
898.583 0.653 -49.142 0.756 40.735 0.756 40.735 0.653 -49.142
923.542 0.641 -49.997 0.766 39.876 0.766 39.876 0.641 -49.997
948.5 0.63 -50.829 0.775 39.041 0.775 39.041 0.63 -50.829
973.458 0.619 -51.639 0.784 38.227 0.784 38.227 0.619 -51.639
998.417 0.608 -52.428 0.793 37.434 0.793 37.434 0.608 -52.428
1023.375 0.597 -53.196 0.801 36.662 0.801 36.662 0.597 -53.196
1048.333 0.587 -53.945 0.808 35.909 0.808 35.909 0.587 -53.945
1073.292 0.576 -54.674 0.816 35.176 0.816 35.176 0.576 -54.674
1098.25 0.566 -55.385 0.823 34.461 0.823 34.461 0.566 -55.385
1123.208 0.556 -56.078 0.83 33.764 0.83 33.764 0.556 -56.078
1148.167 0.546 -56.753 0.836 33.084 0.836 33.084 0.546 -56.753
1173.125 0.536 -57.412 0.843 32.421 0.843 32.421 0.536 -57.412
1198.083 0.527 -58.054 0.849 31.775 0.849 31.775 0.527 -58.054
1223.042 0.517 -58.681 0.854 31.144 0.854 31.144 0.517 -58.681
1248 0.508 -59.293 0.86 30.528 0.86 30.528 0.508 -59.293
1272.958 0.499 -59.89 0.865 29.926 0.865 29.926 0.499 -59.89
1297.917 0.49 -60.473 0.87 29.339 0.87 29.339 0.49 -60.473
1322.875 0.481 -61.042 0.875 28.765 0.875 28.765 0.481 -61.042
1347.833 0.473 -61.598 0.88 28.205 0.88 28.205 0.473 -61.598
1372.792 0.464 -62.141 0.884 27.657 0.884 27.657 0.464 -62.141
1397.75 0.456 -62.672 0.888 27.121 0.888 27.121 0.456 -62.672
1422.708 0.448 -63.191 0.893 26.597 0.893 26.597 0.448 -63.191
1447.667 0.44 -63.699 0.896 26.085 0.896 26.085 0.44 -63.699
1472.625 0.432 -64.195 0.9 25.584 0.9 25.584 0.432 -64.195
1497.583 0.424 -64.681 0.904 25.093 0.904 25.093 0.424 -64.681
1522.542 0.416 -65.156 0.907 24.613 0.907 24.613 0.416 -65.156
1547.5 0.409 -65.621 0.911 24.143 0.911 24.143 0.409 -65.621
1572.458 0.402 -66.076 0.914 23.682 0.914 23.682 0.402 -66.076
1597.417 0.394 -66.522 0.917 23.231 0.917 23.231 0.394 -66.522
1622.375 0.387 -66.959 0.92 22.789 0.92 22.789 0.387 -66.959
1647.333 0.38 -67.387 0.923 22.356 0.923 22.356 0.38 -67.387
1672.292 0.373 -67.806 0.926 21.931 0.926 21.931 0.373 -67.806
1697.25 0.367 -68.217 0.929 21.514 0.929 21.514 0.367 -68.217
1722.208 0.36 -68.62 0.931 21.106 0.931 21.106 0.36 -68.62
1747.167 0.354 -69.015 0.934 20.705 0.934 20.705 0.354 -69.015
1772.125 0.347 -69.403 0.936 20.311 0.936 20.311 0.347 -69.403
1797.083 0.341 -69.783 0.938 19.925 0.938 19.925 0.341 -69.783
1822.042 0.335 -70.156 0.941 19.546 0.941 19.546 0.335 -70.156
1847 0.328 -70.522 0.943 19.173 0.943 19.173 0.328 -70.522
1871.958 0.322 -70.882 0.945 18.807 0.945 18.807 0.322 -70.882
1896.917 0.316 -71.235 0.947 18.448 0.947 18.448 0.316 -71.235
1921.875 0.311 -71.582 0.949 18.095 0.949 18.095 0.311 -71.582
1946.833 0.305 -71.922 0.951 17.747 0.951 17.747 0.305 -71.922
1971.792 0.299 -72.257 0.952 17.406 0.952 17.406 0.299 -72.257
1996.75 0.294 -72.585 0.954 17.07 0.954 17.07 0.294 -72.585
2021.708 0.288 -72.909 0.956 16.74 0.956 16.74 0.288 -72.909
2046.667 0.283 -73.226 0.957 16.415 0.957 16.415 0.283 -73.226
2071.625 0.277 -73.539 0.959 16.095 0.959 16.095 0.277 -73.539
2096.583 0.272 -73.846 0.961 15.78 0.961 15.78 0.272 -73.846
2121.542 0.267 -74.148 0.962 15.47 0.962 15.47 0.267 -74.148
2146.5 0.262 -74.445 0.963 15.165 0.963 15.165 0.262 -74.445
2171.458 0.257 -74.737 0.965 14.864 0.965 14.864 0.257 -74.737
2196.417 0.252 -75.025 0.966 14.568 0.966 14.568 0.252 -75.025
2221.375 0.247 -75.308 0.967 14.276 0.967 14.276 0.247 -75.308
2246.333 0.242 -75.587 0.969 13.989 0.969 13.989 0.242 -75.587
2271.292 0.237 -75.861 0.97 13.705 0.97 13.705 0.237 -75.861
2296.25 0.232 -76.131 0.971 13.426 0.971 13.426 0.232 -76.131
2321.208 0.228 -76.397 0.972 13.15 0.972 13.15 0.228 -76.397
2346.167 0.223 -76.658 0.973 12.879 0.973 12.879 0.223 -76.658
2371.125 0.218 -76.916 0.974 12.611 0.974 12.611 0.218 -76.916
2396.083 0.214 -77.17 0.975 12.346 0.975 12.346 0.214 -77.17
2421.042 0.209 -77.42 0.976 12.085 0.976 12.085 0.209 -77.42
2446 0.205 -77.667 0.977 11.828 0.977 11.828 0.205 -77.667
2470.958 0.201 -77.909 0.978 11.574 0.978 11.574 0.201 -77.909
2495.917 0.196 -78.149 0.979 11.323 0.979 11.323 0.196 -78.149
2520.875 0.192 -78.384 0.98 11.075 0.98 11.075 0.192 -78.384
2545.833 0.188 -78.616 0.98 10.831 0.98 10.831 0.188 -78.616
2570.792 0.184 -78.845 0.981 10.589 0.981 10.589 0.184 -78.845
2595.75 0.18 -79.07 0.982 10.35 0.982 10.35 0.18 -79.07
2620.708 0.176 -79.292 0.983 10.114 0.983 10.114 0.176 -79.292
2645.667 0.172 -79.511 0.983 9.881 0.983 9.881 0.172 -79.511
2670.625 0.168 -79.727 0.984 9.651 0.984 9.651 0.168 -79.727
2695.583 0.164 -79.939 0.985 9.423 0.985 9.423 0.164 -79.939
2720.542 0.16 -80.148 0.985 9.198 0.985 9.198 0.16 -80.148
2745.5 0.156 -80.354 0.986 8.976 0.986 8.976 0.156 -80.354
2770.458 0.152 -80.557 0.987 8.755 0.987 8.755 0.152 -80.557
2795.417 0.148 -80.757 0.987 8.538 0.987 8.538 0.148 -80.757
2820.375 0.145 -80.954 0.988 8.323 0.988 8.323 0.145 -80.954
2845.333 0.141 -81.148 0.988 8.109 0.988 8.109 0.141 -81.148
2870.292 0.137 -81.339 0.989 7.899 0.989 7.899 0.137 -81.339
2895.25 0.134 -81.526 0.989 7.69 0.989 7.69 0.134 -81.526
2920.208 0.13 -81.711 0.99 7.484 0.99 7.484 0.13 -81.711
2945.167 0.127 -81.892 0.99 7.279 0.99 7.279 0.127 -81.892
2970.125 0.123 -82.071 0.991 7.077 0.991 7.077 0.123 -82.071
2995.083 0.12 -82.246 0.991 6.877 0.991 6.877 0.12 -82.246
3020.042 0.116 -82.418 0.991 6.679 0.991 6.679 0.116 -82.418
3045 0.113 -82.586 0.992 6.482 0.992 6.482 0.113 -82.586
3069.958 0.11 -82.752 0.992 6.288 0.992 6.288 0.11 -82.752
3094.917 0.106 -82.914 0.993 6.095 0.993 6.095 0.106 -82.914
3119.875 0.103 -83.072 0.993 5.904 0.993 5.904 0.103 -83.072
3144.833 0.1 -83.227 0.993 5.715 0.993 5.715 0.1 -83.227
3169.792 0.096 -83.379 0.994 5.528 0.994 5.528 0.096 -83.379
3194.75 0.093 -83.526 0.994 5.342 0.994 5.342 0.093 -83.526
3219.708 0.09 -83.67 0.994 5.158 0.994 5.158 0.09 -83.67
3244.667 0.087 -83.809 0.994 4.976 0.994 4.976 0.087 -83.809
3269.625 0.084 -83.944 0.995 4.795 0.995 4.795 0.084 -83.944
3294.583 0.08 -84.074 0.995 4.616 0.995 4.616 0.08 -84.074
3319.542 0.077 -84.199 0.995 4.438 0.995 4.438 0.077 -84.199
3344.5 0.074 -84.318 0.995 4.262 0.995 4.262 0.074 -84.318
3369.458 0.071 -84.432 0.996 4.087 0.996 4.087 0.071 -84.432
3394.417 0.068 -84.54 0.996 3.914 0.996 3.914 0.068 -84.54
3419.375 0.065 -84.64 0.996 3.742 0.996 3.742 0.065 -84.64
3444.333 0.062 -84.733 0.996 3.572 0.996 3.572 0.062 -84.733
3469.292 0.059 -84.818 0.996 3.402 0.996 3.402 0.059 -84.818
3494.25 0.056 -84.894 0.997 3.235 0.997 3.235 0.056 -84.894
3519.208 0.054 -84.958 0.997 3.068 0.997 3.068 0.054 -84.958
3544.167 0.051 -85.011 0.997 2.903 0.997 2.903 0.051 -85.011
3569.125 0.048 -85.05 0.997 2.739 0.997 2.739 0.048 -85.05
3594.083 0.045 -85.073 0.997 2.576 0.997 2.576 0.045 -85.073
3619.042 0.042 -85.077 0.997 2.415 0.997 2.415 0.042 -85.077
3644 0.039 -85.059 0.997 2.254 0.997 2.254 0.039 -85.059
3668.958 0.037 -85.015 0.997 2.095 0.997 2.095 0.037 -85.015
3693.917 0.034 -84.937 0.998 1.937 0.998 1.937 0.034 -84.937
3718.875 0.031 -84.819 0.998 1.78 0.998 1.78 0.031 -84.819
3743.833 0.028 -84.649 0.998 1.624 0.998 1.624 0.028 -84.649
3768.792 0.026 -84.413 0.998 1.47 0.998 1.47 0.026 -84.413
3793.75 0.023 -84.087 0.998 1.316 0.998 1.316 0.023 -84.087
3818.708 0.02 -83.639 0.998 1.163 0.998 1.163 0.02 -83.639
3843.667 0.018 -83.017 0.998 1.012 0.998 1.012 0.018 -83.017
3868.625 0.015 -82.133 0.998 0.861 0.998 0.861 0.015 -82.133
3893.583 0.013 -80.829 0.998 0.711 0.998 0.711 0.013 -80.829
3918.542 9.995e-3 -78.789 0.998 0.563 0.998 0.563 9.995e-3 -78.789
3943.5 7.478e-3 -75.285 0.998 0.415 0.998 0.415 7.478e-3 -75.285
3968.458 5.036e-3 -68.217 0.998 0.268 0.998 0.268 5.036e-3 -68.217
3993.417 2.827e-3 -49.09 0.998 0.123 0.998 0.123 2.827e-3 -49.09
4018.375 1.887e-3 11.841 0.998 -0.022 0.998 -0.022 1.887e-3 11.841
4043.333 3.439e-3 57.35 0.998 -0.166 0.998 -0.166 3.439e-3 57.35
4068.292 5.706e-3 70.804 0.998 -0.309 0.998 -0.309 5.706e-3 70.804
4093.25 8.095e-3 76.359 0.998 -0.452 0.998 -0.452 8.095e-3 76.359
4118.208 0.011 79.288 0.998 -0.593 0.998 -0.593 0.011 79.288
4143.167 0.013 81.057 0.998 -0.733 0.998 -0.733 0.013 81.057
4168.125 0.015 82.217 0.998 -0.873 0.998 -0.873 0.015 82.217
4193.083 0.018 83.019 0.998 -1.012 0.998 -1.012 0.018 83.019
4218.042 0.02 83.594 0.998 -1.15 0.998 -1.15 0.02 83.594
4243 0.023 84.015 0.998 -1.288 0.998 -1.288 0.023 84.015
4267.958 0.025 84.327 0.998 -1.424 0.998 -1.424 0.025 84.327
4292.917 0.027 84.56 0.998 -1.56 0.998 -1.56 0.027 84.56
4317.875 0.03 84.733 0.998 -1.695 0.998 -1.695 0.03 84.733
4342.833 0.032 84.861 0.998 -1.829 0.998 -1.829 0.032 84.861
4367.792 0.034 84.952 0.998 -1.963 0.998 -1.963 0.034 84.952
4392.75 0.037 85.015 0.997 -2.096 0.997 -2.096 0.037 85.015
4417.708 0.039 85.054 0.997 -2.228 0.997 -2.228 0.039 85.054
4442.667 0.041 85.074 0.997 -2.359 0.997 -2.359 0.041 85.074
4467.625 0.043 85.078 0.997 -2.49 0.997 -2.49 0.043 85.078
4492.583 0.046 85.069 0.997 -2.62 0.997 -2.62 0.046 85.069
4517.542 0.048 85.048 0.997 -2.749 0.997 -2.749 0.048 85.048
4542.5 0.05 85.018 0.997 -2.878 0.997 -2.878 0.05 85.018
4567.458 0.052 84.98 0.997 -3.006 0.997 -3.006 0.052 84.98
4592.417 0.055 84.934 0.997 -3.134 0.997 -3.134 0.055 84.934
4617.375 0.057 84.883 0.997 -3.26 0.997 -3.26 0.057 84.883
4642.333 0.059 84.826 0.996 -3.387 0.996 -3.387 0.059 84.826
4667.292 0.061 84.764 0.996 -3.512 0.996 -3.512 0.061 84.764
4692.25 0.063 84.698 0.996 -3.637 0.996 -3.637 0.063 84.698
4717.208 0.066 84.629 0.996 -3.762 0.996 -3.762 0.066 84.629
4742.167 0.068 84.557 0.996 -3.885 0.996 -3.885 0.068 84.557
4767.125 0.07 84.482 0.996 -4.009 0.996 -4.009 0.07 84.482
4792.083 0.072 84.404 0.996 -4.131 0.996 -4.131 0.072 84.404
4817.042 0.074 84.324 0.995 -4.253 0.995 -4.253 0.074 84.324
4842 0.076 84.242 0.995 -4.375 0.995 -4.375 0.076 84.242
4866.958 0.078 84.158 0.995 -4.496 0.995 -4.496 0.078 84.158
4891.917 0.081 84.073 0.995 -4.616 0.995 -4.616 0.081 84.073
4916.875 0.083 83.987 0.995 -4.736 0.995 -4.736 0.083 83.987
4941.833 0.085 83.899 0.995 -4.856 0.995 -4.856 0.085 83.899
4966.792 0.087 83.81 0.994 -4.975 0.994 -4.975 0.087 83.81
4991.75 0.089 83.72 0.994 -5.093 0.994 -5.093 0.089 83.72
5016.708 0.091 83.629 0.994 -5.211 0.994 -5.211 0.091 83.629
5041.667 0.093 83.537 0.994 -5.328 0.994 -5.328 0.093 83.537
5066.625 0.095 83.445 0.994 -5.445 0.994 -5.445 0.095 83.445
5091.583 0.097 83.352 0.993 -5.561 0.993 -5.561 0.097 83.352
5116.542 0.099 83.258 0.993 -5.677 0.993 -5.677 0.099 83.258
5141.5 0.101 83.164 0.993 -5.793 0.993 -5.793 0.101 83.164
5166.458 0.103 83.07 0.993 -5.908 0.993 -5.908 0.103 83.07
5191.417 0.105 82.975 0.993 -6.022 0.993 -6.022 0.105 82.975
5216.375 0.107 82.88 0.992 -6.136 0.992 -6.136 0.107 82.88
5241.333 0.109 82.784 0.992 -6.25 0.992 -6.25 0.109 82.784
5266.292 0.111 82.688 0.992 -6.363 0.992 -6.363 0.111 82.688
5291.25 0.113 82.592 0.992 -6.475 0.992 -6.475 0.113 82.592
5316.208 0.115 82.496 0.992 -6.588 0.992 -6.588 0.115 82.496
5341.167 0.117 82.4 0.991 -6.699 0.991 -6.699 0.117 82.4
5366.125 0.119 82.303 0.991 -6.811 0.991 -6.811 0.119 82.303
5391.083 0.121 82.207 0.991 -6.922 0.991 -6.922 0.121 82.207
5416.042 0.122 82.11 0.991 -7.032 0.991 -7.032 0.122 82.11
5441 0.124 82.013 0.99 -7.142 0.99 -7.142 0.124 82.013
5465.958 0.126 81.916 0.99 -7.252 0.99 -7.252 0.126 81.916
5490.917 0.128 81.819 0.99 -7.361 0.99 -7.361 0.128 81.819
5515.875 0.13 81.723 0.99 -7.47 0.99 -7.47 0.13 81.723
5540.833 0.132 81.626 0.989 -7.579 0.989 -7.579 0.132 81.626
5565.792 0.134 81.529 0.989 -7.687 0.989 -7.687 0.134 81.529
5590.75 0.136 81.432 0.989 -7.795 0.989 -7.795 0.136 81.432
5615.708 0.137 81.336 0.989 -7.902 0.989 -7.902 0.137 81.336
5640.667 0.139 81.239 0.988 -8.009 0.988 -8.009 0.139 81.239
5665.625 0.141 81.142 0.988 -8.116 0.988 -8.116 0.141 81.142
5690.583 0.143 81.046 0.988 -8.222 0.988 -8.222 0.143 81.046
5715.542 0.145 80.949 0.988 -8.328 0.988 -8.328 0.145 80.949
5740.5 0.147 80.853 0.987 -8.433 0.987 -8.433 0.147 80.853
5765.458 0.148 80.757 0.987 -8.538 0.987 -8.538 0.148 80.757
5790.417 0.15 80.661 0.987 -8.643 0.987 -8.643 0.15 80.661
5815.375 0.152 80.565 0.987 -8.748 0.987 -8.748 0.152 80.565
5840.333 0.154 80.469 0.986 -8.852 0.986 -8.852 0.154 80.469
5865.292 0.156 80.373 0.986 -8.955 0.986 -8.955 0.156 80.373
5890.25 0.157 80.277 0.986 -9.059 0.986 -9.059 0.157 80.277
5915.208 0.159 80.182 0.985 -9.162 0.985 -9.162 0.159 80.182
5940.167 0.161 80.087 0.985 -9.265 0.985 -9.265 0.161 80.087
5965.125 0.163 79.991 0.985 -9.367 0.985 -9.367 0.163 79.991
5990.083 0.165 79.896 0.985 -9.469 0.985 -9.469 0.165 79.896
6015.042 0.166 79.802 0.984 -9.571 0.984 -9.571 0.166 79.802
6040 0.168 79.707 0.984 -9.672 0.984 -9.672 0.168 79.707
6064.958 0.17 79.612 0.984 -9.773 0.984 -9.773 0.17 79.612
6089.917 0.171 79.518 0.983 -9.874 0.983 -9.874 0.171 79.518
6114.875 0.173 79.424 0.983 -9.975 0.983 -9.975 0.173 79.424
6139.833 0.175 79.329 0.983 -10.075 0.983 -10.075 0.175 79.329
6164.792 0.177 79.236 0.982 -10.175 0.982 -10.175 0.177 79.236
6189.75 0.178 79.142 0.982 -10.274 0.982 -10.274 0.178 79.142
6214.708 0.18 79.048 0.982 -10.374 0.982 -10.374 0.18 79.048
6239.667 0.182 78.955 0.982 -10.473 0.982 -10.473 0.182 78.955
6264.625 0.183 78.862 0.981 -10.571 0.981 -10.571 0.183 78.862
6289.583 0.185 78.769 0.981 -10.67 0.981 -10.67 0.185 78.769
6314.542 0.187 78.676 0.981 -10.768 0.981 -10.768 0.187 78.676
6339.5 0.189 78.583 0.98 -10.866 0.98 -10.866 0.189 78.583
6364.458 0.19 78.491 0.98 -10.963 0.98 -10.963 0.19 78.491
6389.417 0.192 78.398 0.98 -11.06 0.98 -11.06 0.192 78.398
6414.375 0.194 78.306 0.979 -11.157 0.979 -11.157 0.194 78.306
6439.333 0.195 78.214 0.979 -11.254 0.979 -11.254 0.195 78.214
6464.292 0.197 78.122 0.979 -11.351 0.979 -11.351 0.197 78.122
6489.25 0.198 78.031 0.978 -11.447 0.978 -11.447 0.198 78.031
6514.208 0.2 77.939 0.978 -11.543 0.978 -11.543 0.2 77.939
6539.167 0.202 77.848 0.978 -11.638 0.978 -11.638 0.202 77.848
6564.125 0.203 77.757 0.977 -11.733 0.977 -11.733 0.203 77.757
6589.083 0.205 77.666 0.977 -11.829 0.977 -11.829 0.205 77.666
6614.042 0.207 77.575 0.977 -11.923 0.977 -11.923 0.207 77.575
6639 0.208 77.485 0.976 -12.018 0.976 -12.018 0.208 77.485
6663.958 0.21 77.395 0.976 -12.112 0.976 -12.112 0.21 77.395
6688.917 0.211 77.304 0.976 -12.206 0.976 -12.206 0.211 77.304
6713.875 0.213 77.215 0.975 -12.3 0.975 -12.3 0.213 77.215
6738.833 0.215 77.125 0.975 -12.394 0.975 -12.394 0.215 77.125
6763.792 0.216 77.035 0.975 -12.487 0.975 -12.487 0.216 77.035
6788.75 0.218 76.946 0.974 -12.58 0.974 -12.58 0.218 76.946
6813.708 0.219 76.857 0.974 -12.673 0.974 -12.673 0.219 76.857
6838.667 0.221 76.767 0.973 -12.765 0.973 -12.765 0.221 76.767
6863.625 0.223 76.679 0.973 -12.858 0.973 -12.858 0.223 76.679
6888.583 0.224 76.59 0.973 -12.95 0.973 -12.95 0.224 76.59
6913.542 0.226 76.501 0.972 -13.042 0.972 -13.042 0.226 76.501
6938.5 0.227 76.413 0.972 -13.133 0.972 -13.133 0.227 76.413
6963.458 0.229 76.325 0.972 -13.225 0.972 -13.225 0.229 76.325
6988.417 0.23 76.237 0.971 -13.316 0.971 -13.316 0.23 76.237
7013.375 0.232 76.149 0.971 -13.407 0.971 -13.407 0.232 76.149
7038.333 0.233 76.062 0.971 -13.497 0.971 -13.497 0.233 76.062
7063.292 0.235 75.974 0.97 -13.588 0.97 -13.588 0.235 75.974
7088.25 0.236 75.887 0.97 -13.678 0.97 -13.678 0.236 75.887
7113.208 0.238 75.8 0.969 -13.768 0.969 -13.768 0.238 75.8
7138.167 0.24 75.713 0.969 -13.858 0.969 -13.858 0.24 75.713
7163.125 0.241 75.626 0.969 -13.948 0.969 -13.948 0.241 75.626
7188.083 0.243 75.54 0.968 -14.037 0.968 -14.037 0.243 75.54
7213.042 0.244 75.453 0.968 -14.126 0.968 -14.126 0.244 75.453
7238 0.246 75.367 0.968 -14.215 0.968 -14.215 0.246 75.367
7262.958 0.247 75.281 0.967 -14.304 0.967 -14.304 0.247 75.281
7287.917 0.249 75.195 0.967 -14.392 0.967 -14.392 0.249 75.195
7312.875 0.25 75.11 0.966 -14.481 0.966 -14.481 0.25 75.11
7337.833 0.252 75.024 0.966 -14.569 0.966 -14.569 0.252 75.024
7362.792 0.253 74.939 0.966 -14.657 0.966 -14.657 0.253 74.939
7387.75 0.255 74.854 0.965 -14.744 0.965 -14.744 0.255 74.854
7412.708 0.256 74.769 0.965 -14.832 0.965 -14.832 0.256 74.769
7437.667 0.257 74.684 0.965 -14.919 0.965 -14.919 0.257 74.684
7462.625 0.259 74.599 0.964 -15.006 0.964 -15.006 0.259 74.599
7487.583 0.26 74.515 0.964 -15.093 0.964 -15.093 0.26 74.515
7512.542 0.262 74.43 0.963 -15.179 0.963 -15.179 0.262 74.43
7537.5 0.263 74.346 0.963 -15.266 0.963 -15.266 0.263 74.346
7562.458 0.265 74.262 0.963 -15.352 0.963 -15.352 0.265 74.262
7587.417 0.266 74.179 0.962 -15.438 0.962 -15.438 0.266 74.179
7612.375 0.268 74.095 0.962 -15.524 0.962 -15.524 0.268 74.095
7637.333 0.269 74.011 0.961 -15.61 0.961 -15.61 0.269 74.011
7662.292 0.271 73.928 0.961 -15.695 0.961 -15.695 0.271 73.928
7687.25 0.272 73.845 0.961 -15.781 0.961 -15.781 0.272 73.845
7712.208 0.273 73.762 0.96 -15.866 0.96 -15.866 0.273 73.762
7737.167 0.275 73.679 0.96 -15.951 0.96 -15.951 0.275 73.679
7762.125 0.276 73.596 0.959 -16.035 0.959 -16.035 0.276 73.596
7787.083 0.278 73.514 0.959 -16.12 0.959 -16.12 0.278 73.514
7812.042 0.279 73.432 0.958 -16.204 0.958 -16.204 0.279 73.432
7837 0.28 73.349 0.958 -16.288 0.958 -16.288 0.28 73.349
7861.958 0.282 73.267 0.958 -16.372 0.958 -16.372 0.282 73.267
7886.917 0.283 73.186 0.957 -16.456 0.957 -16.456 0.283 73.186
7911.875 0.285 73.104 0.957 -16.54 0.957 -16.54 0.285 73.104
7936.833 0.286 73.022 0.956 -16.623 0.956 -16.623 0.286 73.022
7961.792 0.287 72.941 0.956 -16.706 0.956 -16.706 0.287 72.941
7986.75 0.289 72.86 0.956 -16.79 0.956 -16.79 0.289 72.86
8011.708 0.29 72.779 0.955 -16.872 0.955 -16.872 0.29 72.779
8036.667 0.292 72.698 0.955 -16.955 0.955 -16.955 0.292 72.698
8061.625 0.293 72.617 0.954 -17.038 0.954 -17.038 0.293 72.617
8086.583 0.294 72.536 0.954 -17.12 0.954 -17.12 0.294 72.536
8111.542 0.296 72.456 0.954 -17.202 0.954 -17.202 0.296 72.456
8136.5 0.297 72.376 0.953 -17.284 0.953 -17.284 0.297 72.376
8161.458 0.298 72.295 0.953 -17.366 0.953 -17.366 0.298 72.295
8186.417 0.3 72.215 0.952 -17.448 0.952 -17.448 0.3 72.215
8211.375 0.301 72.136 0.952 -17.529 0.952 -17.529 0.301 72.136
8236.333 0.303 72.056 0.951 -17.611 0.951 -17.611 0.303 72.056
8261.292 0.304 71.976 0.951 -17.692 0.951 -17.692 0.304 71.976
8286.25 0.305 71.897 0.951 -17.773 0.951 -17.773 0.305 71.897
8311.208 0.307 71.818 0.95 -17.854 0.95 -17.854 0.307 71.818
8336.167 0.308 71.738 0.95 -17.935 0.95 -17.935 0.308 71.738
8361.125 0.309 71.66 0.949 -18.015 0.949 -18.015 0.309 71.66
8386.083 0.311 71.581 0.949 -18.095 0.949 -18.095 0.311 71.581
8411.042 0.312 71.502 0.948 -18.176 0.948 -18.176 0.312 71.502
8436 0.313 71.424 0.948 -18.256 0.948 -18.256 0.313 71.424
8460.958 0.315 71.345 0.947 -18.336 0.947 -18.336 0.315 71.345
8485.917 0.316 71.267 0.947 -18.415 0.947 -18.415 0.316 71.267
8510.875 0.317 71.189 0.947 -18.495 0.947 -18.495 0.317 71.189
8535.833 0.319 71.111 0.946 -18.574 0.946 -18.574 0.319 71.111
8560.792 0.32 71.033 0.946 -18.653 0.946 -18.653 0.32 71.033
8585.75 0.321 70.955 0.945 -18.733 0.945 -18.733 0.321 70.955
8610.708 0.322 70.878 0.945 -18.811 0.945 -18.811 0.322 70.878
8635.667 0.324 70.801 0.944 -18.89 0.944 -18.89 0.324 70.801
8660.625 0.325 70.723 0.944 -18.969 0.944 -18.969 0.325 70.723
8685.583 0.326 70.646 0.944 -19.047 0.944 -19.047 0.326 70.646
8710.542 0.328 70.569 0.943 -19.126 0.943 -19.126 0.328 70.569
8735.5 0.329 70.492 0.943 -19.204 0.943 -19.204 0.329 70.492
8760.458 0.33 70.416 0.942 -19.282 0.942 -19.282 0.33 70.416
8785.417 0.332 70.339 0.942 -19.36 0.942 -19.36 0.332 70.339
8810.375 0.333 70.263 0.941 -19.437 0.941 -19.437 0.333 70.263
8835.333 0.334 70.187 0.941 -19.515 0.941 -19.515 0.334 70.187
8860.292 0.335 70.11 0.94 -19.592 0.94 -19.592 0.335 70.11
8885.25 0.337 70.034 0.94 -19.67 0.94 -19.67 0.337 70.034
8910.208 0.338 69.959 0.939 -19.747 0.939 -19.747 0.338 69.959
8935.167 0.339 69.883 0.939 -19.824 0.939 -19.824 0.339 69.883
8960.125 0.34 69.807 0.939 -19.9 0.939 -19.9 0.34 69.807
8985.083 0.342 69.732 0.938 -19.977 0.938 -19.977 0.342 69.732
9010.042 0.343 69.656 0.938 -20.054 0.938 -20.054 0.343 69.656
9035 0.344 69.581 0.937 -20.13 0.937 -20.13 0.344 69.581
9059.958 0.345 69.506 0.937 -20.206 0.937 -20.206 0.345 69.506
9084.917 0.347 69.431 0.936 -20.282 0.936 -20.282 0.347 69.431
9109.875 0.348 69.357 0.936 -20.358 0.936 -20.358 0.348 69.357
9134.833 0.349 69.282 0.935 -20.434 0.935 -20.434 0.349 69.282
9159.792 0.35 69.207 0.935 -20.51 0.935 -20.51 0.35 69.207
9184.75 0.352 69.133 0.934 -20.585 0.934 -20.585 0.352 69.133
9209.708 0.353 69.059 0.934 -20.661 0.934 -20.661 0.353 69.059
9234.667 0.354 68.985 0.933 -20.736 0.933 -20.736 0.354 68.985
9259.625 0.355 68.911 0.933 -20.811 0.933 -20.811 0.355 68.911
9284.583 0.357 68.837 0.933 -20.886 0.933 -20.886 0.357 68.837
9309.542 0.358 68.763 0.932 -20.961 0.932 -20.961 0.358 68.763
9334.5 0.359 68.689 0.932 -21.035 0.932 -21.035 0.359 68.689
9359.458 0.36 68.616 0.931 -21.11 0.931 -21.11 0.36 68.616
9384.417 0.361 68.543 0.931 -21.184 0.931 -21.184 0.361 68.543
9409.375 0.363 68.469 0.93 -21.259 0.93 -21.259 0.363 68.469
9434.333 0.364 68.396 0.93 -21.333 0.93 -21.333 0.364 68.396
9459.292 0.365 68.323 0.929 -21.407 0.929 -21.407 0.365 68.323
9484.25 0.366 68.25 0.929 -21.481 0.929 -21.481 0.366 68.25
9509.208 0.367 68.178 0.928 -21.554 0.928 -21.554 0.367 68.178
9534.167 0.369 68.105 0.928 -21.628 0.928 -21.628 0.369 68.105
9559.125 0.37 68.033 0.927 -21.702 0.927 -21.702 0.37 68.033
9584.083 0.371 67.96 0.927 -21.775 0.927 -21.775 0.371 67.96
9609.042 0.372 67.888 0.926 -21.848 0.926 -21.848 0.372 67.888
9634 0.373 67.816 0.926 -21.921 0.926 -21.921 0.373 67.816
9658.958 0.375 67.744 0.926 -21.994 0.926 -21.994 0.375 67.744
9683.917 0.376 67.672 0.925 -22.067 0.925 -22.067 0.376 67.672
9708.875 0.377 67.6 0.925 -22.14 0.925 -22.14 0.377 67.6
9733.833 0.378 67.529 0.924 -22.212 0.924 -22.212 0.378 67.529
9758.792 0.379 67.457 0.924 -22.285 0.924 -22.285 0.379 67.457
9783.75 0.38 67.386 0.923 -22.357 0.923 -22.357 0.38 67.386
9808.708 0.382 67.315 0.923 -22.429 0.923 -22.429 0.382 67.315
9833.667 0.383 67.243 0.922 -22.501 0.922 -22.501 0.383 67.243
9858.625 0.384 67.172 0.922 -22.573 0.922 -22.573 0.384 67.172
9883.583 0.385 67.101 0.921 -22.645 0.921 -22.645 0.385 67.101
9908.542 0.386 67.031 0.921 -22.716 0.921 -22.716 0.386 67.031
9933.5 0.387 66.96 0.92 -22.788 0.92 -22.788 0.387 66.96
9958.458 0.388 66.89 0.92 -22.859 0.92 -22.859 0.388 66.89
9983.417 0.39 66.819 0.919 -22.931 0.919 -22.931 0.39 66.819
10008.375 0.391 66.749 0.919 -23.002 0.919 -23.002 0.391 66.749
10033.333 0.392 66.679 0.918 -23.073 0.918 -23.073 0.392 66.679
10058.292 0.393 66.609 0.918 -23.144 0.918 -23.144 0.393 66.609
10083.25 0.394 66.539 0.917 -23.215 0.917 -23.215 0.394 66.539
10108.208 0.395 66.469 0.917 -23.285 0.917 -23.285 0.395 66.469
10133.167 0.396 66.399 0.916 -23.356 0.916 -23.356 0.396 66.399
10158.125 0.398 66.329 0.916 -23.426 0.916 -23.426 0.398 66.329
10183.083 0.399 66.26 0.915 -23.497 0.915 -23.497 0.399 66.26
10208.042 0.4 66.191 0.915 -23.567 0.915 -23.567 0.4 66.191
10233 0.401 66.121 0.914 -23.637 0.914 -23.637 0.401 66.121
10257.958 0.402 66.052 0.914 -23.707 0.914 -23.707 0.402 66.052
10282.917 0.403 65.983 0.913 -23.777 0.913 -23.777 0.403 65.983
10307.875 0.404 65.914 0.913 -23.846 0.913 -23.846 0.404 65.914
10332.833 0.405 65.845 0.912 -23.916 0.912 -23.916 0.405 65.845
10357.792 0.407 65.777 0.912 -23.985 0.912 -23.985 0.407 65.777
10382.75 0.408 65.708 0.911 -24.055 0.911 -24.055 0.408 65.708
10407.708 0.409 65.64 0.911 -24.124 0.911 -24.124 0.409 65.64
10432.667 0.41 65.571 0.91 -24.193 0.91 -24.193 0.41 65.571
10457.625 0.411 65.503 0.91 -24.262 0.91 -24.262 0.411 65.503
10482.583 0.412 65.435 0.909 -24.331 0.909 -24.331 0.412 65.435
10507.542 0.413 65.367 0.909 -24.4 0.909 -24.4 0.413 65.367
10532.5 0.414 65.299 0.909 -24.468 0.909 -24.468 0.414 65.299
10557.458 0.415 65.231 0.908 -24.537 0.908 -24.537 0.415 65.231
10582.417 0.416 65.164 0.908 -24.605 0.908 -24.605 0.416 65.164
10607.375 0.417 65.096 0.907 -24.674 0.907 -24.674 0.417 65.096
10632.333 0.419 65.029 0.907 -24.742 0.907 -24.742 0.419 65.029
10657.292 0.42 64.961 0.906 -24.81 0.906 -24.81 0.42 64.961
10682.25 0.421 64.894 0.906 -24.878 0.906 -24.878 0.421 64.894
10707.208 0.422 64.827 0.905 -24.946 0.905 -24.946 0.422 64.827
10732.167 0.423 64.76 0.905 -25.013 0.905 -25.013 0.423 64.76
10757.125 0.424 64.693 0.904 -25.081 0.904 -25.081 0.424 64.693
10782.083 0.425 64.626 0.904 -25.148 0.904 -25.148 0.425 64.626
10807.042 0.426 64.559 0.903 -25.216 0.903 -25.216 0.426 64.559
10832 0.427 64.493 0.903 -25.283 0.903 -25.283 0.427 64.493
10856.958 0.428 64.426 0.902 -25.35 0.902 -25.35 0.428 64.426
10881.917 0.429 64.36 0.902 -25.417 0.902 -25.417 0.429 64.36
10906.875 0.43 64.294 0.901 -25.484 0.901 -25.484 0.43 64.294
10931.833 0.431 64.228 0.901 -25.551 0.901 -25.551 0.431 64.228
10956.792 0.432 64.162 0.9 -25.618 0.9 -25.618 0.432 64.162
10981.75 0.433 64.096 0.9 -25.684 0.9 -25.684 0.433 64.096
11006.708 0.434 64.03 0.899 -25.751 0.899 -25.751 0.434 64.03
11031.667 0.436 63.964 0.899 -25.817 0.899 -25.817 0.436 63.964
11056.625 0.437 63.898 0.898 -25.884 0.898 -25.884 0.437 63.898
11081.583 0.438 63.833 0.898 -25.95 0.898 -25.95 0.438 63.833
11106.542 0.439 63.767 0.897 -26.016 0.897 -26.016 0.439 63.767
11131.5 0.44 63.702 0.897 -26.082 0.897 -26.082 0.44 63.702
11156.458 0.441 63.637 0.896 -26.148 0.896 -26.148 0.441 63.637
11181.417 0.442 63.572 0.895 -26.213 0.895 -26.213 0.442 63.572
11206.375 0.443 63.507 0.895 -26.279 0.895 -26.279 0.443 63.507
11231.333 0.444 63.442 0.894 -26.344 0.894 -26.344 0.444 63.442
11256.292 0.445 63.377 0.894 -26.41 0.894 -26.41 0.445 63.377
11281.25 0.446 63.312 0.893 -26.475 0.893 -26.475 0.446 63.312
11306.208 0.447 63.248 0.893 -26.54 0.893 -26.54 0.447 63.248
11331.167 0.448 63.183 0.892 -26.605 0.892 -26.605 0.448 63.183
11356.125 0.449 63.119 0.892 -26.67 0.892 -26.67 0.449 63.119
11381.083 0.45 63.055 0.891 -26.735 0.891 -26.735 0.45 63.055
11406.042 0.451 62.99 0.891 -26.8 0.891 -26.8 0.451 62.99
11431 0.452 62.926 0.89 -26.865 0.89 -26.865 0.452 62.926
11455.958 0.453 62.862 0.89 -26.929 0.89 -26.929 0.453 62.862
11480.917 0.454 62.798 0.889 -26.994 0.889 -26.994 0.454 62.798
11505.875 0.455 62.735 0.889 -27.058 0.889 -27.058 0.455 62.735
11530.833 0.456 62.671 0.888 -27.122 0.888 -27.122 0.456 62.671
11555.792 0.457 62.607 0.888 -27.187 0.888 -27.187 0.457 62.607
11580.75 0.458 62.544 0.887 -27.251 0.887 -27.251 0.458 62.544
11605.708 0.459 62.481 0.887 -27.315 0.887 -27.315 0.459 62.481
11630.667 0.46 62.417 0.886 -27.378 0.886 -27.378 0.46 62.417
11655.625 0.461 62.354 0.886 -27.442 0.886 -27.442 0.461 62.354
11680.583 0.462 62.291 0.885 -27.506 0.885 -27.506 0.462 62.291
11705.542 0.463 62.228 0.885 -27.569 0.885 -27.569 0.463 62.228
11730.5 0.464 62.165 0.884 -27.633 0.884 -27.633 0.464 62.165
11755.458 0.465 62.102 0.884 -27.696 0.884 -27.696 0.465 62.102
11780.417 0.466 62.04 0.883 -27.759 0.883 -27.759 0.466 62.04
11805.375 0.467 61.977 0.883 -27.822 0.883 -27.822 0.467 61.977
11830.333 0.468 61.915 0.882 -27.885 0.882 -27.885 0.468 61.915
11855.292 0.469 61.852 0.882 -27.948 0.882 -27.948 0.469 61.852
11880.25 0.47 61.79 0.881 -28.011 0.881 -28.011 0.47 61.79
11905.208 0.471 61.728 0.881 -28.074 0.881 -28.074 0.471 61.728
11930.167 0.472 61.666 0.88 -28.137 0.88 -28.137 0.472 61.666
11955.125 0.473 61.604 0.88 -28.199 0.88 -28.199 0.473 61.604
11980.083 0.473 61.542 0.879 -28.262 0.879 -28.262 0.473 61.542
12005.042 0.474 61.48 0.879 -28.324 0.879 -28.324 0.474 61.48
12030 0.475 61.418 0.878 -28.386 0.878 -28.386 0.475 61.418
12054.958 0.476 61.356 0.878 -28.448 0.878 -28.448 0.476 61.356
12079.917 0.477 61.295 0.877 -28.51 0.877 -28.51 0.477 61.295
12104.875 0.478 61.234 0.877 -28.572 0.877 -28.572 0.478 61.234
12129.833 0.479 61.172 0.876 -28.634 0.876 -28.634 0.479 61.172
12154.792 0.48 61.111 0.876 -28.696 0.876 -28.696 0.48 61.111
12179.75 0.481 61.05 0.875 -28.757 0.875 -28.757 0.481 61.05
12204.708 0.482 60.989 0.875 -28.819 0.875 -28.819 0.482 60.989
12229.667 0.483 60.928 0.874 -28.88 0.874 -28.88 0.483 60.928
12254.625 0.484 60.867 0.873 -28.942 0.873 -28.942 0.484 60.867
12279.583 0.485 60.806 0.873 -29.003 0.873 -29.003 0.485 60.806
12304.542 0.486 60.745 0.872 -29.064 0.872 -29.064 0.486 60.745
12329.5 0.487 60.685 0.872 -29.125 0.872 -29.125 0.487 60.685
12354.458 0.488 60.624 0.871 -29.186 0.871 -29.186 0.488 60.624
12379.417 0.489 60.564 0.871 -29.247 0.871 -29.247 0.489 60.564
12404.375 0.49 60.504 0.87 -29.308 0.87 -29.308 0.49 60.504
12429.333 0.49 60.443 0.87 -29.368 0.87 -29.368 0.49 60.443
12454.292 0.491 60.383 0.869 -29.429 0.869 -29.429 0.491 60.383
12479.25 0.492 60.323 0.869 -29.489 0.869 -29.489 0.492 60.323
12504.208 0.493 60.263 0.868 -29.55 0.868 -29.55 0.493 60.263
12529.167 0.494 60.204 0.868 -29.61 0.868 -29.61 0.494 60.204
12554.125 0.495 60.144 0.867 -29.67 0.867 -29.67 0.495 60.144
12579.083 0.496 60.084 0.867 -29.73 0.867 -29.73 0.496 60.084
12604.042 0.497 60.025 0.866 -29.79 0.866 -29.79 0.497 60.025
12629 0.498 59.965 0.866 -29.85 0.866 -29.85 0.498 59.965
12653.958 0.499 59.906 0.865 -29.91 0.865 -29.91 0.499 59.906
12678.917 0.5 59.846 0.865 -29.97 0.865 -29.97 0.5 59.846
12703.875 0.5 59.787 0.864 -30.03 0.864 -30.03 0.5 59.787
12728.833 0.501 59.728 0.864 -30.089 0.864 -30.089 0.501 59.728
12753.792 0.502 59.669 0.863 -30.149 0.863 -30.149 0.502 59.669
12778.75 0.503 59.61 0.863 -30.208 0.863 -30.208 0.503 59.61
12803.708 0.504 59.551 0.862 -30.267 0.862 -30.267 0.504 59.551
12828.667 0.505 59.493 0.862 -30.326 0.862 -30.326 0.505 59.493
12853.625 0.506 59.434 0.861 -30.385 0.861 -30.385 0.506 59.434
12878.583 0.507 59.375 0.861 -30.444 0.861 -30.444 0.507 59.375
12903.542 0.508 59.317 0.86 -30.503 0.86 -30.503 0.508 59.317
12928.5 0.508 59.259 0.859 -30.562 0.859 -30.562 0.508 59.259
12953.458 0.509 59.2 0.859 -30.621 0.859 -30.621 0.509 59.2
12978.417 0.51 59.142 0.858 -30.68 0.858 -30.68 0.51 59.142
13003.375 0.511 59.084 0.858 -30.738 0.858 -30.738 0.511 59.084
13028.333 0.512 59.026 0.857 -30.797 0.857 -30.797 0.512 59.026
13053.292 0.513 58.968 0.857 -30.855 0.857 -30.855 0.513 58.968
13078.25 0.514 58.91 0.856 -30.913 0.856 -30.913 0.514 58.91
13103.208 0.515 58.852 0.856 -30.971 0.856 -30.971 0.515 58.852
13128.167 0.515 58.795 0.855 -31.029 0.855 -31.029 0.515 58.795
13153.125 0.516 58.737 0.855 -31.087 0.855 -31.087 0.516 58.737
13178.083 0.517 58.68 0.854 -31.145 0.854 -31.145 0.517 58.68
13203.042 0.518 58.622 0.854 -31.203 0.854 -31.203 0.518 58.622
13228 0.519 58.565 0.853 -31.261 0.853 -31.261 0.519 58.565
13252.958 0.52 58.508 0.853 -31.318 0.853 -31.318 0.52 58.508
13277.917 0.521 58.45 0.852 -31.376 0.852 -31.376 0.521 58.45
13302.875 0.522 58.393 0.852 -31.434 0.852 -31.434 0.522 58.393
13327.833 0.522 58.336 0.851 -31.491 0.851 -31.491 0.522 58.336
13352.792 0.523 58.279 0.851 -31.548 0.851 -31.548 0.523 58.279
13377.75 0.524 58.223 0.85 -31.605 0.85 -31.605 0.524 58.223
13402.708 0.525 58.166 0.85 -31.662 0.85 -31.662 0.525 58.166
13427.667 0.526 58.109 0.849 -31.72 0.849 -31.72 0.526 58.109
13452.625 0.527 58.053 0.849 -31.776 0.849 -31.776 0.527 58.053
13477.583 0.527 57.996 0.848 -31.833 0.848 -31.833 0.527 57.996
13502.542 0.528 57.94 0.847 -31.89 0.847 -31.89 0.528 57.94
13527.5 0.529 57.884 0.847 -31.947 0.847 -31.947 0.529 57.884
13552.458 0.53 57.827 0.846 -32.003 0.846 -32.003 0.53 57.827
13577.417 0.531 57.771 0.846 -32.06 0.846 -32.06 0.531 57.771
13602.375 0.532 57.715 0.845 -32.116 0.845 -32.116 0.532 57.715
13627.333 0.532 57.659 0.845 -32.173 0.845 -32.173 0.532 57.659
13652.292 0.533 57.603 0.844 -32.229 0.844 -32.229 0.533 57.603
13677.25 0.534 57.548 0.844 -32.285 0.844 -32.285 0.534 57.548
13702.208 0.535 57.492 0.843 -32.341 0.843 -32.341 0.535 57.492
13727.167 0.536 57.436 0.843 -32.397 0.843 -32.397 0.536 57.436
13752.125 0.537 57.381 0.842 -32.453 0.842 -32.453 0.537 57.381
13777.083 0.537 57.325 0.842 -32.509 0.842 -32.509 0.537 57.325
13802.042 0.538 57.27 0.841 -32.564 0.841 -32.564 0.538 57.27
13827 0.539 57.215 0.841 -32.62 0.841 -32.62 0.539 57.215
13851.958 0.54 57.159 0.84 -32.676 0.84 -32.676 0.54 57.159
13876.917 0.541 57.104 0.84 -32.731 0.84 -32.731 0.541 57.104
13901.875 0.542 57.049 0.839 -32.787 0.839 -32.787 0.542 57.049
13926.833 0.542 56.994 0.839 -32.842 0.839 -32.842 0.542 56.994
13951.792 0.543 56.939 0.838 -32.897 0.838 -32.897 0.543 56.939
13976.75 0.544 56.885 0.838 -32.952 0.838 -32.952 0.544 56.885
14001.708 0.545 56.83 0.837 -33.007 0.837 -33.007 0.545 56.83
14026.667 0.546 56.775 0.837 -33.062 0.837 -33.062 0.546 56.775
14051.625 0.546 56.721 0.836 -33.117 0.836 -33.117 0.546 56.721
14076.583 0.547 56.666 0.835 -33.172 0.835 -33.172 0.547 56.666
14101.542 0.548 56.612 0.835 -33.227 0.835 -33.227 0.548 56.612
14126.5 0.549 56.557 0.834 -33.281 0.834 -33.281 0.549 56.557
14151.458 0.55 56.503 0.834 -33.336 0.834 -33.336 0.55 56.503
14176.417 0.55 56.449 0.833 -33.39 0.833 -33.39 0.55 56.449
14201.375 0.551 56.395 0.833 -33.445 0.833 -33.445 0.551 56.395
14226.333 0.552 56.341 0.832 -33.499 0.832 -33.499 0.552 56.341
14251.292 0.553 56.287 0.832 -33.553 0.832 -33.553 0.553 56.287
14276.25 0.554 56.233 0.831 -33.607 0.831 -33.607 0.554 56.233
14301.208 0.554 56.18 0.831 -33.661 0.831 -33.661 0.554 56.18
14326.167 0.555 56.126 0.83 -33.715 0.83 -33.715 0.555 56.126
14351.125 0.556 56.072 0.83 -33.769 0.83 -33.769 0.556 56.072
14376.083 0.557 56.019 0.829 -33.823 0.829 -33.823 0.557 56.019
14401.042 0.557 55.965 0.829 -33.877 0.829 -33.877 0.557 55.965
14426 0.558 55.912 0.828 -33.931 0.828 -33.931 0.558 55.912
14450.958 0.559 55.859 0.828 -33.984 0.828 -33.984 0.559 55.859
14475.917 0.56 55.806 0.827 -34.038 0.827 -34.038 0.56 55.806
14500.875 0.561 55.753 0.827 -34.091 0.827 -34.091 0.561 55.753
14525.833 0.561 55.7 0.826 -34.144 0.826 -34.144 0.561 55.7
14550.792 0.562 55.647 0.826 -34.198 0.826 -34.198 0.562 55.647
14575.75 0.563 55.594 0.825 -34.251 0.825 -34.251 0.563 55.594
14600.708 0.564 55.541 0.825 -34.304 0.825 -34.304 0.564 55.541
14625.667 0.564 55.488 0.824 -34.357 0.824 -34.357 0.564 55.488
14650.625 0.565 55.436 0.823 -34.41 0.823 -34.41 0.565 55.436
14675.583 0.566 55.383 0.823 -34.463 0.823 -34.463 0.566 55.383
14700.542 0.567 55.331 0.822 -34.515 0.822 -34.515 0.567 55.331
14725.5 0.567 55.278 0.822 -34.568 0.822 -34.568 0.567 55.278
14750.458 0.568 55.226 0.821 -34.621 0.821 -34.621 0.568 55.226
14775.417 0.569 55.174 0.821 -34.673 0.821 -34.673 0.569 55.174
14800.375 0.57 55.121 0.82 -34.726 0.82 -34.726 0.57 55.121
14825.333 0.57 55.069 0.82 -34.778 0.82 -34.778 0.57 55.069
14850.292 0.571 55.017 0.819 -34.83 0.819 -34.83 0.571 55.017
14875.25 0.572 54.965 0.819 -34.883 0.819 -34.883 0.572 54.965
14900.208 0.573 54.914 0.818 -34.935 0.818 -34.935 0.573 54.914
14925.167 0.573 54.862 0.818 -34.987 0.818 -34.987 0.573 54.862
14950.125 0.574 54.81 0.817 -35.039 0.817 -35.039 0.574 54.81
14975.083 0.575 54.759 0.817 -35.091 0.817 -35.091 0.575 54.759
15000.042 0.576 54.707 0.816 -35.143 0.816 -35.143 0.576 54.707
15025 0.576 54.656 0.816 -35.194 0.816 -35.194 0.576 54.656
15049.958 0.577 54.604 0.815 -35.246 0.815 -35.246 0.577 54.604
15074.917 0.578 54.553 0.815 -35.298 0.815 -35.298 0.578 54.553
15099.875 0.579 54.502 0.814 -35.349 0.814 -35.349 0.579 54.502
15124.833 0.579 54.45 0.814 -35.401 0.814 -35.401 0.579 54.45
15149.792 0.58 54.399 0.813 -35.452 0.813 -35.452 0.58 54.399
15174.75 0.581 54.348 0.813 -35.503 0.813 -35.503 0.581 54.348
15199.708 0.581 54.297 0.812 -35.555 0.812 -35.555 0.581 54.297
15224.667 0.582 54.246 0.812 -35.606 0.812 -35.606 0.582 54.246
15249.625 0.583 54.196 0.811 -35.657 0.811 -35.657 0.583 54.196
15274.583 0.584 54.145 0.811 -35.708 0.811 -35.708 0.584 54.145
15299.542 0.584 54.094 0.81 -35.759 0.81 -35.759 0.584 54.094
15324.5 0.585 54.044 0.809 -35.81 0.809 -35.81 0.585 54.044
15349.458 0.586 53.993 0.809 -35.86 0.809 -35.86 0.586 53.993
15374.417 0.587 53.943 0.808 -35.911 0.808 -35.911 0.587 53.943
15399.375 0.587 53.893 0.808 -35.962 0.808 -35.962 0.587 53.893
15424.333 0.588 53.842 0.807 -36.012 0.807 -36.012 0.588 53.842
15449.292 0.589 53.792 0.807 -36.063 0.807 -36.063 0.589 53.792
15474.25 0.589 53.742 0.806 -36.113 0.806 -36.113 0.589 53.742
15499.208 0.59 53.692 0.806 -36.163 0.806 -36.163 0.59 53.692
15524.167 0.591 53.642 0.805 -36.214 0.805 -36.214 0.591 53.642
15549.125 0.592 53.592 0.805 -36.264 0.805 -36.264 0.592 53.592
15574.083 0.592 53.542 0.804 -36.314 0.804 -36.314 0.592 53.542
15599.042 0.593 53.492 0.804 -36.364 0.804 -36.364 0.593 53.492
15624 0.594 53.443 0.803 -36.414 0.803 -36.414 0.594 53.443
15648.958 0.594 53.393 0.803 -36.464 0.803 -36.464 0.594 53.393
15673.917 0.595 53.344 0.802 -36.513 0.802 -36.513 0.595 53.344
15698.875 0.596 53.294 0.802 -36.563 0.802 -36.563 0.596 53.294
15723.833 0.596 53.245 0.801 -36.613 0.801 -36.613 0.596 53.245
15748.792 0.597 53.195 0.801 -36.662 0.801 -36.662 0.597 53.195
15773.75 0.598 53.146 0.8 -36.712 0.8 -36.712 0.598 53.146
15798.708 0.598 53.097 0.8 -36.761 0.8 -36.761 0.598 53.097
15823.667 0.599 53.048 0.799 -36.811 0.799 -36.811 0.599 53.048
15848.625 0.6 52.999 0.799 -36.86 0.799 -36.86 0.6 52.999
15873.583 0.601 52.95 0.798 -36.909 0.798 -36.909 0.601 52.95
15898.542 0.601 52.901 0.798 -36.958 0.798 -36.958 0.601 52.901
15923.5 0.602 52.852 0.797 -37.007 0.797 -37.007 0.602 52.852
15948.458 0.603 52.804 0.797 -37.056 0.797 -37.056 0.603 52.804
15973.417 0.603 52.755 0.796 -37.105 0.796 -37.105 0.603 52.755
15998.375 0.604 52.706 0.796 -37.154 0.796 -37.154 0.604 52.706
16023.333 0.605 52.658 0.795 -37.203 0.795 -37.203 0.605 52.658
16048.292 0.605 52.609 0.795 -37.252 0.795 -37.252 0.605 52.609
16073.25 0.606 52.561 0.794 -37.3 0.794 -37.3 0.606 52.561
16098.208 0.607 52.513 0.793 -37.349 0.793 -37.349 0.607 52.513
16123.167 0.607 52.464 0.793 -37.397 0.793 -37.397 0.607 52.464
16148.125 0.608 52.416 0.792 -37.446 0.792 -37.446 0.608 52.416
16173.083 0.609 52.368 0.792 -37.494 0.792 -37.494 0.609 52.368
16198.042 0.609 52.32 0.791 -37.542 0.791 -37.542 0.609 52.32
16223 0.61 52.272 0.791 -37.59 0.791 -37.59 0.61 52.272
16247.958 0.611 52.224 0.79 -37.639 0.79 -37.639 0.611 52.224
16272.917 0.611 52.176 0.79 -37.687 0.79 -37.687 0.611 52.176
16297.875 0.612 52.129 0.789 -37.735 0.789 -37.735 0.612 52.129
16322.833 0.613 52.081 0.789 -37.783 0.789 -37.783 0.613 52.081
16347.792 0.613 52.033 0.788 -37.83 0.788 -37.83 0.613 52.033
16372.75 0.614 51.986 0.788 -37.878 0.788 -37.878 0.614 51.986
16397.708 0.615 51.938 0.787 -37.926 0.787 -37.926 0.615 51.938
16422.667 0.615 51.891 0.787 -37.974 0.787 -37.974 0.615 51.891
16447.625 0.616 51.844 0.786 -38.021 0.786 -38.021 0.616 51.844
16472.583 0.617 51.796 0.786 -38.069 0.786 -38.069 0.617 51.796
16497.542 0.617 51.749 0.785 -38.116 0.785 -38.116 0.617 51.749
16522.5 0.618 51.702 0.785 -38.163 0.785 -38.163 0.618 51.702
16547.458 0.619 51.655 0.784 -38.211 0.784 -38.211 0.619 51.655
16572.417 0.619 51.608 0.784 -38.258 0.784 -38.258 0.619 51.608
16597.375 0.62 51.561 0.783 -38.305 0.783 -38.305 0.62 51.561
16622.333 0.62 51.514 0.783 -38.352 0.783 -38.352 0.62 51.514
16647.292 0.621 51.467 0.782 -38.399 0.782 -38.399 0.621 51.467
16672.25 0.622 51.421 0.782 -38.446 0.782 -38.446 0.622 51.421
16697.208 0.622 51.374 0.781 -38.493 0.781 -38.493 0.622 51.374
16722.167 0.623 51.327 0.781 -38.54 0.781 -38.54 0.623 51.327
16747.125 0.624 51.281 0.78 -38.586 0.78 -38.586 0.624 51.281
16772.083 0.624 51.234 0.78 -38.633 0.78 -38.633 0.624 51.234
16797.042 0.625 51.188 0.779 -38.68 0.779 -38.68 0.625 51.188
16822 0.626 51.142 0.779 -38.726 0.779 -38.726 0.626 51.142
16846.958 0.626 51.095 0.778 -38.773 0.778 -38.773 0.626 51.095
16871.917 0.627 51.049 0.778 -38.819 0.778 -38.819 0.627 51.049
16896.875 0.627 51.003 0.777 -38.865 0.777 -38.865 0.627 51.003
16921.833 0.628 50.957 0.777 -38.912 0.777 -38.912 0.628 50.957
16946.792 0.629 50.911 0.776 -38.958 0.776 -38.958 0.629 50.911
16971.75 0.629 50.865 0.776 -39.004 0.776 -39.004 0.629 50.865
16996.708 0.63 50.819 0.775 -39.05 0.775 -39.05 0.63 50.819
17021.667 0.631 50.774 0.775 -39.096 0.775 -39.096 0.631 50.774
17046.625 0.631 50.728 0.774 -39.142 0.774 -39.142 0.631 50.728
17071.583 0.632 50.682 0.774 -39.188 0.774 -39.188 0.632 50.682
17096.542 0.632 50.637 0.773 -39.234 0.773 -39.234 0.632 50.637
17121.5 0.633 50.591 0.773 -39.279 0.773 -39.279 0.633 50.591
17146.458 0.634 50.546 0.772 -39.325 0.772 -39.325 0.634 50.546
17171.417 0.634 50.5 0.772 -39.371 0.772 -39.371 0.634 50.5
17196.375 0.635 50.455 0.771 -39.416 0.771 -39.416 0.635 50.455
17221.333 0.636 50.41 0.771 -39.462 0.771 -39.462 0.636 50.41
17246.292 0.636 50.365 0.77 -39.507 0.77 -39.507 0.636 50.365
17271.25 0.637 50.319 0.77 -39.552 0.77 -39.552 0.637 50.319
17296.208 0.637 50.274 0.769 -39.598 0.769 -39.598 0.637 50.274
17321.167 0.638 50.229 0.769 -39.643 0.769 -39.643 0.638 50.229
17346.125 0.639 50.184 0.768 -39.688 0.768 -39.688 0.639 50.184
17371.083 0.639 50.14 0.768 -39.733 0.768 -39.733 0.639 50.14
17396.042 0.64 50.095 0.767 -39.778 0.767 -39.778 0.64 50.095
17421 0.64 50.05 0.767 -39.823 0.767 -39.823 0.64 50.05
17445.958 0.641 50.005 0.766 -39.868 0.766 -39.868 0.641 50.005
17470.917 0.642 49.961 0.766 -39.913 0.766 -39.913 0.642 49.961
17495.875 0.642 49.916 0.765 -39.957 0.765 -39.957 0.642 49.916
17520.833 0.643 49.872 0.765 -40.002 0.765 -40.002 0.643 49.872
17545.792 0.643 49.827 0.764 -40.047 0.764 -40.047 0.643 49.827
17570.75 0.644 49.783 0.764 -40.091 0.764 -40.091 0.644 49.783
17595.708 0.645 49.739 0.763 -40.136 0.763 -40.136 0.645 49.739
17620.667 0.645 49.695 0.763 -40.18 0.763 -40.18 0.645 49.695
17645.625 0.646 49.65 0.762 -40.224 0.762 -40.224 0.646 49.65
17670.583 0.646 49.606 0.762 -40.269 0.762 -40.269 0.646 49.606
17695.542 0.647 49.562 0.761 -40.313 0.761 -40.313 0.647 49.562
17720.5 0.648 49.518 0.761 -40.357 0.761 -40.357 0.648 49.518
17745.458 0.648 49.474 0.76 -40.401 0.76 -40.401 0.648 49.474
17770.417 0.649 49.431 0.76 -40.445 0.76 -40.445 0.649 49.431
17795.375 0.649 49.387 0.759 -40.489 0.759 -40.489 0.649 49.387
17820.333 0.65 49.343 0.759 -40.533 0.759 -40.533 0.65 49.343
17845.292 0.65 49.299 0.758 -40.577 0.758 -40.577 0.65 49.299
17870.25 0.651 49.256 0.758 -40.621 0.758 -40.621 0.651 49.256
17895.208 0.652 49.212 0.757 -40.665 0.757 -40.665 0.652 49.212
17920.167 0.652 49.169 0.757 -40.708 0.757 -40.708 0.652 49.169
17945.125 0.653 49.125 0.756 -40.752 0.756 -40.752 0.653 49.125
17970.083 0.653 49.082 0.756 -40.795 0.756 -40.795 0.653 49.082
17995.042 0.654 49.039 0.755 -40.839 0.755 -40.839 0.654 49.039
18020 0.655 48.996 0.755 -40.882 0.755 -40.882 0.655 48.996
18044.958 0.655 48.952 0.754 -40.925 0.754 -40.925 0.655 48.952
18069.917 0.656 48.909 0.754 -40.969 0.754 -40.969 0.656 48.909
18094.875 0.656 48.866 0.753 -41.012 0.753 -41.012 0.656 48.866
18119.833 0.657 48.823 0.753 -41.055 0.753 -41.055 0.657 48.823
18144.792 0.657 48.78 0.752 -41.098 0.752 -41.098 0.657 48.78
18169.75 0.658 48.738 0.752 -41.141 0.752 -41.141 0.658 48.738
18194.708 0.658 48.695 0.751 -41.184 0.751 -41.184 0.658 48.695
18219.667 0.659 48.652 0.751 -41.227 0.751 -41.227 0.659 48.652
18244.625 0.66 48.609 0.75 -41.27 0.75 -41.27 0.66 48.609
18269.583 0.66 48.567 0.75 -41.313 0.75 -41.313 0.66 48.567
18294.542 0.661 48.524 0.749 -41.355 0.749 -41.355 0.661 48.524
18319.5 0.661 48.482 0.749 -41.398 0.749 -41.398 0.661 48.482
18344.458 0.662 48.439 0.748 -41.441 0.748 -41.441 0.662 48.439
18369.417 0.662 48.397 0.748 -41.483 0.748 -41.483 0.662 48.397
18394.375 0.663 48.355 0.747 -41.526 0.747 -41.526 0.663 48.355
18419.333 0.664 48.312 0.747 -41.568 0.747 -41.568 0.664 48.312
18444.292 0.664 48.27 0.746 -41.611 0.746 -41.611 0.664 48.27
18469.25 0.665 48.228 0.746 -41.653 0.746 -41.653 0.665 48.228
18494.208 0.665 48.186 0.745 -41.695 0.745 -41.695 0.665 48.186
18519.167 0.666 48.144 0.745 -41.737 0.745 -41.737 0.666 48.144
18544.125 0.666 48.102 0.744 -41.779 0.744 -41.779 0.666 48.102
18569.083 0.667 48.06 0.744 -41.821 0.744 -41.821 0.667 48.06
18594.042 0.667 48.019 0.743 -41.863 0.743 -41.863 0.667 48.019
18619 0.668 47.977 0.743 -41.905 0.743 -41.905 0.668 47.977
18643.958 0.668 47.935 0.742 -41.947 0.742 -41.947 0.668 47.935
18668.917 0.669 47.893 0.742 -41.989 0.742 -41.989 0.669 47.893
18693.875 0.67 47.852 0.741 -42.031 0.741 -42.031 0.67 47.852
18718.833 0.67 47.81 0.741 -42.072 0.741 -42.072 0.67 47.81
18743.792 0.671 47.769 0.74 -42.114 0.74 -42.114 0.671 47.769
18768.75 0.671 47.727 0.74 -42.156 0.74 -42.156 0.671 47.727
18793.708 0.672 47.686 0.739 -42.197 0.739 -42.197 0.672 47.686
18818.667 0.672 47.645 0.739 -42.239 0.739 -42.239 0.672 47.645
18843.625 0.673 47.604 0.738 -42.28 0.738 -42.28 0.673 47.604
18868.583 0.673 47.562 0.738 -42.321 0.738 -42.321 0.673 47.562
18893.542 0.674 47.521 0.738 -42.363 0.738 -42.363 0.674 47.521
18918.5 0.674 47.48 0.737 -42.404 0.737 -42.404 0.674 47.48
18943.458 0.675 47.439 0.737 -42.445 0.737 -42.445 0.675 47.439
18968.417 0.675 47.398 0.736 -42.486 0.736 -42.486 0.675 47.398
18993.375 0.676 47.357 0.736 -42.527 0.736 -42.527 0.676 47.357
19018.333 0.676 47.317 0.735 -42.568 0.735 -42.568 0.676 47.317
19043.292 0.677 47.276 0.735 -42.609 0.735 -42.609 0.677 47.276
19068.25 0.678 47.235 0.734 -42.65 0.734 -42.65 0.678 47.235
19093.208 0.678 47.195 0.734 -42.691 0.734 -42.691 0.678 47.195
19118.167 0.679 47.154 0.733 -42.731 0.733 -42.731 0.679 47.154
19143.125 0.679 47.113 0.733 -42.772 0.733 -42.772 0.679 47.113
19168.083 0.68 47.073 0.732 -42.813 0.732 -42.813 0.68 47.073
19193.042 0.68 47.033 0.732 -42.853 0.732 -42.853 0.68 47.033
19218 0.681 46.992 0.731 -42.894 0.731 -42.894 0.681 46.992
19242.958 0.681 46.952 0.731 -42.934 0.731 -42.934 0.681 46.952
19267.917 0.682 46.912 0.73 -42.975 0.73 -42.975 0.682 46.912
19292.875 0.682 46.871 0.73 -43.015 0.73 -43.015 0.682 46.871
19317.833 0.683 46.831 0.729 -43.055 0.729 -43.055 0.683 46.831
19342.792 0.683 46.791 0.729 -43.096 0.729 -43.096 0.683 46.791
19367.75 0.684 46.751 0.728 -43.136 0.728 -43.136 0.684 46.751
19392.708 0.684 46.711 0.728 -43.176 0.728 -43.176 0.684 46.711
19417.667 0.685 46.671 0.727 -43.216 0.727 -43.216 0.685 46.671
19442.625 0.685 46.632 0.727 -43.256 0.727 -43.256 0.685 46.632
19467.583 0.686 46.592 0.726 -43.296 0.726 -43.296 0.686 46.592
19492.542 0.686 46.552 0.726 -43.336 0.726 -43.336 0.686 46.552
19517.5 0.687 46.512 0.726 -43.376 0.726 -43.376 0.687 46.512
19542.458 0.687 46.473 0.725 -43.415 0.725 -43.415 0.687 46.473
19567.417 0.688 46.433 0.725 -43.455 0.725 -43.455 0.688 46.433
19592.375 0.688 46.394 0.724 -43.495 0.724 -43.495 0.688 46.394
19617.333 0.689 46.354 0.724 -43.534 0.724 -43.534 0.689 46.354
19642.292 0.689 46.315 0.723 -43.574 0.723 -43.574 0.689 46.315
19667.25 0.69 46.275 0.723 -43.613 0.723 -43.613 0.69 46.275
19692.208 0.69 46.236 0.722 -43.653 0.722 -43.653 0.69 46.236
19717.167 0.691 46.197 0.722 -43.692 0.722 -43.692 0.691 46.197
19742.125 0.691 46.158 0.721 -43.732 0.721 -43.732 0.691 46.158
19767.083 0.692 46.119 0.721 -43.771 0.721 -43.771 0.692 46.119
19792.042 0.692 46.08 0.72 -43.81 0.72 -43.81 0.692 46.08
19817 0.693 46.041 0.72 -43.849 0.72 -43.849 0.693 46.041
19841.958 0.693 46.002 0.719 -43.888 0.719 -43.888 0.693 46.002
19866.917 0.694 45.963 0.719 -43.927 0.719 -43.927 0.694 45.963
19891.875 0.694 45.924 0.718 -43.966 0.718 -43.966 0.694 45.924
19916.833 0.695 45.885 0.718 -44.005 0.718 -44.005 0.695 45.885
19941.792 0.695 45.846 0.717 -44.044 0.717 -44.044 0.695 45.846
19966.75 0.696 45.808 0.717 -44.083 0.717 -44.083 0.696 45.808
19991.708 0.696 45.769 0.717 -44.122 0.717 -44.122 0.696 45.769
20016.667 0.697 45.73 0.716 -44.161 0.716 -44.161 0.697 45.73
20041.625 0.697 45.692 0.716 -44.199 0.716 -44.199 0.697 45.692
20066.583 0.698 45.653 0.715 -44.238 0.715 -44.238 0.698 45.653
20091.542 0.698 45.615 0.715 -44.276 0.715 -44.276 0.698 45.615
20116.5 0.699 45.577 0.714 -44.315 0.714 -44.315 0.699 45.577
20141.458 0.699 45.538 0.714 -44.353 0.714 -44.353 0.699 45.538
20166.417 0.7 45.5 0.713 -44.392 0.713 -44.392 0.7 45.5
20191.375 0.7 45.462 0.713 -44.43 0.713 -44.43 0.7 45.462
20216.333 0.701 45.424 0.712 -44.468 0.712 -44.468 0.701 45.424
20241.292 0.701 45.386 0.712 -44.507 0.712 -44.507 0.701 45.386
20266.25 0.701 45.348 0.711 -44.545 0.711 -44.545 0.701 45.348
20291.208 0.702 45.31 0.711 -44.583 0.711 -44.583 0.702 45.31
20316.167 0.702 45.272 0.71 -44.621 0.71 -44.621 0.702 45.272
20341.125 0.703 45.234 0.71 -44.659 0.71 -44.659 0.703 45.234
20366.083 0.703 45.196 0.71 -44.697 0.71 -44.697 0.703 45.196
20391.042 0.704 45.158 0.709 -44.735 0.709 -44.735 0.704 45.158
20416 0.704 45.12 0.709 -44.773 0.709 -44.773 0.704 45.12
20440.958 0.705 45.083 0.708 -44.811 0.708 -44.811 0.705 45.083
20465.917 0.705 45.045 0.708 -44.848 0.708 -44.848 0.705 45.045
20490.875 0.706 45.008 0.707 -44.886 0.707 -44.886 0.706 45.008
20515.833 0.706 44.97 0.707 -44.924 0.707 -44.924 0.706 44.97
20540.792 0.707 44.933 0.706 -44.961 0.706 -44.961 0.707 44.933
20565.75 0.707 44.895 0.706 -44.999 0.706 -44.999 0.707 44.895
20590.708 0.708 44.858 0.705 -45.036 0.705 -45.036 0.708 44.858
20615.667 0.708 44.821 0.705 -45.074 0.705 -45.074 0.708 44.821
20640.625 0.708 44.783 0.704 -45.111 0.704 -45.111 0.708 44.783
20665.583 0.709 44.746 0.704 -45.149 0.704 -45.149 0.709 44.746
20690.542 0.709 44.709 0.704 -45.186 0.704 -45.186 0.709 44.709
20715.5 0.71 44.672 0.703 -45.223 0.703 -45.223 0.71 44.672
20740.458 0.71 44.635 0.703 -45.26 0.703 -45.26 0.71 44.635
20765.417 0.711 44.598 0.702 -45.297 0.702 -45.297 0.711 44.598
20790.375 0.711 44.561 0.702 -45.335 0.702 -45.335 0.711 44.561
20815.333 0.712 44.524 0.701 -45.372 0.701 -45.372 0.712 44.524
20840.292 0.712 44.487 0.701 -45.409 0.701 -45.409 0.712 44.487
20865.25 0.713 44.45 0.7 -45.445 0.7 -45.445 0.713 44.45
20890.208 0.713 44.414 0.7 -45.482 0.7 -45.482 0.713 44.414
20915.167 0.713 44.377 0.699 -45.519 0.699 -45.519 0.713 44.377
20940.125 0.714 44.34 0.699 -45.556 0.699 -45.556 0.714 44.34
20965.083 0.714 44.304 0.698 -45.593 0.698 -45.593 0.714 44.304
20990.042 0.715 44.267 0.698 -45.629 0.698 -45.629 0.715 44.267
21015 0.715 44.231 0.698 -45.666 0.698 -45.666 0.715 44.231
21039.958 0.716 44.194 0.697 -45.702 0.697 -45.702 0.716 44.194
21064.917 0.716 44.158 0.697 -45.739 0.697 -45.739 0.716 44.158
21089.875 0.717 44.122 0.696 -45.775 0.696 -45.775 0.717 44.122
21114.833 0.717 44.085 0.696 -45.812 0.696 -45.812 0.717 44.085
21139.792 0.717 44.049 0.695 -45.848 0.695 -45.848 0.717 44.049
21164.75 0.718 44.013 0.695 -45.885 0.695 -45.885 0.718 44.013
21189.708 0.718 43.977 0.694 -45.921 0.694 -45.921 0.718 43.977
21214.667 0.719 43.941 0.694 -45.957 0.694 -45.957 0.719 43.941
21239.625 0.719 43.905 0.693 -45.993 0.693 -45.993 0.719 43.905
21264.583 0.72 43.869 0.693 -46.029 0.693 -46.029 0.72 43.869
21289.542 0.72 43.833 0.693 -46.065 0.693 -46.065 0.72 43.833
21314.5 0.721 43.797 0.692 -46.101 0.692 -46.101 0.721 43.797
21339.458 0.721 43.761 0.692 -46.137 0.692 -46.137 0.721 43.761
21364.417 0.721 43.725 0.691 -46.173 0.691 -46.173 0.721 43.725
21389.375 0.722 43.689 0.691 -46.209 0.691 -46.209 0.722 43.689
21414.333 0.722 43.654 0.69 -46.245 0.69 -46.245 0.722 43.654
21439.292 0.723 43.618 0.69 -46.281 0.69 -46.281 0.723 43.618
21464.25 0.723 43.583 0.689 -46.316 0.689 -46.316 0.723 43.583
21489.208 0.724 43.547 0.689 -46.352 0.689 -46.352 0.724 43.547
21514.167 0.724 43.511 0.689 -46.388 0.689 -46.388 0.724 43.511
21539.125 0.724 43.476 0.688 -46.423 0.688 -46.423 0.724 43.476
21564.083 0.725 43.441 0.688 -46.459 0.688 -46.459 0.725 43.441
21589.042 0.725 43.405 0.687 -46.494 0.687 -46.494 0.725 43.405
21614 0.726 43.37 0.687 -46.53 0.687 -46.53 0.726 43.37
21638.958 0.726 43.335 0.686 -46.565 0.686 -46.565 0.726 43.335
21663.917 0.727 43.3 0.686 -46.6 0.686 -46.6 0.727 43.3
21688.875 0.727 43.264 0.685 -46.636 0.685 -46.636 0.727 43.264
21713.833 0.727 43.229 0.685 -46.671 0.685 -46.671 0.727 43.229
21738.792 0.728 43.194 0.684 -46.706 0.684 -46.706 0.728 43.194
21763.75 0.728 43.159 0.684 -46.741 0.684 -46.741 0.728 43.159
21788.708 0.729 43.124 0.684 -46.776 0.684 -46.776 0.729 43.124
21813.667 0.729 43.089 0.683 -46.811 0.683 -46.811 0.729 43.089
21838.625 0.73 43.055 0.683 -46.846 0.683 -46.846 0.73 43.055
21863.583 0.73 43.02 0.682 -46.881 0.682 -46.881 0.73 43.02
21888.542 0.73 42.985 0.682 -46.916 0.682 -46.916 0.73 42.985
21913.5 0.731 42.95 0.681 -46.951 0.681 -46.951 0.731 42.95
21938.458 0.731 42.916 0.681 -46.986 0.681 -46.986 0.731 42.916
21963.417 0.732 42.881 0.68 -47.02 0.68 -47.02 0.732 42.881
21988.375 0.732 42.846 0.68 -47.055 0.68 -47.055 0.732 42.846
22013.333 0.732 42.812 0.68 -47.09 0.68 -47.09 0.732 42.812
22038.292 0.733 42.777 0.679 -47.124 0.679 -47.124 0.733 42.777
22063.25 0.733 42.743 0.679 -47.159 0.679 -47.159 0.733 42.743
22088.208 0.734 42.709 0.678 -47.193 0.678 -47.193 0.734 42.709
22113.167 0.734 42.674 0.678 -47.228 0.678 -47.228 0.734 42.674
22138.125 0.734 42.64 0.677 -47.262 0.677 -47.262 0.734 42.64
22163.083 0.735 42.606 0.677 -47.297 0.677 -47.297 0.735 42.606
22188.042 0.735 42.571 0.677 -47.331 0.677 -47.331 0.735 42.571
22213 0.736 42.537 0.676 -47.365 0.676 -47.365 0.736 42.537
22237.958 0.736 42.503 0.676 -47.399 0.676 -47.399 0.736 42.503
22262.917 0.736 42.469 0.675 -47.434 0.675 -47.434 0.736 42.469
22287.875 0.737 42.435 0.675 -47.468 0.675 -47.468 0.737 42.435
22312.833 0.737 42.401 0.674 -47.502 0.674 -47.502 0.737 42.401
22337.792 0.738 42.367 0.674 -47.536 0.674 -47.536 0.738 42.367
22362.75 0.738 42.333 0.673 -47.57 0.673 -47.57 0.738 42.333
22387.708 0.739 42.3 0.673 -47.604 0.673 -47.604 0.739 42.3
22412.667 0.739 42.266 0.673 -47.638 0.673 -47.638 0.739 42.266
22437.625 0.739 42.232 0.672 -47.672 0.672 -47.672 0.739 42.232
22462.583 0.74 42.198 0.672 -47.705 0.672 -47.705 0.74 42.198
22487.542 0.74 42.165 0.671 -47.739 0.671 -47.739 0.74 42.165
22512.5 0.74 42.131 0.671 -47.773 0.671 -47.773 0.74 42.131
22537.458 0.741 42.098 0.67 -47.806 0.67 -47.806 0.741 42.098
22562.417 0.741 42.064 0.67 -47.84 0.67 -47.84 0.741 42.064
22587.375 0.742 42.031 0.67 -47.874 0.67 -47.874 0.742 42.031
22612.333 0.742 41.997 0.669 -47.907 0.669 -47.907 0.742 41.997
22637.292 0.742 41.964 0.669 -47.941 0.669 -47.941 0.742 41.964
22662.25 0.743 41.93 0.668 -47.974 0.668 -47.974 0.743 41.93
22687.208 0.743 41.897 0.668 -48.007 0.668 -48.007 0.743 41.897
22712.167 0.744 41.864 0.667 -48.041 0.667 -48.041 0.744 41.864
22737.125 0.744 41.831 0.667 -48.074 0.667 -48.074 0.744 41.831
22762.083 0.744 41.798 0.667 -48.107 0.667 -48.107 0.744 41.798
22787.042 0.745 41.765 0.666 -48.141 0.666 -48.141 0.745 41.765
22812 0.745 41.731 0.666 -48.174 0.666 -48.174 0.745 41.731
22836.958 0.746 41.698 0.665 -48.207 0.665 -48.207 0.746 41.698
22861.917 0.746 41.666 0.665 -48.24 0.665 -48.24 0.746 41.666
22886.875 0.746 41.633 0.664 -48.273 0.664 -48.273 0.746 41.633
22911.833 0.747 41.6 0.664 -48.306 0.664 -48.306 0.747 41.6
22936.792 0.747 41.567 0.663 -48.339 0.663 -48.339 0.747 41.567
22961.75 0.747 41.534 0.663 -48.372 0.663 -48.372 0.747 41.534
22986.708 0.748 41.501 0.663 -48.405 0.663 -48.405 0.748 41.501
23011.667 0.748 41.469 0.662 -48.437 0.662 -48.437 0.748 41.469
23036.625 0.749 41.436 0.662 -48.47 0.662 -48.47 0.749 41.436
23061.583 0.749 41.403 0.661 -48.503 0.661 -48.503 0.749 41.403
23086.542 0.749 41.371 0.661 -48.536 0.661 -48.536 0.749 41.371
23111.5 0.75 41.338 0.661 -48.568 0.661 -48.568 0.75 41.338
23136.458 0.75 41.306 0.66 -48.601 0.66 -48.601 0.75 41.306
23161.417 0.75 41.273 0.66 -48.633 0.66 -48.633 0.75 41.273
23186.375 0.751 41.241 0.659 -48.666 0.659 -48.666 0.751 41.241
23211.333 0.751 41.209 0.659 -48.698 0.659 -48.698 0.751 41.209
23236.292 0.752 41.176 0.658 -48.731 0.658 -48.731 0.752 41.176
23261.25 0.752 41.144 0.658 -48.763 0.658 -48.763 0.752 41.144
23286.208 0.752 41.112 0.658 -48.795 0.658 -48.795 0.752 41.112
23311.167 0.753 41.08 0.657 -48.828 0.657 -48.828 0.753 41.08
23336.125 0.753 41.048 0.657 -48.86 0.657 -48.86 0.753 41.048
23361.083 0.753 41.015 0.656 -48.892 0.656 -48.892 0.753 41.015
23386.042 0.754 40.983 0.656 -48.924 0.656 -48.924 0.754 40.983
23411 0.754 40.951 0.655 -48.956 0.655 -48.956 0.754 40.951
23435.958 0.755 40.919 0.655 -48.988 0.655 -48.988 0.755 40.919
23460.917 0.755 40.888 0.655 -49.02 0.655 -49.02 0.755 40.888
23485.875 0.755 40.856 0.654 -49.052 0.654 -49.052 0.755 40.856
23510.833 0.756 40.824 0.654 -49.084 0.654 -49.084 0.756 40.824
23535.792 0.756 40.792 0.653 -49.116 0.653 -49.116 0.756 40.792
23560.75 0.756 40.76 0.653 -49.148 0.653 -49.148 0.756 40.76
23585.708 0.757 40.729 0.652 -49.18 0.652 -49.18 0.757 40.729
23610.667 0.757 40.697 0.652 -49.212 0.652 -49.212 0.757 40.697
23635.625 0.757 40.665 0.652 -49.243 0.652 -49.243 0.757 40.665
23660.583 0.758 40.634 0.651 -49.275 0.651 -49.275 0.758 40.634
23685.542 0.758 40.602 0.651 -49.307 0.651 -49.307 0.758 40.602
23710.5 0.759 40.571 0.65 -49.338 0.65 -49.338 0.759 40.571
23735.458 0.759 40.539 0.65 -49.37 0.65 -49.37 0.759 40.539
23760.417 0.759 40.508 0.65 -49.401 0.65 -49.401 0.759 40.508
23785.375 0.76 40.477 0.649 -49.433 0.649 -49.433 0.76 40.477
23810.333 0.76 40.445 0.649 -49.464 0.649 -49.464 0.76 40.445
23835.292 0.76 40.414 0.648 -49.496 0.648 -49.496 0.76 40.414
23860.25 0.761 40.383 0.648 -49.527 0.648 -49.527 0.761 40.383
23885.208 0.761 40.352 0.647 -49.558 0.647 -49.558 0.761 40.352
23910.167 0.761 40.32 0.647 -49.59 0.647 -49.59 0.761 40.32
23935.125 0.762 40.289 0.647 -49.621 0.647 -49.621 0.762 40.289
23960.083 0.762 40.258 0.646 -49.652 0.646 -49.652 0.762 40.258
23985.042 0.762 40.227 0.646 -49.683 0.646 -49.683 0.762 40.227
24010 0.763 40.196 0.645 -49.714 0.645 -49.714 0.763 40.196
24034.958 0.763 40.165 0.645 -49.745 0.645 -49.745 0.763 40.165
24059.917 0.764 40.134 0.645 -49.776 0.645 -49.776 0.764 40.134
24084.875 0.764 40.103 0.644 -49.807 0.644 -49.807 0.764 40.103
24109.833 0.764 40.073 0.644 -49.838 0.644 -49.838 0.764 40.073
24134.792 0.765 40.042 0.643 -49.869 0.643 -49.869 0.765 40.042
24159.75 0.765 40.011 0.643 -49.9 0.643 -49.9 0.765 40.011
24184.708 0.765 39.98 0.643 -49.931 0.643 -49.931 0.765 39.98
24209.667 0.766 39.95 0.642 -49.961 0.642 -49.961 0.766 39.95
24234.625 0.766 39.919 0.642 -49.992 0.642 -49.992 0.766 39.919
24259.583 0.766 39.889 0.641 -50.023 0.641 -50.023 0.766 39.889
24284.542 0.767 39.858 0.641 -50.053 0.641 -50.053 0.767 39.858
24309.5 0.767 39.827 0.64 -50.084 0.64 -50.084 0.767 39.827
24334.458 0.767 39.797 0.64 -50.115 0.64 -50.115 0.767 39.797
24359.417 0.768 39.767 0.64 -50.145 0.64 -50.145 0.768 39.767
24384.375 0.768 39.736 0.639 -50.175 0.639 -50.175 0.768 39.736
24409.333 0.768 39.706 0.639 -50.206 0.639 -50.206 0.768 39.706
24434.292 0.769 39.676 0.638 -50.236 0.638 -50.236 0.769 39.676
24459.25 0.769 39.645 0.638 -50.267 0.638 -50.267 0.769 39.645
24484.208 0.769 39.615 0.638 -50.297 0.638 -50.297 0.769 39.615
24509.167 0.77 39.585 0.637 -50.327 0.637 -50.327 0.77 39.585
24534.125 0.77 39.555 0.637 -50.357 0.637 -50.357 0.77 39.555
24559.083 0.77 39.525 0.636 -50.388 0.636 -50.388 0.77 39.525
24584.042 0.771 39.495 0.636 -50.418 0.636 -50.418 0.771 39.495
24609 0.771 39.465 0.636 -50.448 0.636 -50.448 0.771 39.465
24633.958 0.771 39.435 0.635 -50.478 0.635 -50.478 0.771 39.435
24658.917 0.772 39.405 0.635 -50.508 0.635 -50.508 0.772 39.405
24683.875 0.772 39.375 0.634 -50.538 0.634 -50.538 0.772 39.375
24708.833 0.772 39.345 0.634 -50.568 0.634 -50.568 0.772 39.345
24733.792 0.773 39.315 0.634 -50.598 0.634 -50.598 0.773 39.315
24758.75 0.773 39.285 0.633 -50.628 0.633 -50.628 0.773 39.285
24783.708 0.773 39.256 0.633 -50.658 0.633 -50.658 0.773 39.256
24808.667 0.774 39.226 0.632 -50.687 0.632 -50.687 0.774 39.226
24833.625 0.774 39.196 0.632 -50.717 0.632 -50.717 0.774 39.196
24858.583 0.774 39.167 0.632 -50.747 0.632 -50.747 0.774 39.167
24883.542 0.775 39.137 0.631 -50.777 0.631 -50.777 0.775 39.137
24908.5 0.775 39.108 0.631 -50.806 0.631 -50.806 0.775 39.108
24933.458 0.775 39.078 0.63 -50.836 0.63 -50.836 0.775 39.078
24958.417 0.776 39.049 0.63 -50.865 0.63 -50.865 0.776 39.049
24983.375 0.776 39.019 0.63 -50.895 0.63 -50.895 0.776 39.019
25008.333 0.776 38.99 0.629 -50.924 0.629 -50.924 0.776 38.99
25033.292 0.777 38.96 0.629 -50.954 0.629 -50.954 0.777 38.96
25058.25 0.777 38.931 0.628 -50.983 0.628 -50.983 0.777 38.931
25083.208 0.777 38.902 0.628 -51.013 0.628 -51.013 0.777 38.902
25108.167 0.778 38.873 0.628 -51.042 0.628 -51.042 0.778 38.873
25133.125 0.778 38.843 0.627 -51.071 0.627 -51.071 0.778 38.843
25158.083 0.778 38.814 0.627 -51.1 0.627 -51.1 0.778 38.814
25183.042 0.779 38.785 0.626 -51.13 0.626 -51.13 0.779 38.785
25208 0.779 38.756 0.626 -51.159 0.626 -51.159 0.779 38.756
25232.958 0.779 38.727 0.626 -51.188 0.626 -51.188 0.779 38.727
25257.917 0.78 38.698 0.625 -51.217 0.625 -51.217 0.78 38.698
25282.875 0.78 38.669 0.625 -51.246 0.625 -51.246 0.78 38.669
25307.833 0.78 38.64 0.624 -51.275 0.624 -51.275 0.78 38.64
25332.792 0.78 38.611 0.624 -51.304 0.624 -51.304 0.78 38.611
25357.75 0.781 38.582 0.624 -51.333 0.624 -51.333 0.781 38.582
25382.708 0.781 38.553 0.623 -51.362 0.623 -51.362 0.781 38.553
25407.667 0.781 38.525 0.623 -51.391 0.623 -51.391 0.781 38.525
25432.625 0.782 38.496 0.622 -51.42 0.622 -51.42 0.782 38.496
25457.583 0.782 38.467 0.622 -51.448 0.622 -51.448 0.782 38.467
25482.542 0.782 38.439 0.622 -51.477 0.622 -51.477 0.782 38.439
25507.5 0.783 38.41 0.621 -51.506 0.621 -51.506 0.783 38.41
25532.458 0.783 38.381 0.621 -51.535 0.621 -51.535 0.783 38.381
25557.417 0.783 38.353 0.621 -51.563 0.621 -51.563 0.783 38.353
25582.375 0.784 38.324 0.62 -51.592 0.62 -51.592 0.784 38.324
25607.333 0.784 38.296 0.62 -51.62 0.62 -51.62 0.784 38.296
25632.292 0.784 38.267 0.619 -51.649 0.619 -51.649 0.784 38.267
25657.25 0.785 38.239 0.619 -51.677 0.619 -51.677 0.785 38.239
25682.208 0.785 38.211 0.619 -51.706 0.619 -51.706 0.785 38.211
25707.167 0.785 38.182 0.618 -51.734 0.618 -51.734 0.785 38.182
25732.125 0.785 38.154 0.618 -51.763 0.618 -51.763 0.785 38.154
25757.083 0.786 38.126 0.617 -51.791 0.617 -51.791 0.786 38.126
25782.042 0.786 38.097 0.617 -51.819 0.617 -51.819 0.786 38.097
25807 0.786 38.069 0.617 -51.848 0.617 -51.848 0.786 38.069
25831.958 0.787 38.041 0.616 -51.876 0.616 -51.876 0.787 38.041
25856.917 0.787 38.013 0.616 -51.904 0.616 -51.904 0.787 38.013
25881.875 0.787 37.985 0.615 -51.932 0.615 -51.932 0.787 37.985
25906.833 0.788 37.957 0.615 -51.96 0.615 -51.96 0.788 37.957
25931.792 0.788 37.929 0.615 -51.988 0.615 -51.988 0.788 37.929
25956.75 0.788 37.901 0.614 -52.016 0.614 -52.016 0.788 37.901
25981.708 0.788 37.873 0.614 -52.044 0.614 -52.044 0.788 37.873
26006.667 0.789 37.845 0.614 -52.072 0.614 -52.072 0.789 37.845
26031.625 0.789 37.817 0.613 -52.1 0.613 -52.1 0.789 37.817
26056.583 0.789 37.789 0.613 -52.128 0.613 -52.128 0.789 37.789
26081.542 0.79 37.762 0.612 -52.156 0.612 -52.156 0.79 37.762
26106.5 0.79 37.734 0.612 -52.184 0.612 -52.184 0.79 37.734
26131.458 0.79 37.706 0.612 -52.212 0.612 -52.212 0.79 37.706
26156.417 0.791 37.678 0.611 -52.24 0.611 -52.24 0.791 37.678
26181.375 0.791 37.651 0.611 -52.267 0.611 -52.267 0.791 37.651
26206.333 0.791 37.623 0.61 -52.295 0.61 -52.295 0.791 37.623
26231.292 0.791 37.596 0.61 -52.323 0.61 -52.323 0.791 37.596
26256.25 0.792 37.568 0.61 -52.35 0.61 -52.35 0.792 37.568
26281.208 0.792 37.541 0.609 -52.378 0.609 -52.378 0.792 37.541
26306.167 0.792 37.513 0.609 -52.405 0.609 -52.405 0.792 37.513
26331.125 0.793 37.486 0.609 -52.433 0.609 -52.433 0.793 37.486
26356.083 0.793 37.458 0.608 -52.46 0.608 -52.46 0.793 37.458
26381.042 0.793 37.431 0.608 -52.488 0.608 -52.488 0.793 37.431
26406 0.794 37.404 0.607 -52.515 0.607 -52.515 0.794 37.404
26430.958 0.794 37.376 0.607 -52.543 0.607 -52.543 0.794 37.376
26455.917 0.794 37.349 0.607 -52.57 0.607 -52.57 0.794 37.349
26480.875 0.794 37.322 0.606 -52.597 0.606 -52.597 0.794 37.322
26505.833 0.795 37.295 0.606 -52.624 0.606 -52.624 0.795 37.295
26530.792 0.795 37.267 0.606 -52.652 0.606 -52.652 0.795 37.267
26555.75 0.795 37.24 0.605 -52.679 0.605 -52.679 0.795 37.24
26580.708 0.796 37.213 0.605 -52.706 0.605 -52.706 0.796 37.213
26605.667 0.796 37.186 0.604 -52.733 0.604 -52.733 0.796 37.186
26630.625 0.796 37.159 0.604 -52.76 0.604 -52.76 0.796 37.159
26655.583 0.796 37.132 0.604 -52.787 0.604 -52.787 0.796 37.132
26680.542 0.797 37.105 0.603 -52.814 0.603 -52.814 0.797 37.105
26705.5 0.797 37.078 0.603 -52.841 0.603 -52.841 0.797 37.078
26730.458 0.797 37.052 0.603 -52.868 0.603 -52.868 0.797 37.052
26755.417 0.798 37.025 0.602 -52.895 0.602 -52.895 0.798 37.025
26780.375 0.798 36.998 0.602 -52.922 0.602 -52.922 0.798 36.998
26805.333 0.798 36.971 0.601 -52.949 0.601 -52.949 0.798 36.971
26830.292 0.798 36.944 0.601 -52.976 0.601 -52.976 0.798 36.944
26855.25 0.799 36.918 0.601 -53.003 0.601 -53.003 0.799 36.918
26880.208 0.799 36.891 0.6 -53.029 0.6 -53.029 0.799 36.891
26905.167 0.799 36.864 0.6 -53.056 0.6 -53.056 0.799 36.864
26930.125 0.8 36.838 0.6 -53.083 0.6 -53.083 0.8 36.838
26955.083 0.8 36.811 0.599 -53.109 0.599 -53.109 0.8 36.811
26980.042 0.8 36.785 0.599 -53.136 0.599 -53.136 0.8 36.785
27005 0.8 36.758 0.598 -53.163 0.598 -53.163 0.8 36.758
27029.958 0.801 36.732 0.598 -53.189 0.598 -53.189 0.801 36.732
27054.917 0.801 36.705 0.598 -53.216 0.598 -53.216 0.801 36.705
27079.875 0.801 36.679 0.597 -53.242 0.597 -53.242 0.801 36.679
27104.833 0.801 36.653 0.597 -53.268 0.597 -53.268 0.801 36.653
27129.792 0.802 36.626 0.597 -53.295 0.597 -53.295 0.802 36.626
27154.75 0.802 36.6 0.596 -53.321 0.596 -53.321 0.802 36.6
27179.708 0.802 36.574 0.596 -53.348 0.596 -53.348 0.802 36.574
27204.667 0.803 36.547 0.595 -53.374 0.595 -53.374 0.803 36.547
27229.625 0.803 36.521 0.595 -53.4 0.595 -53.4 0.803 36.521
27254.583 0.803 36.495 0.595 -53.426 0.595 -53.426 0.803 36.495
27279.542 0.803 36.469 0.594 -53.453 0.594 -53.453 0.803 36.469
27304.5 0.804 36.443 0.594 -53.479 0.594 -53.479 0.804 36.443
27329.458 0.804 36.417 0.594 -53.505 0.594 -53.505 0.804 36.417
27354.417 0.804 36.391 0.593 -53.531 0.593 -53.531 0.804 36.391
27379.375 0.804 36.365 0.593 -53.557 0.593 -53.557 0.804 36.365
27404.333 0.805 36.339 0.593 -53.583 0.593 -53.583 0.805 36.339
27429.292 0.805 36.313 0.592 -53.609 0.592 -53.609 0.805 36.313
27454.25 0.805 36.287 0.592 -53.635 0.592 -53.635 0.805 36.287
27479.208 0.806 36.261 0.591 -53.661 0.591 -53.661 0.806 36.261
27504.167 0.806 36.235 0.591 -53.687 0.591 -53.687 0.806 36.235
27529.125 0.806 36.209 0.591 -53.713 0.591 -53.713 0.806 36.209
27554.083 0.806 36.184 0.59 -53.739 0.59 -53.739 0.806 36.184
27579.042 0.807 36.158 0.59 -53.764 0.59 -53.764 0.807 36.158
27604 0.807 36.132 0.59 -53.79 0.59 -53.79 0.807 36.132
27628.958 0.807 36.107 0.589 -53.816 0.589 -53.816 0.807 36.107
27653.917 0.807 36.081 0.589 -53.842 0.589 -53.842 0.807 36.081
27678.875 0.808 36.055 0.589 -53.867 0.589 -53.867 0.808 36.055
27703.833 0.808 36.03 0.588 -53.893 0.588 -53.893 0.808 36.03
27728.792 0.808 36.004 0.588 -53.919 0.588 -53.919 0.808 36.004
27753.75 0.808 35.979 0.587 -53.944 0.587 -53.944 0.808 35.979
27778.708 0.809 35.953 0.587 -53.97 0.587 -53.97 0.809 35.953
27803.667 0.809 35.928 0.587 -53.995 0.587 -53.995 0.809 35.928
27828.625 0.809 35.902 0.586 -54.021 0.586 -54.021 0.809 35.902
27853.583 0.809 35.877 0.586 -54.046 0.586 -54.046 0.809 35.877
27878.542 0.81 35.852 0.586 -54.072 0.586 -54.072 0.81 35.852
27903.5 0.81 35.826 0.585 -54.097 0.585 -54.097 0.81 35.826
27928.458 0.81 35.801 0.585 -54.122 0.585 -54.122 0.81 35.801
27953.417 0.811 35.776 0.585 -54.148 0.585 -54.148 0.811 35.776
27978.375 0.811 35.751 0.584 -54.173 0.584 -54.173 0.811 35.751
28003.333 0.811 35.725 0.584 -54.198 0.584 -54.198 0.811 35.725
28028.292 0.811 35.7 0.584 -54.223 0.584 -54.223 0.811 35.7
28053.25 0.812 35.675 0.583 -54.249 0.583 -54.249 0.812 35.675
28078.208 0.812 35.65 0.583 -54.274 0.583 -54.274 0.812 35.65
28103.167 0.812 35.625 0.582 -54.299 0.582 -54.299 0.812 35.625
28128.125 0.812 35.6 0.582 -54.324 0.582 -54.324 0.812 35.6
28153.083 0.813 35.575 0.582 -54.349 0.582 -54.349 0.813 35.575
28178.042 0.813 35.55 0.581 -54.374 0.581 -54.374 0.813 35.55
28203 0.813 35.525 0.581 -54.399 0.581 -54.399 0.813 35.525
28227.958 0.813 35.5 0.581 -54.424 0.581 -54.424 0.813 35.5
28252.917 0.814 35.475 0.58 -54.449 0.58 -54.449 0.814 35.475
28277.875 0.814 35.45 0.58 -54.474 0.58 -54.474 0.814 35.45
28302.833 0.814 35.426 0.58 -54.499 0.58 -54.499 0.814 35.426
28327.792 0.814 35.401 0.579 -54.524 0.579 -54.524 0.814 35.401
28352.75 0.815 35.376 0.579 -54.549 0.579 -54.549 0.815 35.376
28377.708 0.815 35.351 0.579 -54.573 0.579 -54.573 0.815 35.351
28402.667 0.815 35.327 0.578 -54.598 0.578 -54.598 0.815 35.327
28427.625 0.815 35.302 0.578 -54.623 0.578 -54.623 0.815 35.302
28452.583 0.816 35.277 0.578 -54.648 0.578 -54.648 0.816 35.277
28477.542 0.816 35.253 0.577 -54.672 0.577 -54.672 0.816 35.253
28502.5 0.816 35.228 0.577 -54.697 0.577 -54.697 0.816 35.228
28527.458 0.816 35.204 0.576 -54.721 0.576 -54.721 0.816 35.204
28552.417 0.817 35.179 0.576 -54.746 0.576 -54.746 0.817 35.179
28577.375 0.817 35.155 0.576 -54.771 0.576 -54.771 0.817 35.155
28602.333 0.817 35.13 0.575 -54.795 0.575 -54.795 0.817 35.13
28627.292 0.817 35.106 0.575 -54.82 0.575 -54.82 0.817 35.106
28652.25 0.818 35.081 0.575 -54.844 0.575 -54.844 0.818 35.081
28677.208 0.818 35.057 0.574 -54.868 0.574 -54.868 0.818 35.057
28702.167 0.818 35.033 0.574 -54.893 0.574 -54.893 0.818 35.033
28727.125 0.818 35.008 0.574 -54.917 0.574 -54.917 0.818 35.008
28752.083 0.819 34.984 0.573 -54.942 0.573 -54.942 0.819 34.984
28777.042 0.819 34.96 0.573 -54.966 0.573 -54.966 0.819 34.96
28802 0.819 34.936 0.573 -54.99 0.573 -54.99 0.819 34.936
28826.958 0.819 34.912 0.572 -55.014 0.572 -55.014 0.819 34.912
28851.917 0.82 34.887 0.572 -55.039 0.572 -55.039 0.82 34.887
28876.875 0.82 34.863 0.572 -55.063 0.572 -55.063 0.82 34.863
28901.833 0.82 34.839 0.571 -55.087 0.571 -55.087 0.82 34.839
28926.792 0.82 34.815 0.571 -55.111 0.571 -55.111 0.82 34.815
28951.75 0.821 34.791 0.571 -55.135 0.571 -55.135 0.821 34.791
28976.708 0.821 34.767 0.57 -55.159 0.57 -55.159 0.821 34.767
29001.667 0.821 34.743 0.57 -55.183 0.57 -55.183 0.821 34.743
29026.625 0.821 34.719 0.57 -55.207 0.57 -55.207 0.821 34.719
29051.583 0.821 34.695 0.569 -55.231 0.569 -55.231 0.821 34.695
29076.542 0.822 34.671 0.569 -55.255 0.569 -55.255 0.822 34.671
29101.5 0.822 34.648 0.569 -55.279 0.569 -55.279 0.822 34.648
29126.458 0.822 34.624 0.568 -55.303 0.568 -55.303 0.822 34.624
29151.417 0.822 34.6 0.568 -55.327 0.568 -55.327 0.822 34.6
29176.375 0.823 34.576 0.568 -55.351 0.568 -55.351 0.823 34.576
29201.333 0.823 34.553 0.567 -55.374 0.567 -55.374 0.823 34.553
29226.292 0.823 34.529 0.567 -55.398 0.567 -55.398 0.823 34.529
29251.25 0.823 34.505 0.566 -55.422 0.566 -55.422 0.823 34.505
29276.208 0.824 34.481 0.566 -55.446 0.566 -55.446 0.824 34.481
29301.167 0.824 34.458 0.566 -55.469 0.566 -55.469 0.824 34.458
29326.125 0.824 34.434 0.565 -55.493 0.565 -55.493 0.824 34.434
29351.083 0.824 34.411 0.565 -55.517 0.565 -55.517 0.824 34.411
29376.042 0.825 34.387 0.565 -55.54 0.565 -55.54 0.825 34.387
29401 0.825 34.364 0.564 -55.564 0.564 -55.564 0.825 34.364
29425.958 0.825 34.34 0.564 -55.587 0.564 -55.587 0.825 34.34
29450.917 0.825 34.317 0.564 -55.611 0.564 -55.611 0.825 34.317
29475.875 0.825 34.293 0.563 -55.634 0.563 -55.634 0.825 34.293
29500.833 0.826 34.27 0.563 -55.658 0.563 -55.658 0.826 34.27
29525.792 0.826 34.247 0.563 -55.681 0.563 -55.681 0.826 34.247
29550.75 0.826 34.223 0.562 -55.704 0.562 -55.704 0.826 34.223
29575.708 0.826 34.2 0.562 -55.728 0.562 -55.728 0.826 34.2
29600.667 0.827 34.177 0.562 -55.751 0.562 -55.751 0.827 34.177
29625.625 0.827 34.154 0.561 -55.774 0.561 -55.774 0.827 34.154
29650.583 0.827 34.13 0.561 -55.798 0.561 -55.798 0.827 34.13
29675.542 0.827 34.107 0.561 -55.821 0.561 -55.821 0.827 34.107
29700.5 0.828 34.084 0.56 -55.844 0.56 -55.844 0.828 34.084
29725.458 0.828 34.061 0.56 -55.867 0.56 -55.867 0.828 34.061
29750.417 0.828 34.038 0.56 -55.891 0.56 -55.891 0.828 34.038
29775.375 0.828 34.015 0.559 -55.914 0.559 -55.914 0.828 34.015
29800.333 0.828 33.992 0.559 -55.937 0.559 -55.937 0.828 33.992
29825.292 0.829 33.969 0.559 -55.96 0.559 -55.96 0.829 33.969
29850.25 0.829 33.946 0.558 -55.983 0.558 -55.983 0.829 33.946
29875.208 0.829 33.923 0.558 -56.006 0.558 -56.006 0.829 33.923
29900.167 0.829 33.9 0.558 -56.029 0.558 -56.029 0.829 33.9
29925.125 0.83 33.877 0.557 -56.052 0.557 -56.052 0.83 33.877
29950.083 0.83 33.854 0.557 -56.075 0.557 -56.075 0.83 33.854
29975.042 0.83 33.831 0.557 -56.098 0.557 -56.098 0.83 33.831
30000 0.83 33.808 0.556 -56.121 0.556 -56.121 0.83 33.808
