!	AVX Thin Film Operation 	Date: April 2014		
!	Description: Accu-P® Series, Thin Film  SMD RF Capacitor
!	Part Number: 06031JA45PBSTR					
!								
# MHZ S MA R 50

50 0.999 -2.608 0.046 87.386 0.046 87.386 0.999 -2.608
74.958 0.998 -3.908 0.068 86.084 0.068 86.084 0.998 -3.908
99.917 0.996 -5.204 0.091 84.785 0.091 84.785 0.996 -5.204
124.875 0.994 -6.495 0.113 83.491 0.113 83.491 0.994 -6.495
149.833 0.991 -7.781 0.135 82.202 0.135 82.202 0.991 -7.781
174.792 0.987 -9.06 0.157 80.92 0.157 80.92 0.987 -9.06
199.75 0.984 -10.332 0.179 79.646 0.179 79.646 0.984 -10.332
224.708 0.98 -11.595 0.201 78.38 0.201 78.38 0.98 -11.595
249.667 0.975 -12.848 0.222 77.124 0.222 77.124 0.975 -12.848
274.625 0.97 -14.091 0.243 75.878 0.243 75.878 0.97 -14.091
299.583 0.964 -15.323 0.264 74.643 0.264 74.643 0.964 -15.323
324.542 0.958 -16.543 0.285 73.42 0.285 73.42 0.958 -16.543
349.5 0.952 -17.75 0.305 72.21 0.305 72.21 0.952 -17.75
374.458 0.946 -18.944 0.325 71.014 0.325 71.014 0.946 -18.944
399.417 0.939 -20.124 0.344 69.831 0.344 69.831 0.939 -20.124
424.375 0.931 -21.289 0.363 68.663 0.363 68.663 0.931 -21.289
449.333 0.924 -22.439 0.382 67.51 0.382 67.51 0.924 -22.439
474.292 0.916 -23.574 0.4 66.372 0.4 66.372 0.916 -23.574
499.25 0.908 -24.693 0.418 65.25 0.418 65.25 0.908 -24.693
524.208 0.9 -25.796 0.435 64.145 0.435 64.145 0.9 -25.796
549.167 0.891 -26.882 0.452 63.055 0.452 63.055 0.891 -26.882
574.125 0.883 -27.952 0.469 61.983 0.469 61.983 0.883 -27.952
599.083 0.874 -29.004 0.485 60.927 0.485 60.927 0.874 -29.004
624.042 0.865 -30.04 0.501 59.889 0.501 59.889 0.865 -30.04
649 0.856 -31.058 0.516 58.867 0.516 58.867 0.856 -31.058
673.958 0.847 -32.059 0.531 57.863 0.531 57.863 0.847 -32.059
698.917 0.837 -33.044 0.545 56.876 0.545 56.876 0.837 -33.044
723.875 0.828 -34.011 0.559 55.906 0.559 55.906 0.828 -34.011
748.833 0.819 -34.96 0.573 54.953 0.573 54.953 0.819 -34.96
773.792 0.809 -35.893 0.586 54.018 0.586 54.018 0.809 -35.893
798.75 0.8 -36.809 0.599 53.099 0.599 53.099 0.8 -36.809
823.708 0.79 -37.708 0.612 52.197 0.612 52.197 0.79 -37.708
848.667 0.781 -38.591 0.624 51.311 0.624 51.311 0.781 -38.591
873.625 0.771 -39.457 0.635 50.442 0.635 50.442 0.771 -39.457
898.583 0.761 -40.306 0.647 49.589 0.647 49.589 0.761 -40.306
923.542 0.752 -41.14 0.658 48.752 0.658 48.752 0.752 -41.14
948.5 0.742 -41.958 0.669 47.931 0.669 47.931 0.742 -41.958
973.458 0.733 -42.76 0.679 47.126 0.679 47.126 0.733 -42.76
998.417 0.723 -43.547 0.689 46.335 0.689 46.335 0.723 -43.547
1023.375 0.714 -44.319 0.699 45.56 0.699 45.56 0.714 -44.319
1048.333 0.705 -45.076 0.708 44.8 0.708 44.8 0.705 -45.076
1073.292 0.695 -45.819 0.717 44.054 0.717 44.054 0.695 -45.819
1098.25 0.686 -46.547 0.726 43.322 0.726 43.322 0.686 -46.547
1123.208 0.677 -47.262 0.734 42.605 0.734 42.605 0.677 -47.262
1148.167 0.668 -47.962 0.743 41.901 0.743 41.901 0.668 -47.962
1173.125 0.659 -48.649 0.751 41.21 0.751 41.21 0.659 -48.649
1198.083 0.65 -49.324 0.758 40.533 0.758 40.533 0.65 -49.324
1223.042 0.641 -49.985 0.766 39.868 0.766 39.868 0.641 -49.985
1248 0.632 -50.634 0.773 39.216 0.773 39.216 0.632 -50.634
1272.958 0.624 -51.27 0.78 38.576 0.78 38.576 0.624 -51.27
1297.917 0.615 -51.894 0.787 37.948 0.787 37.948 0.615 -51.894
1322.875 0.606 -52.507 0.793 37.332 0.793 37.332 0.606 -52.507
1347.833 0.598 -53.108 0.8 36.727 0.8 36.727 0.598 -53.108
1372.792 0.59 -53.698 0.806 36.133 0.806 36.133 0.59 -53.698
1397.75 0.581 -54.277 0.812 35.55 0.812 35.55 0.581 -54.277
1422.708 0.573 -54.846 0.818 34.978 0.818 34.978 0.573 -54.846
1447.667 0.565 -55.404 0.823 34.417 0.823 34.417 0.565 -55.404
1472.625 0.557 -55.952 0.829 33.865 0.829 33.865 0.557 -55.952
1497.583 0.549 -56.49 0.834 33.323 0.834 33.323 0.549 -56.49
1522.542 0.542 -57.018 0.839 32.791 0.839 32.791 0.542 -57.018
1547.5 0.534 -57.537 0.844 32.269 0.844 32.269 0.534 -57.537
1572.458 0.526 -58.046 0.848 31.755 0.848 31.755 0.526 -58.046
1597.417 0.519 -58.547 0.853 31.25 0.853 31.25 0.519 -58.547
1622.375 0.511 -59.039 0.858 30.755 0.858 30.755 0.511 -59.039
1647.333 0.504 -59.522 0.862 30.267 0.862 30.267 0.504 -59.522
1672.292 0.497 -59.997 0.866 29.788 0.866 29.788 0.497 -59.997
1697.25 0.49 -60.464 0.87 29.317 0.87 29.317 0.49 -60.464
1722.208 0.483 -60.923 0.874 28.854 0.874 28.854 0.483 -60.923
1747.167 0.476 -61.374 0.878 28.399 0.878 28.399 0.476 -61.374
1772.125 0.469 -61.817 0.881 27.951 0.881 27.951 0.469 -61.817
1797.083 0.462 -62.254 0.885 27.51 0.885 27.51 0.462 -62.254
1822.042 0.455 -62.683 0.888 27.077 0.888 27.077 0.455 -62.683
1847 0.449 -63.105 0.892 26.65 0.892 26.65 0.449 -63.105
1871.958 0.442 -63.52 0.895 26.231 0.895 26.231 0.442 -63.52
1896.917 0.436 -63.928 0.898 25.817 0.898 25.817 0.436 -63.928
1921.875 0.429 -64.33 0.901 25.411 0.901 25.411 0.429 -64.33
1946.833 0.423 -64.726 0.904 25.01 0.904 25.01 0.423 -64.726
1971.792 0.417 -65.116 0.907 24.616 0.907 24.616 0.417 -65.116
1996.75 0.41 -65.499 0.91 24.228 0.91 24.228 0.41 -65.499
2021.708 0.404 -65.877 0.913 23.845 0.913 23.845 0.404 -65.877
2046.667 0.398 -66.248 0.915 23.468 0.915 23.468 0.398 -66.248
2071.625 0.392 -66.614 0.918 23.097 0.918 23.097 0.392 -66.614
2096.583 0.386 -66.975 0.92 22.731 0.92 22.731 0.386 -66.975
2121.542 0.381 -67.33 0.923 22.371 0.923 22.371 0.381 -67.33
2146.5 0.375 -67.68 0.925 22.016 0.925 22.016 0.375 -67.68
2171.458 0.369 -68.025 0.927 21.665 0.927 21.665 0.369 -68.025
2196.417 0.364 -68.365 0.93 21.32 0.93 21.32 0.364 -68.365
2221.375 0.358 -68.7 0.932 20.979 0.932 20.979 0.358 -68.7
2246.333 0.353 -69.03 0.934 20.643 0.934 20.643 0.353 -69.03
2271.292 0.347 -69.356 0.936 20.312 0.936 20.312 0.347 -69.356
2296.25 0.342 -69.677 0.938 19.985 0.938 19.985 0.342 -69.677
2321.208 0.336 -69.993 0.94 19.663 0.94 19.663 0.336 -69.993
2346.167 0.331 -70.305 0.942 19.344 0.942 19.344 0.331 -70.305
2371.125 0.326 -70.613 0.943 19.03 0.943 19.03 0.326 -70.613
2396.083 0.321 -70.917 0.945 18.72 0.945 18.72 0.321 -70.917
2421.042 0.316 -71.216 0.947 18.414 0.947 18.414 0.316 -71.216
2446 0.311 -71.512 0.948 18.112 0.948 18.112 0.311 -71.512
2470.958 0.306 -71.804 0.95 17.814 0.95 17.814 0.306 -71.804
2495.917 0.301 -72.091 0.952 17.519 0.952 17.519 0.301 -72.091
2520.875 0.296 -72.375 0.953 17.228 0.953 17.228 0.296 -72.375
2545.833 0.291 -72.656 0.955 16.941 0.955 16.941 0.291 -72.656
2570.792 0.287 -72.932 0.956 16.657 0.956 16.657 0.287 -72.932
2595.75 0.282 -73.205 0.957 16.376 0.957 16.376 0.282 -73.205
2620.708 0.277 -73.475 0.959 16.099 0.959 16.099 0.277 -73.475
2645.667 0.273 -73.741 0.96 15.825 0.96 15.825 0.273 -73.741
2670.625 0.268 -74.004 0.961 15.554 0.961 15.554 0.268 -74.004
2695.583 0.264 -74.264 0.963 15.286 0.963 15.286 0.264 -74.264
2720.542 0.259 -74.52 0.964 15.022 0.964 15.022 0.259 -74.52
2745.5 0.255 -74.774 0.965 14.76 0.965 14.76 0.255 -74.774
2770.458 0.25 -75.024 0.966 14.501 0.966 14.501 0.25 -75.024
2795.417 0.246 -75.271 0.967 14.245 0.967 14.245 0.246 -75.271
2820.375 0.242 -75.515 0.968 13.992 0.968 13.992 0.242 -75.515
2845.333 0.238 -75.756 0.969 13.741 0.969 13.741 0.238 -75.756
2870.292 0.233 -75.994 0.97 13.494 0.97 13.494 0.233 -75.994
2895.25 0.229 -76.229 0.971 13.248 0.971 13.248 0.229 -76.229
2920.208 0.225 -76.462 0.972 13.006 0.972 13.006 0.225 -76.462
2945.167 0.221 -76.692 0.973 12.766 0.973 12.766 0.221 -76.692
2970.125 0.217 -76.919 0.974 12.528 0.974 12.528 0.217 -76.919
2995.083 0.213 -77.143 0.975 12.293 0.975 12.293 0.213 -77.143
3020.042 0.209 -77.365 0.976 12.06 0.976 12.06 0.209 -77.365
3045 0.205 -77.584 0.977 11.829 0.977 11.829 0.205 -77.584
3069.958 0.201 -77.8 0.977 11.601 0.977 11.601 0.201 -77.8
3094.917 0.197 -78.014 0.978 11.375 0.978 11.375 0.197 -78.014
3119.875 0.193 -78.225 0.979 11.151 0.979 11.151 0.193 -78.225
3144.833 0.19 -78.434 0.98 10.929 0.98 10.929 0.19 -78.434
3169.792 0.186 -78.64 0.98 10.71 0.98 10.71 0.186 -78.64
3194.75 0.182 -78.844 0.981 10.492 0.981 10.492 0.182 -78.844
3219.708 0.178 -79.045 0.982 10.276 0.982 10.276 0.178 -79.045
3244.667 0.175 -79.244 0.983 10.063 0.983 10.063 0.175 -79.244
3269.625 0.171 -79.441 0.983 9.851 0.983 9.851 0.171 -79.441
3294.583 0.167 -79.635 0.984 9.641 0.984 9.641 0.167 -79.635
3319.542 0.164 -79.827 0.984 9.434 0.984 9.434 0.164 -79.827
3344.5 0.16 -80.016 0.985 9.227 0.985 9.227 0.16 -80.016
3369.458 0.157 -80.203 0.986 9.023 0.986 9.023 0.157 -80.203
3394.417 0.153 -80.387 0.986 8.821 0.986 8.821 0.153 -80.387
3419.375 0.15 -80.569 0.987 8.62 0.987 8.62 0.15 -80.569
3444.333 0.146 -80.749 0.987 8.421 0.987 8.421 0.146 -80.749
3469.292 0.143 -80.926 0.988 8.223 0.988 8.223 0.143 -80.926
3494.25 0.14 -81.101 0.988 8.028 0.988 8.028 0.14 -81.101
3519.208 0.136 -81.273 0.989 7.833 0.989 7.833 0.136 -81.273
3544.167 0.133 -81.443 0.989 7.641 0.989 7.641 0.133 -81.443
3569.125 0.13 -81.61 0.989 7.45 0.989 7.45 0.13 -81.61
3594.083 0.126 -81.775 0.99 7.26 0.99 7.26 0.126 -81.775
3619.042 0.123 -81.937 0.99 7.072 0.99 7.072 0.123 -81.937
3644 0.12 -82.096 0.991 6.886 0.991 6.886 0.12 -82.096
3668.958 0.117 -82.253 0.991 6.701 0.991 6.701 0.117 -82.253
3693.917 0.114 -82.407 0.991 6.517 0.991 6.517 0.114 -82.407
3718.875 0.11 -82.558 0.992 6.335 0.992 6.335 0.11 -82.558
3743.833 0.107 -82.706 0.992 6.154 0.992 6.154 0.107 -82.706
3768.792 0.104 -82.851 0.992 5.974 0.992 5.974 0.104 -82.851
3793.75 0.101 -82.993 0.993 5.796 0.993 5.796 0.101 -82.993
3818.708 0.098 -83.131 0.993 5.619 0.993 5.619 0.098 -83.131
3843.667 0.095 -83.266 0.993 5.444 0.993 5.444 0.095 -83.266
3868.625 0.092 -83.398 0.994 5.269 0.994 5.269 0.092 -83.398
3893.583 0.089 -83.525 0.994 5.096 0.994 5.096 0.089 -83.525
3918.542 0.086 -83.649 0.994 4.924 0.994 4.924 0.086 -83.649
3943.5 0.083 -83.768 0.994 4.754 0.994 4.754 0.083 -83.768
3968.458 0.08 -83.883 0.995 4.584 0.995 4.584 0.08 -83.883
3993.417 0.077 -83.993 0.995 4.416 0.995 4.416 0.077 -83.993
4018.375 0.074 -84.097 0.995 4.249 0.995 4.249 0.074 -84.097
4043.333 0.071 -84.195 0.995 4.082 0.995 4.082 0.071 -84.195
4068.292 0.068 -84.288 0.996 3.917 0.996 3.917 0.068 -84.288
4093.25 0.066 -84.373 0.996 3.754 0.996 3.754 0.066 -84.373
4118.208 0.063 -84.451 0.996 3.591 0.996 3.591 0.063 -84.451
4143.167 0.06 -84.52 0.996 3.429 0.996 3.429 0.06 -84.52
4168.125 0.057 -84.58 0.996 3.268 0.996 3.268 0.057 -84.58
4193.083 0.054 -84.629 0.996 3.109 0.996 3.109 0.054 -84.629
4218.042 0.052 -84.666 0.997 2.95 0.997 2.95 0.052 -84.666
4243 0.049 -84.689 0.997 2.792 0.997 2.792 0.049 -84.689
4267.958 0.046 -84.695 0.997 2.636 0.997 2.636 0.046 -84.695
4292.917 0.043 -84.684 0.997 2.48 0.997 2.48 0.043 -84.684
4317.875 0.041 -84.65 0.997 2.325 0.997 2.325 0.041 -84.65
4342.833 0.038 -84.589 0.997 2.171 0.997 2.171 0.038 -84.589
4367.792 0.035 -84.497 0.997 2.018 0.997 2.018 0.035 -84.497
4392.75 0.033 -84.366 0.997 1.866 0.997 1.866 0.033 -84.366
4417.708 0.03 -84.186 0.997 1.715 0.997 1.715 0.03 -84.186
4442.667 0.027 -83.944 0.997 1.565 0.997 1.565 0.027 -83.944
4467.625 0.025 -83.622 0.998 1.416 0.998 1.416 0.025 -83.622
4492.583 0.022 -83.192 0.998 1.267 0.998 1.267 0.022 -83.192
4517.542 0.02 -82.614 0.998 1.119 0.998 1.119 0.02 -82.614
4542.5 0.017 -81.823 0.998 0.973 0.998 0.973 0.017 -81.823
4567.458 0.015 -80.714 0.998 0.827 0.998 0.827 0.015 -80.714
4592.417 0.012 -79.091 0.998 0.681 0.998 0.681 0.012 -79.091
4617.375 9.614e-3 -76.567 0.998 0.537 0.998 0.537 9.614e-3 -76.567
4642.333 7.193e-3 -72.249 0.998 0.393 0.998 0.393 7.193e-3 -72.249
4667.292 4.87e-3 -63.607 0.998 0.251 0.998 0.251 4.87e-3 -63.607
4692.25 2.861e-3 -41.3 0.998 0.108 0.998 0.108 2.861e-3 -41.3
4717.208 2.221e-3 14.946 0.998 -0.033 0.998 -0.033 2.221e-3 14.946
4742.167 3.711e-3 54.499 0.998 -0.173 0.998 -0.173 3.711e-3 54.499
4767.125 5.874e-3 68.261 0.998 -0.313 0.998 -0.313 5.874e-3 68.261
4792.083 8.183e-3 74.345 0.998 -0.452 0.998 -0.452 8.183e-3 74.345
4817.042 0.011 77.654 0.998 -0.591 0.998 -0.591 0.011 77.654
4842 0.013 79.693 0.998 -0.729 0.998 -0.729 0.013 79.693
4866.958 0.015 81.05 0.998 -0.866 0.998 -0.866 0.015 81.05
4891.917 0.018 82.002 0.998 -1.002 0.998 -1.002 0.018 82.002
4916.875 0.02 82.694 0.998 -1.137 0.998 -1.137 0.02 82.694
4941.833 0.022 83.209 0.998 -1.272 0.998 -1.272 0.022 83.209
4966.792 0.025 83.599 0.998 -1.407 0.998 -1.407 0.025 83.599
4991.75 0.027 83.897 0.997 -1.54 0.997 -1.54 0.027 83.897
5016.708 0.029 84.126 0.997 -1.673 0.997 -1.673 0.029 84.126
5041.667 0.032 84.3 0.997 -1.806 0.997 -1.806 0.032 84.3
5066.625 0.034 84.433 0.997 -1.937 0.997 -1.937 0.034 84.433
5091.583 0.036 84.531 0.997 -2.069 0.997 -2.069 0.036 84.531
5116.542 0.038 84.602 0.997 -2.199 0.997 -2.199 0.038 84.602
5141.5 0.041 84.651 0.997 -2.329 0.997 -2.329 0.041 84.651
5166.458 0.043 84.68 0.997 -2.458 0.997 -2.458 0.043 84.68
5191.417 0.045 84.694 0.997 -2.587 0.997 -2.587 0.045 84.694
5216.375 0.047 84.694 0.997 -2.715 0.997 -2.715 0.047 84.694
5241.333 0.05 84.683 0.997 -2.843 0.997 -2.843 0.05 84.683
5266.292 0.052 84.662 0.997 -2.97 0.997 -2.97 0.052 84.662
5291.25 0.054 84.632 0.996 -3.096 0.996 -3.096 0.054 84.632
5316.208 0.056 84.595 0.996 -3.222 0.996 -3.222 0.056 84.595
5341.167 0.058 84.552 0.996 -3.347 0.996 -3.347 0.058 84.552
5366.125 0.061 84.502 0.996 -3.472 0.996 -3.472 0.061 84.502
5391.083 0.063 84.448 0.996 -3.596 0.996 -3.596 0.063 84.448
5416.042 0.065 84.39 0.996 -3.72 0.996 -3.72 0.065 84.39
5441 0.067 84.327 0.996 -3.843 0.996 -3.843 0.067 84.327
5465.958 0.069 84.261 0.995 -3.966 0.995 -3.966 0.069 84.261
5490.917 0.071 84.192 0.995 -4.088 0.995 -4.088 0.071 84.192
5515.875 0.073 84.121 0.995 -4.209 0.995 -4.209 0.073 84.121
5540.833 0.076 84.046 0.995 -4.331 0.995 -4.331 0.076 84.046
5565.792 0.078 83.97 0.995 -4.451 0.995 -4.451 0.078 83.97
5590.75 0.08 83.891 0.995 -4.571 0.995 -4.571 0.08 83.891
5615.708 0.082 83.811 0.995 -4.691 0.995 -4.691 0.082 83.811
5640.667 0.084 83.729 0.994 -4.81 0.994 -4.81 0.084 83.729
5665.625 0.086 83.646 0.994 -4.929 0.994 -4.929 0.086 83.646
5690.583 0.088 83.561 0.994 -5.047 0.994 -5.047 0.088 83.561
5715.542 0.09 83.475 0.994 -5.165 0.994 -5.165 0.09 83.475
5740.5 0.092 83.388 0.994 -5.282 0.994 -5.282 0.092 83.388
5765.458 0.094 83.3 0.993 -5.399 0.993 -5.399 0.094 83.3
5790.417 0.096 83.211 0.993 -5.516 0.993 -5.516 0.096 83.211
5815.375 0.098 83.122 0.993 -5.632 0.993 -5.632 0.098 83.122
5840.333 0.1 83.032 0.993 -5.747 0.993 -5.747 0.1 83.032
5865.292 0.102 82.941 0.993 -5.862 0.993 -5.862 0.102 82.941
5890.25 0.104 82.849 0.992 -5.977 0.992 -5.977 0.104 82.849
5915.208 0.106 82.757 0.992 -6.091 0.992 -6.091 0.106 82.757
5940.167 0.108 82.664 0.992 -6.205 0.992 -6.205 0.108 82.664
5965.125 0.11 82.571 0.992 -6.318 0.992 -6.318 0.11 82.571
5990.083 0.112 82.478 0.992 -6.431 0.992 -6.431 0.112 82.478
6015.042 0.114 82.385 0.991 -6.544 0.991 -6.544 0.114 82.385
6040 0.116 82.291 0.991 -6.656 0.991 -6.656 0.116 82.291
6064.958 0.118 82.196 0.991 -6.768 0.991 -6.768 0.118 82.196
6089.917 0.12 82.102 0.991 -6.879 0.991 -6.879 0.12 82.102
6114.875 0.122 82.007 0.99 -6.99 0.99 -6.99 0.122 82.007
6139.833 0.124 81.912 0.99 -7.101 0.99 -7.101 0.124 81.912
6164.792 0.126 81.817 0.99 -7.211 0.99 -7.211 0.126 81.817
6189.75 0.127 81.722 0.99 -7.321 0.99 -7.321 0.127 81.722
6214.708 0.129 81.627 0.989 -7.43 0.989 -7.43 0.129 81.627
6239.667 0.131 81.532 0.989 -7.539 0.989 -7.539 0.131 81.532
6264.625 0.133 81.437 0.989 -7.648 0.989 -7.648 0.133 81.437
6289.583 0.135 81.341 0.989 -7.756 0.989 -7.756 0.135 81.341
6314.542 0.137 81.246 0.988 -7.864 0.988 -7.864 0.137 81.246
6339.5 0.139 81.15 0.988 -7.972 0.988 -7.972 0.139 81.15
6364.458 0.141 81.055 0.988 -8.079 0.988 -8.079 0.141 81.055
6389.417 0.142 80.959 0.988 -8.186 0.988 -8.186 0.142 80.959
6414.375 0.144 80.864 0.987 -8.292 0.987 -8.292 0.144 80.864
6439.333 0.146 80.769 0.987 -8.399 0.987 -8.399 0.146 80.769
6464.292 0.148 80.673 0.987 -8.505 0.987 -8.505 0.148 80.673
6489.25 0.15 80.578 0.987 -8.61 0.987 -8.61 0.15 80.578
6514.208 0.152 80.483 0.986 -8.715 0.986 -8.715 0.152 80.483
6539.167 0.153 80.388 0.986 -8.82 0.986 -8.82 0.153 80.388
6564.125 0.155 80.293 0.986 -8.925 0.986 -8.925 0.155 80.293
6589.083 0.157 80.198 0.985 -9.029 0.985 -9.029 0.157 80.198
6614.042 0.159 80.103 0.985 -9.133 0.985 -9.133 0.159 80.103
6639 0.161 80.008 0.985 -9.236 0.985 -9.236 0.161 80.008
6663.958 0.162 79.913 0.985 -9.339 0.985 -9.339 0.162 79.913
6688.917 0.164 79.819 0.984 -9.442 0.984 -9.442 0.164 79.819
6713.875 0.166 79.724 0.984 -9.545 0.984 -9.545 0.166 79.724
6738.833 0.168 79.63 0.984 -9.647 0.984 -9.647 0.168 79.63
6763.792 0.169 79.536 0.983 -9.749 0.983 -9.749 0.169 79.536
6788.75 0.171 79.441 0.983 -9.851 0.983 -9.851 0.171 79.441
6813.708 0.173 79.347 0.983 -9.952 0.983 -9.952 0.173 79.347
6838.667 0.175 79.254 0.983 -10.053 0.983 -10.053 0.175 79.254
6863.625 0.176 79.16 0.982 -10.154 0.982 -10.154 0.176 79.16
6888.583 0.178 79.066 0.982 -10.254 0.982 -10.254 0.178 79.066
6913.542 0.18 78.973 0.982 -10.354 0.982 -10.354 0.18 78.973
6938.5 0.181 78.88 0.981 -10.454 0.981 -10.454 0.181 78.88
6963.458 0.183 78.786 0.981 -10.554 0.981 -10.554 0.183 78.786
6988.417 0.185 78.693 0.981 -10.653 0.981 -10.653 0.185 78.693
7013.375 0.187 78.601 0.98 -10.752 0.98 -10.752 0.187 78.601
7038.333 0.188 78.508 0.98 -10.851 0.98 -10.851 0.188 78.508
7063.292 0.19 78.415 0.98 -10.949 0.98 -10.949 0.19 78.415
7088.25 0.192 78.323 0.979 -11.047 0.979 -11.047 0.192 78.323
7113.208 0.193 78.231 0.979 -11.145 0.979 -11.145 0.193 78.231
7138.167 0.195 78.139 0.979 -11.243 0.979 -11.243 0.195 78.139
7163.125 0.197 78.047 0.978 -11.34 0.978 -11.34 0.197 78.047
7188.083 0.198 77.955 0.978 -11.437 0.978 -11.437 0.198 77.955
7213.042 0.2 77.864 0.978 -11.534 0.978 -11.534 0.2 77.864
7238 0.202 77.772 0.977 -11.63 0.977 -11.63 0.202 77.772
7262.958 0.203 77.681 0.977 -11.726 0.977 -11.726 0.203 77.681
7287.917 0.205 77.59 0.977 -11.822 0.977 -11.822 0.205 77.59
7312.875 0.207 77.499 0.976 -11.918 0.976 -11.918 0.207 77.499
7337.833 0.208 77.409 0.976 -12.014 0.976 -12.014 0.208 77.409
7362.792 0.21 77.318 0.976 -12.109 0.976 -12.109 0.21 77.318
7387.75 0.211 77.228 0.975 -12.204 0.975 -12.204 0.211 77.228
7412.708 0.213 77.138 0.975 -12.298 0.975 -12.298 0.213 77.138
7437.667 0.215 77.048 0.975 -12.393 0.975 -12.393 0.215 77.048
7462.625 0.216 76.958 0.974 -12.487 0.974 -12.487 0.216 76.958
7487.583 0.218 76.868 0.974 -12.581 0.974 -12.581 0.218 76.868
7512.542 0.219 76.779 0.974 -12.675 0.974 -12.675 0.219 76.779
7537.5 0.221 76.689 0.973 -12.768 0.973 -12.768 0.221 76.689
7562.458 0.223 76.6 0.973 -12.861 0.973 -12.861 0.223 76.6
7587.417 0.224 76.511 0.972 -12.954 0.972 -12.954 0.224 76.511
7612.375 0.226 76.422 0.972 -13.047 0.972 -13.047 0.226 76.422
7637.333 0.227 76.334 0.972 -13.14 0.972 -13.14 0.227 76.334
7662.292 0.229 76.245 0.971 -13.232 0.971 -13.232 0.229 76.245
7687.25 0.23 76.157 0.971 -13.324 0.971 -13.324 0.23 76.157
7712.208 0.232 76.069 0.971 -13.416 0.971 -13.416 0.232 76.069
7737.167 0.234 75.981 0.97 -13.507 0.97 -13.507 0.234 75.981
7762.125 0.235 75.893 0.97 -13.599 0.97 -13.599 0.235 75.893
7787.083 0.237 75.806 0.97 -13.69 0.97 -13.69 0.237 75.806
7812.042 0.238 75.718 0.969 -13.781 0.969 -13.781 0.238 75.718
7837 0.24 75.631 0.969 -13.871 0.969 -13.871 0.24 75.631
7861.958 0.241 75.544 0.968 -13.962 0.968 -13.962 0.241 75.544
7886.917 0.243 75.457 0.968 -14.052 0.968 -14.052 0.243 75.457
7911.875 0.244 75.37 0.968 -14.142 0.968 -14.142 0.244 75.37
7936.833 0.246 75.284 0.967 -14.232 0.967 -14.232 0.246 75.284
7961.792 0.247 75.197 0.967 -14.321 0.967 -14.321 0.247 75.197
7986.75 0.249 75.111 0.966 -14.41 0.966 -14.41 0.249 75.111
8011.708 0.25 75.025 0.966 -14.5 0.966 -14.5 0.25 75.025
8036.667 0.252 74.939 0.966 -14.589 0.966 -14.589 0.252 74.939
8061.625 0.253 74.853 0.965 -14.677 0.965 -14.677 0.253 74.853
8086.583 0.255 74.768 0.965 -14.766 0.965 -14.766 0.255 74.768
8111.542 0.256 74.682 0.965 -14.854 0.965 -14.854 0.256 74.682
8136.5 0.258 74.597 0.964 -14.942 0.964 -14.942 0.258 74.597
8161.458 0.259 74.512 0.964 -15.03 0.964 -15.03 0.259 74.512
8186.417 0.261 74.427 0.963 -15.117 0.963 -15.117 0.261 74.427
8211.375 0.262 74.343 0.963 -15.205 0.963 -15.205 0.262 74.343
8236.333 0.264 74.258 0.963 -15.292 0.963 -15.292 0.264 74.258
8261.292 0.265 74.174 0.962 -15.379 0.962 -15.379 0.265 74.174
8286.25 0.267 74.09 0.962 -15.466 0.962 -15.466 0.267 74.09
8311.208 0.268 74.006 0.961 -15.553 0.961 -15.553 0.268 74.006
8336.167 0.27 73.922 0.961 -15.639 0.961 -15.639 0.27 73.922
8361.125 0.271 73.838 0.961 -15.725 0.961 -15.725 0.271 73.838
8386.083 0.272 73.754 0.96 -15.811 0.96 -15.811 0.272 73.754
8411.042 0.274 73.671 0.96 -15.897 0.96 -15.897 0.274 73.671
8436 0.275 73.588 0.959 -15.983 0.959 -15.983 0.275 73.588
8460.958 0.277 73.505 0.959 -16.068 0.959 -16.068 0.277 73.505
8485.917 0.278 73.422 0.958 -16.154 0.958 -16.154 0.278 73.422
8510.875 0.28 73.339 0.958 -16.239 0.958 -16.239 0.28 73.339
8535.833 0.281 73.257 0.958 -16.324 0.958 -16.324 0.281 73.257
8560.792 0.282 73.174 0.957 -16.408 0.957 -16.408 0.282 73.174
8585.75 0.284 73.092 0.957 -16.493 0.957 -16.493 0.284 73.092
8610.708 0.285 73.01 0.956 -16.577 0.956 -16.577 0.285 73.01
8635.667 0.287 72.928 0.956 -16.661 0.956 -16.661 0.287 72.928
8660.625 0.288 72.846 0.956 -16.745 0.956 -16.745 0.288 72.846
8685.583 0.29 72.765 0.955 -16.829 0.955 -16.829 0.29 72.765
8710.542 0.291 72.683 0.955 -16.912 0.955 -16.912 0.291 72.683
8735.5 0.292 72.602 0.954 -16.996 0.954 -16.996 0.292 72.602
8760.458 0.294 72.521 0.954 -17.079 0.954 -17.079 0.294 72.521
8785.417 0.295 72.44 0.953 -17.162 0.953 -17.162 0.295 72.44
8810.375 0.296 72.359 0.953 -17.245 0.953 -17.245 0.296 72.359
8835.333 0.298 72.278 0.953 -17.328 0.953 -17.328 0.298 72.278
8860.292 0.299 72.198 0.952 -17.41 0.952 -17.41 0.299 72.198
8885.25 0.301 72.117 0.952 -17.492 0.952 -17.492 0.301 72.117
8910.208 0.302 72.037 0.951 -17.575 0.951 -17.575 0.302 72.037
8935.167 0.303 71.957 0.951 -17.657 0.951 -17.657 0.303 71.957
8960.125 0.305 71.877 0.95 -17.738 0.95 -17.738 0.305 71.877
8985.083 0.306 71.798 0.95 -17.82 0.95 -17.82 0.306 71.798
9010.042 0.307 71.718 0.95 -17.901 0.95 -17.901 0.307 71.718
9035 0.309 71.639 0.949 -17.983 0.949 -17.983 0.309 71.639
9059.958 0.31 71.559 0.949 -18.064 0.949 -18.064 0.31 71.559
9084.917 0.311 71.48 0.948 -18.145 0.948 -18.145 0.311 71.48
9109.875 0.313 71.401 0.948 -18.225 0.948 -18.225 0.313 71.401
9134.833 0.314 71.322 0.947 -18.306 0.947 -18.306 0.314 71.322
9159.792 0.315 71.244 0.947 -18.387 0.947 -18.387 0.315 71.244
9184.75 0.317 71.165 0.946 -18.467 0.946 -18.467 0.317 71.165
9209.708 0.318 71.087 0.946 -18.547 0.946 -18.547 0.318 71.087
9234.667 0.319 71.008 0.946 -18.627 0.946 -18.627 0.319 71.008
9259.625 0.321 70.93 0.945 -18.707 0.945 -18.707 0.321 70.93
9284.583 0.322 70.852 0.945 -18.786 0.945 -18.786 0.322 70.852
9309.542 0.323 70.775 0.944 -18.866 0.944 -18.866 0.323 70.775
9334.5 0.325 70.697 0.944 -18.945 0.944 -18.945 0.325 70.697
9359.458 0.326 70.619 0.943 -19.024 0.943 -19.024 0.326 70.619
9384.417 0.327 70.542 0.943 -19.103 0.943 -19.103 0.327 70.542
9409.375 0.329 70.465 0.942 -19.182 0.942 -19.182 0.329 70.465
9434.333 0.33 70.388 0.942 -19.26 0.942 -19.26 0.33 70.388
9459.292 0.331 70.311 0.942 -19.339 0.942 -19.339 0.331 70.311
9484.25 0.332 70.234 0.941 -19.417 0.941 -19.417 0.332 70.234
9509.208 0.334 70.157 0.941 -19.495 0.941 -19.495 0.334 70.157
9534.167 0.335 70.081 0.94 -19.573 0.94 -19.573 0.335 70.081
9559.125 0.336 70.004 0.94 -19.651 0.94 -19.651 0.336 70.004
9584.083 0.338 69.928 0.939 -19.729 0.939 -19.729 0.338 69.928
9609.042 0.339 69.852 0.939 -19.807 0.939 -19.807 0.339 69.852
9634 0.34 69.776 0.938 -19.884 0.938 -19.884 0.34 69.776
9658.958 0.341 69.7 0.938 -19.961 0.938 -19.961 0.341 69.7
9683.917 0.343 69.625 0.937 -20.038 0.937 -20.038 0.343 69.625
9708.875 0.344 69.549 0.937 -20.115 0.937 -20.115 0.344 69.549
9733.833 0.345 69.474 0.937 -20.192 0.937 -20.192 0.345 69.474
9758.792 0.346 69.398 0.936 -20.269 0.936 -20.269 0.346 69.398
9783.75 0.348 69.323 0.936 -20.345 0.936 -20.345 0.348 69.323
9808.708 0.349 69.248 0.935 -20.422 0.935 -20.422 0.349 69.248
9833.667 0.35 69.173 0.935 -20.498 0.935 -20.498 0.35 69.173
9858.625 0.351 69.099 0.934 -20.574 0.934 -20.574 0.351 69.099
9883.583 0.353 69.024 0.934 -20.65 0.934 -20.65 0.353 69.024
9908.542 0.354 68.95 0.933 -20.725 0.933 -20.725 0.354 68.95
9933.5 0.355 68.875 0.933 -20.801 0.933 -20.801 0.355 68.875
9958.458 0.356 68.801 0.932 -20.876 0.932 -20.876 0.356 68.801
9983.417 0.358 68.727 0.932 -20.952 0.932 -20.952 0.358 68.727
10008.375 0.359 68.653 0.931 -21.027 0.931 -21.027 0.359 68.653
10033.333 0.36 68.579 0.931 -21.102 0.931 -21.102 0.36 68.579
10058.292 0.361 68.506 0.93 -21.177 0.93 -21.177 0.361 68.506
10083.25 0.362 68.432 0.93 -21.252 0.93 -21.252 0.362 68.432
10108.208 0.364 68.359 0.93 -21.326 0.93 -21.326 0.364 68.359
10133.167 0.365 68.286 0.929 -21.401 0.929 -21.401 0.365 68.286
10158.125 0.366 68.212 0.929 -21.475 0.929 -21.475 0.366 68.212
10183.083 0.367 68.139 0.928 -21.549 0.928 -21.549 0.367 68.139
10208.042 0.369 68.067 0.928 -21.623 0.928 -21.623 0.369 68.067
10233 0.37 67.994 0.927 -21.697 0.927 -21.697 0.37 67.994
10257.958 0.371 67.921 0.927 -21.771 0.927 -21.771 0.371 67.921
10282.917 0.372 67.849 0.926 -21.844 0.926 -21.844 0.372 67.849
10307.875 0.373 67.776 0.926 -21.918 0.926 -21.918 0.373 67.776
10332.833 0.374 67.704 0.925 -21.991 0.925 -21.991 0.374 67.704
10357.792 0.376 67.632 0.925 -22.065 0.925 -22.065 0.376 67.632
10382.75 0.377 67.56 0.924 -22.138 0.924 -22.138 0.377 67.56
10407.708 0.378 67.488 0.924 -22.211 0.924 -22.211 0.378 67.488
10432.667 0.379 67.417 0.923 -22.283 0.923 -22.283 0.379 67.417
10457.625 0.38 67.345 0.923 -22.356 0.923 -22.356 0.38 67.345
10482.583 0.382 67.274 0.922 -22.429 0.922 -22.429 0.382 67.274
10507.542 0.383 67.202 0.922 -22.501 0.922 -22.501 0.383 67.202
10532.5 0.384 67.131 0.921 -22.573 0.921 -22.573 0.384 67.131
10557.458 0.385 67.06 0.921 -22.645 0.921 -22.645 0.385 67.06
10582.417 0.386 66.989 0.92 -22.717 0.92 -22.717 0.386 66.989
10607.375 0.387 66.918 0.92 -22.789 0.92 -22.789 0.387 66.918
10632.333 0.389 66.847 0.919 -22.861 0.919 -22.861 0.389 66.847
10657.292 0.39 66.777 0.919 -22.933 0.919 -22.933 0.39 66.777
10682.25 0.391 66.706 0.919 -23.004 0.919 -23.004 0.391 66.706
10707.208 0.392 66.636 0.918 -23.075 0.918 -23.075 0.392 66.636
10732.167 0.393 66.566 0.918 -23.147 0.918 -23.147 0.393 66.566
10757.125 0.394 66.496 0.917 -23.218 0.917 -23.218 0.394 66.496
10782.083 0.395 66.426 0.917 -23.289 0.917 -23.289 0.395 66.426
10807.042 0.397 66.356 0.916 -23.36 0.916 -23.36 0.397 66.356
10832 0.398 66.286 0.916 -23.43 0.916 -23.43 0.398 66.286
10856.958 0.399 66.216 0.915 -23.501 0.915 -23.501 0.399 66.216
10881.917 0.4 66.147 0.915 -23.571 0.915 -23.571 0.4 66.147
10906.875 0.401 66.078 0.914 -23.642 0.914 -23.642 0.401 66.078
10931.833 0.402 66.008 0.914 -23.712 0.914 -23.712 0.402 66.008
10956.792 0.403 65.939 0.913 -23.782 0.913 -23.782 0.403 65.939
10981.75 0.404 65.87 0.913 -23.852 0.913 -23.852 0.404 65.87
11006.708 0.405 65.801 0.912 -23.922 0.912 -23.922 0.405 65.801
11031.667 0.407 65.732 0.912 -23.991 0.912 -23.991 0.407 65.732
11056.625 0.408 65.664 0.911 -24.061 0.911 -24.061 0.408 65.664
11081.583 0.409 65.595 0.911 -24.13 0.911 -24.13 0.409 65.595
11106.542 0.41 65.527 0.91 -24.2 0.91 -24.2 0.41 65.527
11131.5 0.411 65.458 0.91 -24.269 0.91 -24.269 0.411 65.458
11156.458 0.412 65.39 0.909 -24.338 0.909 -24.338 0.412 65.39
11181.417 0.413 65.322 0.909 -24.407 0.909 -24.407 0.413 65.322
11206.375 0.414 65.254 0.908 -24.476 0.908 -24.476 0.414 65.254
11231.333 0.415 65.186 0.908 -24.544 0.908 -24.544 0.415 65.186
11256.292 0.416 65.119 0.907 -24.613 0.907 -24.613 0.416 65.119
11281.25 0.418 65.051 0.907 -24.682 0.907 -24.682 0.418 65.051
11306.208 0.419 64.983 0.906 -24.75 0.906 -24.75 0.419 64.983
11331.167 0.42 64.916 0.906 -24.818 0.906 -24.818 0.42 64.916
11356.125 0.421 64.849 0.905 -24.886 0.905 -24.886 0.421 64.849
11381.083 0.422 64.782 0.905 -24.954 0.905 -24.954 0.422 64.782
11406.042 0.423 64.714 0.904 -25.022 0.904 -25.022 0.423 64.714
11431 0.424 64.647 0.904 -25.09 0.904 -25.09 0.424 64.647
11455.958 0.425 64.581 0.903 -25.158 0.903 -25.158 0.425 64.581
11480.917 0.426 64.514 0.903 -25.225 0.903 -25.225 0.426 64.514
11505.875 0.427 64.447 0.902 -25.292 0.902 -25.292 0.427 64.447
11530.833 0.428 64.381 0.902 -25.36 0.902 -25.36 0.428 64.381
11555.792 0.429 64.314 0.901 -25.427 0.901 -25.427 0.429 64.314
11580.75 0.43 64.248 0.901 -25.494 0.901 -25.494 0.43 64.248
11605.708 0.431 64.182 0.9 -25.561 0.9 -25.561 0.431 64.182
11630.667 0.433 64.116 0.9 -25.628 0.9 -25.628 0.433 64.116
11655.625 0.434 64.05 0.899 -25.695 0.899 -25.695 0.434 64.05
11680.583 0.435 63.984 0.899 -25.761 0.899 -25.761 0.435 63.984
11705.542 0.436 63.918 0.898 -25.828 0.898 -25.828 0.436 63.918
11730.5 0.437 63.853 0.898 -25.894 0.898 -25.894 0.437 63.853
11755.458 0.438 63.787 0.897 -25.96 0.897 -25.96 0.438 63.787
11780.417 0.439 63.722 0.897 -26.026 0.897 -26.026 0.439 63.722
11805.375 0.44 63.657 0.896 -26.092 0.896 -26.092 0.44 63.657
11830.333 0.441 63.591 0.896 -26.158 0.896 -26.158 0.441 63.591
11855.292 0.442 63.526 0.895 -26.224 0.895 -26.224 0.442 63.526
11880.25 0.443 63.461 0.895 -26.29 0.895 -26.29 0.443 63.461
11905.208 0.444 63.396 0.894 -26.355 0.894 -26.355 0.444 63.396
11930.167 0.445 63.332 0.894 -26.421 0.894 -26.421 0.445 63.332
11955.125 0.446 63.267 0.893 -26.486 0.893 -26.486 0.446 63.267
11980.083 0.447 63.202 0.893 -26.551 0.893 -26.551 0.447 63.202
12005.042 0.448 63.138 0.892 -26.617 0.892 -26.617 0.448 63.138
12030 0.449 63.074 0.892 -26.682 0.892 -26.682 0.449 63.074
12054.958 0.45 63.009 0.891 -26.747 0.891 -26.747 0.45 63.009
12079.917 0.451 62.945 0.891 -26.811 0.891 -26.811 0.451 62.945
12104.875 0.452 62.881 0.89 -26.876 0.89 -26.876 0.452 62.881
12129.833 0.453 62.817 0.89 -26.941 0.89 -26.941 0.453 62.817
12154.792 0.454 62.754 0.889 -27.005 0.889 -27.005 0.454 62.754
12179.75 0.455 62.69 0.889 -27.07 0.889 -27.07 0.455 62.69
12204.708 0.456 62.626 0.888 -27.134 0.888 -27.134 0.456 62.626
12229.667 0.457 62.563 0.888 -27.198 0.888 -27.198 0.457 62.563
12254.625 0.458 62.499 0.887 -27.262 0.887 -27.262 0.458 62.499
12279.583 0.459 62.436 0.887 -27.326 0.887 -27.326 0.459 62.436
12304.542 0.46 62.373 0.886 -27.39 0.886 -27.39 0.46 62.373
12329.5 0.461 62.31 0.885 -27.454 0.885 -27.454 0.461 62.31
12354.458 0.462 62.247 0.885 -27.517 0.885 -27.517 0.462 62.247
12379.417 0.463 62.184 0.884 -27.581 0.884 -27.581 0.463 62.184
12404.375 0.464 62.121 0.884 -27.644 0.884 -27.644 0.464 62.121
12429.333 0.465 62.059 0.883 -27.707 0.883 -27.707 0.465 62.059
12454.292 0.466 61.996 0.883 -27.771 0.883 -27.771 0.466 61.996
12479.25 0.467 61.933 0.882 -27.834 0.882 -27.834 0.467 61.933
12504.208 0.468 61.871 0.882 -27.897 0.882 -27.897 0.468 61.871
12529.167 0.469 61.809 0.881 -27.96 0.881 -27.96 0.469 61.809
12554.125 0.47 61.747 0.881 -28.022 0.881 -28.022 0.47 61.747
12579.083 0.471 61.685 0.88 -28.085 0.88 -28.085 0.471 61.685
12604.042 0.472 61.623 0.88 -28.148 0.88 -28.148 0.472 61.623
12629 0.473 61.561 0.879 -28.21 0.879 -28.21 0.473 61.561
12653.958 0.474 61.499 0.879 -28.272 0.879 -28.272 0.474 61.499
12678.917 0.475 61.437 0.878 -28.335 0.878 -28.335 0.475 61.437
12703.875 0.476 61.376 0.878 -28.397 0.878 -28.397 0.476 61.376
12728.833 0.477 61.314 0.877 -28.459 0.877 -28.459 0.477 61.314
12753.792 0.477 61.253 0.877 -28.521 0.877 -28.521 0.477 61.253
12778.75 0.478 61.192 0.876 -28.583 0.876 -28.583 0.478 61.192
12803.708 0.479 61.13 0.876 -28.644 0.876 -28.644 0.479 61.13
12828.667 0.48 61.069 0.875 -28.706 0.875 -28.706 0.48 61.069
12853.625 0.481 61.008 0.875 -28.768 0.875 -28.768 0.481 61.008
12878.583 0.482 60.947 0.874 -28.829 0.874 -28.829 0.482 60.947
12903.542 0.483 60.887 0.874 -28.89 0.874 -28.89 0.483 60.887
12928.5 0.484 60.826 0.873 -28.952 0.873 -28.952 0.484 60.826
12953.458 0.485 60.765 0.873 -29.013 0.873 -29.013 0.485 60.765
12978.417 0.486 60.705 0.872 -29.074 0.872 -29.074 0.486 60.705
13003.375 0.487 60.645 0.872 -29.135 0.872 -29.135 0.487 60.645
13028.333 0.488 60.584 0.871 -29.196 0.871 -29.196 0.488 60.584
13053.292 0.489 60.524 0.871 -29.256 0.871 -29.256 0.489 60.524
13078.25 0.49 60.464 0.87 -29.317 0.87 -29.317 0.49 60.464
13103.208 0.491 60.404 0.87 -29.378 0.87 -29.378 0.491 60.404
13128.167 0.491 60.344 0.869 -29.438 0.869 -29.438 0.491 60.344
13153.125 0.492 60.284 0.869 -29.499 0.869 -29.499 0.492 60.284
13178.083 0.493 60.224 0.868 -29.559 0.868 -29.559 0.493 60.224
13203.042 0.494 60.165 0.867 -29.619 0.867 -29.619 0.494 60.165
13228 0.495 60.105 0.867 -29.679 0.867 -29.679 0.495 60.105
13252.958 0.496 60.046 0.866 -29.739 0.866 -29.739 0.496 60.046
13277.917 0.497 59.986 0.866 -29.799 0.866 -29.799 0.497 59.986
13302.875 0.498 59.927 0.865 -29.859 0.865 -29.859 0.498 59.927
13327.833 0.499 59.868 0.865 -29.918 0.865 -29.918 0.499 59.868
13352.792 0.5 59.809 0.864 -29.978 0.864 -29.978 0.5 59.809
13377.75 0.501 59.75 0.864 -30.037 0.864 -30.037 0.501 59.75
13402.708 0.501 59.691 0.863 -30.097 0.863 -30.097 0.501 59.691
13427.667 0.502 59.632 0.863 -30.156 0.863 -30.156 0.502 59.632
13452.625 0.503 59.574 0.862 -30.215 0.862 -30.215 0.503 59.574
13477.583 0.504 59.515 0.862 -30.274 0.862 -30.274 0.504 59.515
13502.542 0.505 59.456 0.861 -30.333 0.861 -30.333 0.505 59.456
13527.5 0.506 59.398 0.861 -30.392 0.861 -30.392 0.506 59.398
13552.458 0.507 59.34 0.86 -30.451 0.86 -30.451 0.507 59.34
13577.417 0.508 59.281 0.86 -30.51 0.86 -30.51 0.508 59.281
13602.375 0.509 59.223 0.859 -30.568 0.859 -30.568 0.509 59.223
13627.333 0.509 59.165 0.859 -30.627 0.859 -30.627 0.509 59.165
13652.292 0.51 59.107 0.858 -30.685 0.858 -30.685 0.51 59.107
13677.25 0.511 59.049 0.858 -30.744 0.858 -30.744 0.511 59.049
13702.208 0.512 58.992 0.857 -30.802 0.857 -30.802 0.512 58.992
13727.167 0.513 58.934 0.857 -30.86 0.857 -30.86 0.513 58.934
13752.125 0.514 58.876 0.856 -30.918 0.856 -30.918 0.514 58.876
13777.083 0.515 58.819 0.856 -30.976 0.856 -30.976 0.515 58.819
13802.042 0.516 58.761 0.855 -31.034 0.855 -31.034 0.516 58.761
13827 0.516 58.704 0.855 -31.092 0.855 -31.092 0.516 58.704
13851.958 0.517 58.647 0.854 -31.15 0.854 -31.15 0.517 58.647
13876.917 0.518 58.59 0.853 -31.207 0.853 -31.207 0.518 58.59
13901.875 0.519 58.533 0.853 -31.265 0.853 -31.265 0.519 58.533
13926.833 0.52 58.476 0.852 -31.322 0.852 -31.322 0.52 58.476
13951.792 0.521 58.419 0.852 -31.38 0.852 -31.38 0.521 58.419
13976.75 0.522 58.362 0.851 -31.437 0.851 -31.437 0.522 58.362
14001.708 0.522 58.305 0.851 -31.494 0.851 -31.494 0.522 58.305
14026.667 0.523 58.249 0.85 -31.551 0.85 -31.551 0.523 58.249
14051.625 0.524 58.192 0.85 -31.608 0.85 -31.608 0.524 58.192
14076.583 0.525 58.136 0.849 -31.665 0.849 -31.665 0.525 58.136
14101.542 0.526 58.079 0.849 -31.722 0.849 -31.722 0.526 58.079
14126.5 0.527 58.023 0.848 -31.778 0.848 -31.778 0.527 58.023
14151.458 0.527 57.967 0.848 -31.835 0.848 -31.835 0.527 57.967
14176.417 0.528 57.911 0.847 -31.892 0.847 -31.892 0.528 57.911
14201.375 0.529 57.855 0.847 -31.948 0.847 -31.948 0.529 57.855
14226.333 0.53 57.799 0.846 -32.004 0.846 -32.004 0.53 57.799
14251.292 0.531 57.743 0.846 -32.061 0.846 -32.061 0.531 57.743
14276.25 0.532 57.687 0.845 -32.117 0.845 -32.117 0.532 57.687
14301.208 0.532 57.632 0.845 -32.173 0.845 -32.173 0.532 57.632
14326.167 0.533 57.576 0.844 -32.229 0.844 -32.229 0.533 57.576
14351.125 0.534 57.521 0.844 -32.285 0.844 -32.285 0.534 57.521
14376.083 0.535 57.465 0.843 -32.341 0.843 -32.341 0.535 57.465
14401.042 0.536 57.41 0.843 -32.396 0.843 -32.396 0.536 57.41
14426 0.537 57.355 0.842 -32.452 0.842 -32.452 0.537 57.355
14450.958 0.537 57.3 0.842 -32.508 0.842 -32.508 0.537 57.3
14475.917 0.538 57.244 0.841 -32.563 0.841 -32.563 0.538 57.244
14500.875 0.539 57.189 0.84 -32.618 0.84 -32.618 0.539 57.189
14525.833 0.54 57.135 0.84 -32.674 0.84 -32.674 0.54 57.135
14550.792 0.541 57.08 0.839 -32.729 0.839 -32.729 0.541 57.08
14575.75 0.541 57.025 0.839 -32.784 0.839 -32.784 0.541 57.025
14600.708 0.542 56.97 0.838 -32.839 0.838 -32.839 0.542 56.97
14625.667 0.543 56.916 0.838 -32.894 0.838 -32.894 0.543 56.916
14650.625 0.544 56.861 0.837 -32.949 0.837 -32.949 0.544 56.861
14675.583 0.545 56.807 0.837 -33.004 0.837 -33.004 0.545 56.807
14700.542 0.545 56.753 0.836 -33.058 0.836 -33.058 0.545 56.753
14725.5 0.546 56.698 0.836 -33.113 0.836 -33.113 0.546 56.698
14750.458 0.547 56.644 0.835 -33.168 0.835 -33.168 0.547 56.644
14775.417 0.548 56.59 0.835 -33.222 0.835 -33.222 0.548 56.59
14800.375 0.549 56.536 0.834 -33.276 0.834 -33.276 0.549 56.536
14825.333 0.549 56.482 0.834 -33.331 0.834 -33.331 0.549 56.482
14850.292 0.55 56.429 0.833 -33.385 0.833 -33.385 0.55 56.429
14875.25 0.551 56.375 0.833 -33.439 0.833 -33.439 0.551 56.375
14900.208 0.552 56.321 0.832 -33.493 0.832 -33.493 0.552 56.321
14925.167 0.553 56.268 0.832 -33.547 0.832 -33.547 0.553 56.268
14950.125 0.553 56.214 0.831 -33.601 0.831 -33.601 0.553 56.214
14975.083 0.554 56.161 0.831 -33.654 0.831 -33.654 0.554 56.161
15000.042 0.555 56.108 0.83 -33.708 0.83 -33.708 0.555 56.108
15025 0.556 56.054 0.83 -33.762 0.83 -33.762 0.556 56.054
15049.958 0.557 56.001 0.829 -33.815 0.829 -33.815 0.557 56.001
15074.917 0.557 55.948 0.829 -33.869 0.829 -33.869 0.557 55.948
15099.875 0.558 55.895 0.828 -33.922 0.828 -33.922 0.558 55.895
15124.833 0.559 55.842 0.827 -33.975 0.827 -33.975 0.559 55.842
15149.792 0.56 55.789 0.827 -34.029 0.827 -34.029 0.56 55.789
15174.75 0.56 55.737 0.826 -34.082 0.826 -34.082 0.56 55.737
15199.708 0.561 55.684 0.826 -34.135 0.826 -34.135 0.561 55.684
15224.667 0.562 55.631 0.825 -34.188 0.825 -34.188 0.562 55.631
15249.625 0.563 55.579 0.825 -34.24 0.825 -34.24 0.563 55.579
15274.583 0.563 55.526 0.824 -34.293 0.824 -34.293 0.563 55.526
15299.542 0.564 55.474 0.824 -34.346 0.824 -34.346 0.564 55.474
15324.5 0.565 55.422 0.823 -34.399 0.823 -34.399 0.565 55.422
15349.458 0.566 55.37 0.823 -34.451 0.823 -34.451 0.566 55.37
15374.417 0.566 55.318 0.822 -34.504 0.822 -34.504 0.566 55.318
15399.375 0.567 55.265 0.822 -34.556 0.822 -34.556 0.567 55.265
15424.333 0.568 55.214 0.821 -34.608 0.821 -34.608 0.568 55.214
15449.292 0.569 55.162 0.821 -34.66 0.821 -34.66 0.569 55.162
15474.25 0.569 55.11 0.82 -34.713 0.82 -34.713 0.569 55.11
15499.208 0.57 55.058 0.82 -34.765 0.82 -34.765 0.57 55.058
15524.167 0.571 55.007 0.819 -34.817 0.819 -34.817 0.571 55.007
15549.125 0.572 54.955 0.819 -34.869 0.819 -34.869 0.572 54.955
15574.083 0.572 54.903 0.818 -34.92 0.818 -34.92 0.572 54.903
15599.042 0.573 54.852 0.818 -34.972 0.818 -34.972 0.573 54.852
15624 0.574 54.801 0.817 -35.024 0.817 -35.024 0.574 54.801
15648.958 0.575 54.75 0.817 -35.075 0.817 -35.075 0.575 54.75
15673.917 0.575 54.698 0.816 -35.127 0.816 -35.127 0.575 54.698
15698.875 0.576 54.647 0.816 -35.178 0.816 -35.178 0.576 54.647
15723.833 0.577 54.596 0.815 -35.23 0.815 -35.23 0.577 54.596
15748.792 0.578 54.545 0.815 -35.281 0.815 -35.281 0.578 54.545
15773.75 0.578 54.494 0.814 -35.332 0.814 -35.332 0.578 54.494
15798.708 0.579 54.444 0.814 -35.383 0.814 -35.383 0.579 54.444
15823.667 0.58 54.393 0.813 -35.434 0.813 -35.434 0.58 54.393
15848.625 0.58 54.342 0.813 -35.485 0.813 -35.485 0.58 54.342
15873.583 0.581 54.292 0.812 -35.536 0.812 -35.536 0.581 54.292
15898.542 0.582 54.241 0.811 -35.587 0.811 -35.587 0.582 54.241
15923.5 0.583 54.191 0.811 -35.638 0.811 -35.638 0.583 54.191
15948.458 0.583 54.141 0.81 -35.688 0.81 -35.688 0.583 54.141
15973.417 0.584 54.09 0.81 -35.739 0.81 -35.739 0.584 54.09
15998.375 0.585 54.04 0.809 -35.789 0.809 -35.789 0.585 54.04
16023.333 0.586 53.99 0.809 -35.84 0.809 -35.84 0.586 53.99
16048.292 0.586 53.94 0.808 -35.89 0.808 -35.89 0.586 53.94
16073.25 0.587 53.89 0.808 -35.94 0.808 -35.94 0.587 53.89
16098.208 0.588 53.84 0.807 -35.991 0.807 -35.991 0.588 53.84
16123.167 0.588 53.79 0.807 -36.041 0.807 -36.041 0.588 53.79
16148.125 0.589 53.741 0.806 -36.091 0.806 -36.091 0.589 53.741
16173.083 0.59 53.691 0.806 -36.141 0.806 -36.141 0.59 53.691
16198.042 0.59 53.641 0.805 -36.191 0.805 -36.191 0.59 53.641
16223 0.591 53.592 0.805 -36.24 0.805 -36.24 0.591 53.592
16247.958 0.592 53.542 0.804 -36.29 0.804 -36.29 0.592 53.542
16272.917 0.593 53.493 0.804 -36.34 0.804 -36.34 0.593 53.493
16297.875 0.593 53.444 0.803 -36.389 0.803 -36.389 0.593 53.444
16322.833 0.594 53.395 0.803 -36.439 0.803 -36.439 0.594 53.395
16347.792 0.595 53.345 0.802 -36.488 0.802 -36.488 0.595 53.345
16372.75 0.595 53.296 0.802 -36.538 0.802 -36.538 0.595 53.296
16397.708 0.596 53.247 0.801 -36.587 0.801 -36.587 0.596 53.247
16422.667 0.597 53.199 0.801 -36.636 0.801 -36.636 0.597 53.199
16447.625 0.597 53.15 0.8 -36.685 0.8 -36.685 0.597 53.15
16472.583 0.598 53.101 0.8 -36.734 0.8 -36.734 0.598 53.101
16497.542 0.599 53.052 0.799 -36.783 0.799 -36.783 0.599 53.052
16522.5 0.599 53.004 0.799 -36.832 0.799 -36.832 0.599 53.004
16547.458 0.6 52.955 0.798 -36.881 0.798 -36.881 0.6 52.955
16572.417 0.601 52.907 0.798 -36.93 0.798 -36.93 0.601 52.907
16597.375 0.602 52.858 0.797 -36.979 0.797 -36.979 0.602 52.858
16622.333 0.602 52.81 0.797 -37.027 0.797 -37.027 0.602 52.81
16647.292 0.603 52.762 0.796 -37.076 0.796 -37.076 0.603 52.762
16672.25 0.604 52.713 0.796 -37.124 0.796 -37.124 0.604 52.713
16697.208 0.604 52.665 0.795 -37.173 0.795 -37.173 0.604 52.665
16722.167 0.605 52.617 0.795 -37.221 0.795 -37.221 0.605 52.617
16747.125 0.606 52.569 0.794 -37.269 0.794 -37.269 0.606 52.569
16772.083 0.606 52.521 0.794 -37.317 0.794 -37.317 0.606 52.521
16797.042 0.607 52.474 0.793 -37.365 0.793 -37.365 0.607 52.474
16822 0.608 52.426 0.793 -37.413 0.793 -37.413 0.608 52.426
16846.958 0.608 52.378 0.792 -37.461 0.792 -37.461 0.608 52.378
16871.917 0.609 52.33 0.792 -37.509 0.792 -37.509 0.609 52.33
16896.875 0.61 52.283 0.791 -37.557 0.791 -37.557 0.61 52.283
16921.833 0.61 52.235 0.791 -37.605 0.791 -37.605 0.61 52.235
16946.792 0.611 52.188 0.79 -37.653 0.79 -37.653 0.611 52.188
16971.75 0.612 52.141 0.79 -37.7 0.79 -37.7 0.612 52.141
16996.708 0.612 52.093 0.789 -37.748 0.789 -37.748 0.612 52.093
17021.667 0.613 52.046 0.789 -37.795 0.789 -37.795 0.613 52.046
17046.625 0.613 51.999 0.788 -37.843 0.788 -37.843 0.613 51.999
17071.583 0.614 51.952 0.787 -37.89 0.787 -37.89 0.614 51.952
17096.542 0.615 51.905 0.787 -37.937 0.787 -37.937 0.615 51.905
17121.5 0.615 51.858 0.786 -37.984 0.786 -37.984 0.615 51.858
17146.458 0.616 51.811 0.786 -38.032 0.786 -38.032 0.616 51.811
17171.417 0.617 51.764 0.785 -38.079 0.785 -38.079 0.617 51.764
17196.375 0.617 51.718 0.785 -38.126 0.785 -38.126 0.617 51.718
17221.333 0.618 51.671 0.784 -38.172 0.784 -38.172 0.618 51.671
17246.292 0.619 51.625 0.784 -38.219 0.784 -38.219 0.619 51.625
17271.25 0.619 51.578 0.783 -38.266 0.783 -38.266 0.619 51.578
17296.208 0.62 51.532 0.783 -38.313 0.783 -38.313 0.62 51.532
17321.167 0.621 51.485 0.782 -38.359 0.782 -38.359 0.621 51.485
17346.125 0.621 51.439 0.782 -38.406 0.782 -38.406 0.621 51.439
17371.083 0.622 51.393 0.781 -38.452 0.781 -38.452 0.622 51.393
17396.042 0.623 51.347 0.781 -38.499 0.781 -38.499 0.623 51.347
17421 0.623 51.3 0.78 -38.545 0.78 -38.545 0.623 51.3
17445.958 0.624 51.254 0.78 -38.592 0.78 -38.592 0.624 51.254
17470.917 0.624 51.208 0.779 -38.638 0.779 -38.638 0.624 51.208
17495.875 0.625 51.163 0.779 -38.684 0.779 -38.684 0.625 51.163
17520.833 0.626 51.117 0.778 -38.73 0.778 -38.73 0.626 51.117
17545.792 0.626 51.071 0.778 -38.776 0.778 -38.776 0.626 51.071
17570.75 0.627 51.025 0.777 -38.822 0.777 -38.822 0.627 51.025
17595.708 0.628 50.98 0.777 -38.868 0.777 -38.868 0.628 50.98
17620.667 0.628 50.934 0.776 -38.914 0.776 -38.914 0.628 50.934
17645.625 0.629 50.889 0.776 -38.959 0.776 -38.959 0.629 50.889
17670.583 0.629 50.843 0.775 -39.005 0.775 -39.005 0.629 50.843
17695.542 0.63 50.798 0.775 -39.051 0.775 -39.051 0.63 50.798
17720.5 0.631 50.752 0.774 -39.096 0.774 -39.096 0.631 50.752
17745.458 0.631 50.707 0.774 -39.142 0.774 -39.142 0.631 50.707
17770.417 0.632 50.662 0.773 -39.187 0.773 -39.187 0.632 50.662
17795.375 0.632 50.617 0.773 -39.232 0.773 -39.232 0.632 50.617
17820.333 0.633 50.572 0.772 -39.278 0.772 -39.278 0.633 50.572
17845.292 0.634 50.527 0.772 -39.323 0.772 -39.323 0.634 50.527
17870.25 0.634 50.482 0.771 -39.368 0.771 -39.368 0.634 50.482
17895.208 0.635 50.437 0.771 -39.413 0.771 -39.413 0.635 50.437
17920.167 0.636 50.393 0.77 -39.458 0.77 -39.458 0.636 50.393
17945.125 0.636 50.348 0.77 -39.503 0.77 -39.503 0.636 50.348
17970.083 0.637 50.303 0.769 -39.548 0.769 -39.548 0.637 50.303
17995.042 0.637 50.259 0.769 -39.593 0.769 -39.593 0.637 50.259
18020 0.638 50.214 0.768 -39.637 0.768 -39.637 0.638 50.214
18044.958 0.639 50.17 0.768 -39.682 0.768 -39.682 0.639 50.17
18069.917 0.639 50.125 0.767 -39.727 0.767 -39.727 0.639 50.125
18094.875 0.64 50.081 0.767 -39.771 0.767 -39.771 0.64 50.081
18119.833 0.64 50.037 0.766 -39.816 0.766 -39.816 0.64 50.037
18144.792 0.641 49.993 0.766 -39.86 0.766 -39.86 0.641 49.993
18169.75 0.642 49.948 0.765 -39.904 0.765 -39.904 0.642 49.948
18194.708 0.642 49.904 0.765 -39.949 0.765 -39.949 0.642 49.904
18219.667 0.643 49.86 0.764 -39.993 0.764 -39.993 0.643 49.86
18244.625 0.643 49.817 0.764 -40.037 0.764 -40.037 0.643 49.817
18269.583 0.644 49.773 0.763 -40.081 0.763 -40.081 0.644 49.773
18294.542 0.644 49.729 0.763 -40.125 0.763 -40.125 0.644 49.729
18319.5 0.645 49.685 0.763 -40.169 0.763 -40.169 0.645 49.685
18344.458 0.646 49.641 0.762 -40.213 0.762 -40.213 0.646 49.641
18369.417 0.646 49.598 0.762 -40.257 0.762 -40.257 0.646 49.598
18394.375 0.647 49.554 0.761 -40.301 0.761 -40.301 0.647 49.554
18419.333 0.647 49.511 0.761 -40.344 0.761 -40.344 0.647 49.511
18444.292 0.648 49.467 0.76 -40.388 0.76 -40.388 0.648 49.467
18469.25 0.649 49.424 0.76 -40.432 0.76 -40.432 0.649 49.424
18494.208 0.649 49.381 0.759 -40.475 0.759 -40.475 0.649 49.381
18519.167 0.65 49.338 0.759 -40.519 0.759 -40.519 0.65 49.338
18544.125 0.65 49.294 0.758 -40.562 0.758 -40.562 0.65 49.294
18569.083 0.651 49.251 0.758 -40.605 0.758 -40.605 0.651 49.251
18594.042 0.651 49.208 0.757 -40.649 0.757 -40.649 0.651 49.208
18619 0.652 49.165 0.757 -40.692 0.757 -40.692 0.652 49.165
18643.958 0.653 49.122 0.756 -40.735 0.756 -40.735 0.653 49.122
18668.917 0.653 49.08 0.756 -40.778 0.756 -40.778 0.653 49.08
18693.875 0.654 49.037 0.755 -40.821 0.755 -40.821 0.654 49.037
18718.833 0.654 48.994 0.755 -40.864 0.755 -40.864 0.654 48.994
18743.792 0.655 48.951 0.754 -40.907 0.754 -40.907 0.655 48.951
18768.75 0.655 48.909 0.754 -40.95 0.754 -40.95 0.655 48.909
18793.708 0.656 48.866 0.753 -40.992 0.753 -40.992 0.656 48.866
18818.667 0.657 48.824 0.753 -41.035 0.753 -41.035 0.657 48.824
18843.625 0.657 48.781 0.752 -41.078 0.752 -41.078 0.657 48.781
18868.583 0.658 48.739 0.752 -41.12 0.752 -41.12 0.658 48.739
18893.542 0.658 48.697 0.751 -41.163 0.751 -41.163 0.658 48.697
18918.5 0.659 48.654 0.751 -41.205 0.751 -41.205 0.659 48.654
18943.458 0.659 48.612 0.75 -41.248 0.75 -41.248 0.659 48.612
18968.417 0.66 48.57 0.75 -41.29 0.75 -41.29 0.66 48.57
18993.375 0.66 48.528 0.749 -41.332 0.749 -41.332 0.66 48.528
19018.333 0.661 48.486 0.749 -41.374 0.749 -41.374 0.661 48.486
19043.292 0.662 48.444 0.748 -41.416 0.748 -41.416 0.662 48.444
19068.25 0.662 48.402 0.748 -41.459 0.748 -41.459 0.662 48.402
19093.208 0.663 48.36 0.747 -41.501 0.747 -41.501 0.663 48.36
19118.167 0.663 48.319 0.747 -41.543 0.747 -41.543 0.663 48.319
19143.125 0.664 48.277 0.746 -41.584 0.746 -41.584 0.664 48.277
19168.083 0.664 48.235 0.746 -41.626 0.746 -41.626 0.664 48.235
19193.042 0.665 48.194 0.745 -41.668 0.745 -41.668 0.665 48.194
19218 0.665 48.152 0.745 -41.71 0.745 -41.71 0.665 48.152
19242.958 0.666 48.111 0.744 -41.751 0.744 -41.751 0.666 48.111
19267.917 0.666 48.069 0.744 -41.793 0.744 -41.793 0.666 48.069
19292.875 0.667 48.028 0.743 -41.835 0.743 -41.835 0.667 48.028
19317.833 0.668 47.987 0.743 -41.876 0.743 -41.876 0.668 47.987
19342.792 0.668 47.946 0.743 -41.917 0.743 -41.917 0.668 47.946
19367.75 0.669 47.904 0.742 -41.959 0.742 -41.959 0.669 47.904
19392.708 0.669 47.863 0.742 -42 0.742 -42 0.669 47.863
19417.667 0.67 47.822 0.741 -42.041 0.741 -42.041 0.67 47.822
19442.625 0.67 47.781 0.741 -42.083 0.741 -42.083 0.67 47.781
19467.583 0.671 47.74 0.74 -42.124 0.74 -42.124 0.671 47.74
19492.542 0.671 47.7 0.74 -42.165 0.74 -42.165 0.671 47.7
19517.5 0.672 47.659 0.739 -42.206 0.739 -42.206 0.672 47.659
19542.458 0.672 47.618 0.739 -42.247 0.739 -42.247 0.672 47.618
19567.417 0.673 47.577 0.738 -42.288 0.738 -42.288 0.673 47.577
19592.375 0.673 47.537 0.738 -42.328 0.738 -42.328 0.673 47.537
19617.333 0.674 47.496 0.737 -42.369 0.737 -42.369 0.674 47.496
19642.292 0.674 47.456 0.737 -42.41 0.737 -42.41 0.674 47.456
19667.25 0.675 47.415 0.736 -42.45 0.736 -42.45 0.675 47.415
19692.208 0.675 47.375 0.736 -42.491 0.736 -42.491 0.675 47.375
19717.167 0.676 47.334 0.735 -42.532 0.735 -42.532 0.676 47.334
19742.125 0.677 47.294 0.735 -42.572 0.735 -42.572 0.677 47.294
19767.083 0.677 47.254 0.734 -42.612 0.734 -42.612 0.677 47.254
19792.042 0.678 47.214 0.734 -42.653 0.734 -42.653 0.678 47.214
19817 0.678 47.174 0.733 -42.693 0.733 -42.693 0.678 47.174
19841.958 0.679 47.133 0.733 -42.733 0.733 -42.733 0.679 47.133
19866.917 0.679 47.093 0.732 -42.774 0.732 -42.774 0.679 47.093
19891.875 0.68 47.054 0.732 -42.814 0.732 -42.814 0.68 47.054
19916.833 0.68 47.014 0.732 -42.854 0.732 -42.854 0.68 47.014
19941.792 0.681 46.974 0.731 -42.894 0.731 -42.894 0.681 46.974
19966.75 0.681 46.934 0.731 -42.934 0.731 -42.934 0.681 46.934
19991.708 0.682 46.894 0.73 -42.974 0.73 -42.974 0.682 46.894
20016.667 0.682 46.855 0.73 -43.013 0.73 -43.013 0.682 46.855
20041.625 0.683 46.815 0.729 -43.053 0.729 -43.053 0.683 46.815
20066.583 0.683 46.776 0.729 -43.093 0.729 -43.093 0.683 46.776
20091.542 0.684 46.736 0.728 -43.133 0.728 -43.133 0.684 46.736
20116.5 0.684 46.697 0.728 -43.172 0.728 -43.172 0.684 46.697
20141.458 0.685 46.657 0.727 -43.212 0.727 -43.212 0.685 46.657
20166.417 0.685 46.618 0.727 -43.251 0.727 -43.251 0.685 46.618
20191.375 0.686 46.579 0.726 -43.291 0.726 -43.291 0.686 46.579
20216.333 0.686 46.539 0.726 -43.33 0.726 -43.33 0.686 46.539
20241.292 0.687 46.5 0.725 -43.37 0.725 -43.37 0.687 46.5
20266.25 0.687 46.461 0.725 -43.409 0.725 -43.409 0.687 46.461
20291.208 0.688 46.422 0.724 -43.448 0.724 -43.448 0.688 46.422
20316.167 0.688 46.383 0.724 -43.487 0.724 -43.487 0.688 46.383
20341.125 0.689 46.344 0.724 -43.526 0.724 -43.526 0.689 46.344
20366.083 0.689 46.305 0.723 -43.565 0.723 -43.565 0.689 46.305
20391.042 0.69 46.267 0.723 -43.604 0.723 -43.604 0.69 46.267
20416 0.69 46.228 0.722 -43.643 0.722 -43.643 0.69 46.228
20440.958 0.691 46.189 0.722 -43.682 0.722 -43.682 0.691 46.189
20465.917 0.691 46.15 0.721 -43.721 0.721 -43.721 0.691 46.15
20490.875 0.692 46.112 0.721 -43.76 0.721 -43.76 0.692 46.112
20515.833 0.692 46.073 0.72 -43.799 0.72 -43.799 0.692 46.073
20540.792 0.693 46.035 0.72 -43.837 0.72 -43.837 0.693 46.035
20565.75 0.693 45.996 0.719 -43.876 0.719 -43.876 0.693 45.996
20590.708 0.694 45.958 0.719 -43.914 0.719 -43.914 0.694 45.958
20615.667 0.694 45.92 0.718 -43.953 0.718 -43.953 0.694 45.92
20640.625 0.695 45.881 0.718 -43.991 0.718 -43.991 0.695 45.881
20665.583 0.695 45.843 0.717 -44.03 0.717 -44.03 0.695 45.843
20690.542 0.696 45.805 0.717 -44.068 0.717 -44.068 0.696 45.805
20715.5 0.696 45.767 0.717 -44.106 0.717 -44.106 0.696 45.767
20740.458 0.696 45.729 0.716 -44.145 0.716 -44.145 0.696 45.729
20765.417 0.697 45.691 0.716 -44.183 0.716 -44.183 0.697 45.691
20790.375 0.697 45.653 0.715 -44.221 0.715 -44.221 0.697 45.653
20815.333 0.698 45.615 0.715 -44.259 0.715 -44.259 0.698 45.615
20840.292 0.698 45.577 0.714 -44.297 0.714 -44.297 0.698 45.577
20865.25 0.699 45.539 0.714 -44.335 0.714 -44.335 0.699 45.539
20890.208 0.699 45.501 0.713 -44.373 0.713 -44.373 0.699 45.501
20915.167 0.7 45.464 0.713 -44.411 0.713 -44.411 0.7 45.464
20940.125 0.7 45.426 0.712 -44.449 0.712 -44.449 0.7 45.426
20965.083 0.701 45.388 0.712 -44.486 0.712 -44.486 0.701 45.388
20990.042 0.701 45.351 0.711 -44.524 0.711 -44.524 0.701 45.351
21015 0.702 45.313 0.711 -44.562 0.711 -44.562 0.702 45.313
21039.958 0.702 45.276 0.711 -44.599 0.711 -44.599 0.702 45.276
21064.917 0.703 45.239 0.71 -44.637 0.71 -44.637 0.703 45.239
21089.875 0.703 45.201 0.71 -44.674 0.71 -44.674 0.703 45.201
21114.833 0.704 45.164 0.709 -44.712 0.709 -44.712 0.704 45.164
21139.792 0.704 45.127 0.709 -44.749 0.709 -44.749 0.704 45.127
21164.75 0.704 45.09 0.708 -44.786 0.708 -44.786 0.704 45.09
21189.708 0.705 45.053 0.708 -44.824 0.708 -44.824 0.705 45.053
21214.667 0.705 45.015 0.707 -44.861 0.707 -44.861 0.705 45.015
21239.625 0.706 44.978 0.707 -44.898 0.707 -44.898 0.706 44.978
21264.583 0.706 44.942 0.706 -44.935 0.706 -44.935 0.706 44.942
21289.542 0.707 44.905 0.706 -44.972 0.706 -44.972 0.707 44.905
21314.5 0.707 44.868 0.705 -45.009 0.705 -45.009 0.707 44.868
21339.458 0.708 44.831 0.705 -45.046 0.705 -45.046 0.708 44.831
21364.417 0.708 44.794 0.705 -45.083 0.705 -45.083 0.708 44.794
21389.375 0.709 44.757 0.704 -45.12 0.704 -45.12 0.709 44.757
21414.333 0.709 44.721 0.704 -45.157 0.704 -45.157 0.709 44.721
21439.292 0.709 44.684 0.703 -45.194 0.703 -45.194 0.709 44.684
21464.25 0.71 44.648 0.703 -45.23 0.703 -45.23 0.71 44.648
21489.208 0.71 44.611 0.702 -45.267 0.702 -45.267 0.71 44.611
21514.167 0.711 44.575 0.702 -45.304 0.702 -45.304 0.711 44.575
21539.125 0.711 44.538 0.701 -45.34 0.701 -45.34 0.711 44.538
21564.083 0.712 44.502 0.701 -45.377 0.701 -45.377 0.712 44.502
21589.042 0.712 44.466 0.7 -45.413 0.7 -45.413 0.712 44.466
21614 0.713 44.429 0.7 -45.45 0.7 -45.45 0.713 44.429
21638.958 0.713 44.393 0.7 -45.486 0.7 -45.486 0.713 44.393
21663.917 0.714 44.357 0.699 -45.522 0.699 -45.522 0.714 44.357
21688.875 0.714 44.321 0.699 -45.558 0.699 -45.558 0.714 44.321
21713.833 0.714 44.285 0.698 -45.595 0.698 -45.595 0.714 44.285
21738.792 0.715 44.249 0.698 -45.631 0.698 -45.631 0.715 44.249
21763.75 0.715 44.213 0.697 -45.667 0.697 -45.667 0.715 44.213
21788.708 0.716 44.177 0.697 -45.703 0.697 -45.703 0.716 44.177
21813.667 0.716 44.141 0.696 -45.739 0.696 -45.739 0.716 44.141
21838.625 0.717 44.105 0.696 -45.775 0.696 -45.775 0.717 44.105
21863.583 0.717 44.07 0.696 -45.811 0.696 -45.811 0.717 44.07
21888.542 0.717 44.034 0.695 -45.847 0.695 -45.847 0.717 44.034
21913.5 0.718 43.998 0.695 -45.882 0.695 -45.882 0.718 43.998
21938.458 0.718 43.963 0.694 -45.918 0.694 -45.918 0.718 43.963
21963.417 0.719 43.927 0.694 -45.954 0.694 -45.954 0.719 43.927
21988.375 0.719 43.892 0.693 -45.99 0.693 -45.99 0.719 43.892
22013.333 0.72 43.856 0.693 -46.025 0.693 -46.025 0.72 43.856
22038.292 0.72 43.821 0.692 -46.061 0.692 -46.061 0.72 43.821
22063.25 0.721 43.785 0.692 -46.096 0.692 -46.096 0.721 43.785
22088.208 0.721 43.75 0.692 -46.132 0.692 -46.132 0.721 43.75
22113.167 0.721 43.715 0.691 -46.167 0.691 -46.167 0.721 43.715
22138.125 0.722 43.68 0.691 -46.202 0.691 -46.202 0.722 43.68
22163.083 0.722 43.645 0.69 -46.238 0.69 -46.238 0.722 43.645
22188.042 0.723 43.609 0.69 -46.273 0.69 -46.273 0.723 43.609
22213 0.723 43.574 0.689 -46.308 0.689 -46.308 0.723 43.574
22237.958 0.723 43.539 0.689 -46.343 0.689 -46.343 0.723 43.539
22262.917 0.724 43.504 0.688 -46.378 0.688 -46.378 0.724 43.504
22287.875 0.724 43.469 0.688 -46.413 0.688 -46.413 0.724 43.469
22312.833 0.725 43.435 0.688 -46.448 0.688 -46.448 0.725 43.435
22337.792 0.725 43.4 0.687 -46.483 0.687 -46.483 0.725 43.4
22362.75 0.726 43.365 0.687 -46.518 0.687 -46.518 0.726 43.365
22387.708 0.726 43.33 0.686 -46.553 0.686 -46.553 0.726 43.33
22412.667 0.726 43.296 0.686 -46.588 0.686 -46.588 0.726 43.296
22437.625 0.727 43.261 0.685 -46.623 0.685 -46.623 0.727 43.261
22462.583 0.727 43.226 0.685 -46.658 0.685 -46.658 0.727 43.226
22487.542 0.728 43.192 0.684 -46.692 0.684 -46.692 0.728 43.192
22512.5 0.728 43.157 0.684 -46.727 0.684 -46.727 0.728 43.157
22537.458 0.729 43.123 0.684 -46.761 0.684 -46.761 0.729 43.123
22562.417 0.729 43.088 0.683 -46.796 0.683 -46.796 0.729 43.088
22587.375 0.729 43.054 0.683 -46.83 0.683 -46.83 0.729 43.054
22612.333 0.73 43.02 0.682 -46.865 0.682 -46.865 0.73 43.02
22637.292 0.73 42.986 0.682 -46.899 0.682 -46.899 0.73 42.986
22662.25 0.731 42.951 0.681 -46.934 0.681 -46.934 0.731 42.951
22687.208 0.731 42.917 0.681 -46.968 0.681 -46.968 0.731 42.917
22712.167 0.731 42.883 0.681 -47.002 0.681 -47.002 0.731 42.883
22737.125 0.732 42.849 0.68 -47.036 0.68 -47.036 0.732 42.849
22762.083 0.732 42.815 0.68 -47.071 0.68 -47.071 0.732 42.815
22787.042 0.733 42.781 0.679 -47.105 0.679 -47.105 0.733 42.781
22812 0.733 42.747 0.679 -47.139 0.679 -47.139 0.733 42.747
22836.958 0.733 42.713 0.678 -47.173 0.678 -47.173 0.733 42.713
22861.917 0.734 42.679 0.678 -47.207 0.678 -47.207 0.734 42.679
22886.875 0.734 42.646 0.677 -47.241 0.677 -47.241 0.734 42.646
22911.833 0.735 42.612 0.677 -47.275 0.677 -47.275 0.735 42.612
22936.792 0.735 42.578 0.677 -47.308 0.677 -47.308 0.735 42.578
22961.75 0.735 42.545 0.676 -47.342 0.676 -47.342 0.735 42.545
22986.708 0.736 42.511 0.676 -47.376 0.676 -47.376 0.736 42.511
23011.667 0.736 42.477 0.675 -47.41 0.675 -47.41 0.736 42.477
23036.625 0.737 42.444 0.675 -47.443 0.675 -47.443 0.737 42.444
23061.583 0.737 42.41 0.674 -47.477 0.674 -47.477 0.737 42.41
23086.542 0.737 42.377 0.674 -47.51 0.674 -47.51 0.737 42.377
23111.5 0.738 42.344 0.674 -47.544 0.674 -47.544 0.738 42.344
23136.458 0.738 42.31 0.673 -47.577 0.673 -47.577 0.738 42.31
23161.417 0.739 42.277 0.673 -47.611 0.673 -47.611 0.739 42.277
23186.375 0.739 42.244 0.672 -47.644 0.672 -47.644 0.739 42.244
23211.333 0.739 42.21 0.672 -47.678 0.672 -47.678 0.739 42.21
23236.292 0.74 42.177 0.671 -47.711 0.671 -47.711 0.74 42.177
23261.25 0.74 42.144 0.671 -47.744 0.671 -47.744 0.74 42.144
23286.208 0.741 42.111 0.671 -47.777 0.671 -47.777 0.741 42.111
23311.167 0.741 42.078 0.67 -47.81 0.67 -47.81 0.741 42.078
23336.125 0.741 42.045 0.67 -47.843 0.67 -47.843 0.741 42.045
23361.083 0.742 42.012 0.669 -47.877 0.669 -47.877 0.742 42.012
23386.042 0.742 41.979 0.669 -47.91 0.669 -47.91 0.742 41.979
23411 0.742 41.947 0.668 -47.943 0.668 -47.943 0.742 41.947
23435.958 0.743 41.914 0.668 -47.975 0.668 -47.975 0.743 41.914
23460.917 0.743 41.881 0.668 -48.008 0.668 -48.008 0.743 41.881
23485.875 0.744 41.848 0.667 -48.041 0.667 -48.041 0.744 41.848
23510.833 0.744 41.816 0.667 -48.074 0.667 -48.074 0.744 41.816
23535.792 0.744 41.783 0.666 -48.107 0.666 -48.107 0.744 41.783
23560.75 0.745 41.75 0.666 -48.139 0.666 -48.139 0.745 41.75
23585.708 0.745 41.718 0.665 -48.172 0.665 -48.172 0.745 41.718
23610.667 0.746 41.685 0.665 -48.205 0.665 -48.205 0.746 41.685
23635.625 0.746 41.653 0.665 -48.237 0.665 -48.237 0.746 41.653
23660.583 0.746 41.621 0.664 -48.27 0.664 -48.27 0.746 41.621
23685.542 0.747 41.588 0.664 -48.302 0.664 -48.302 0.747 41.588
23710.5 0.747 41.556 0.663 -48.335 0.663 -48.335 0.747 41.556
23735.458 0.747 41.524 0.663 -48.367 0.663 -48.367 0.747 41.524
23760.417 0.748 41.491 0.663 -48.399 0.663 -48.399 0.748 41.491
23785.375 0.748 41.459 0.662 -48.432 0.662 -48.432 0.748 41.459
23810.333 0.749 41.427 0.662 -48.464 0.662 -48.464 0.749 41.427
23835.292 0.749 41.395 0.661 -48.496 0.661 -48.496 0.749 41.395
23860.25 0.749 41.363 0.661 -48.528 0.661 -48.528 0.749 41.363
23885.208 0.75 41.331 0.66 -48.56 0.66 -48.56 0.75 41.331
23910.167 0.75 41.299 0.66 -48.593 0.66 -48.593 0.75 41.299
23935.125 0.75 41.267 0.66 -48.625 0.66 -48.625 0.75 41.267
23960.083 0.751 41.235 0.659 -48.657 0.659 -48.657 0.751 41.235
23985.042 0.751 41.203 0.659 -48.689 0.659 -48.689 0.751 41.203
24010 0.752 41.172 0.658 -48.72 0.658 -48.72 0.752 41.172
24034.958 0.752 41.14 0.658 -48.752 0.658 -48.752 0.752 41.14
24059.917 0.752 41.108 0.657 -48.784 0.657 -48.784 0.752 41.108
24084.875 0.753 41.076 0.657 -48.816 0.657 -48.816 0.753 41.076
24109.833 0.753 41.045 0.657 -48.848 0.657 -48.848 0.753 41.045
24134.792 0.753 41.013 0.656 -48.879 0.656 -48.879 0.753 41.013
24159.75 0.754 40.982 0.656 -48.911 0.656 -48.911 0.754 40.982
24184.708 0.754 40.95 0.655 -48.943 0.655 -48.943 0.754 40.95
24209.667 0.754 40.919 0.655 -48.974 0.655 -48.974 0.754 40.919
24234.625 0.755 40.887 0.655 -49.006 0.655 -49.006 0.755 40.887
24259.583 0.755 40.856 0.654 -49.037 0.654 -49.037 0.755 40.856
24284.542 0.755 40.825 0.654 -49.069 0.654 -49.069 0.755 40.825
24309.5 0.756 40.793 0.653 -49.1 0.653 -49.1 0.756 40.793
24334.458 0.756 40.762 0.653 -49.131 0.653 -49.131 0.756 40.762
24359.417 0.757 40.731 0.653 -49.163 0.653 -49.163 0.757 40.731
24384.375 0.757 40.7 0.652 -49.194 0.652 -49.194 0.757 40.7
24409.333 0.757 40.669 0.652 -49.225 0.652 -49.225 0.757 40.669
24434.292 0.758 40.638 0.651 -49.257 0.651 -49.257 0.758 40.638
24459.25 0.758 40.606 0.651 -49.288 0.651 -49.288 0.758 40.606
24484.208 0.758 40.575 0.65 -49.319 0.65 -49.319 0.758 40.575
24509.167 0.759 40.545 0.65 -49.35 0.65 -49.35 0.759 40.545
24534.125 0.759 40.514 0.65 -49.381 0.65 -49.381 0.759 40.514
24559.083 0.759 40.483 0.649 -49.412 0.649 -49.412 0.759 40.483
24584.042 0.76 40.452 0.649 -49.443 0.649 -49.443 0.76 40.452
24609 0.76 40.421 0.648 -49.474 0.648 -49.474 0.76 40.421
24633.958 0.76 40.39 0.648 -49.505 0.648 -49.505 0.76 40.39
24658.917 0.761 40.36 0.648 -49.535 0.648 -49.535 0.761 40.36
24683.875 0.761 40.329 0.647 -49.566 0.647 -49.566 0.761 40.329
24708.833 0.762 40.298 0.647 -49.597 0.647 -49.597 0.762 40.298
24733.792 0.762 40.268 0.646 -49.628 0.646 -49.628 0.762 40.268
24758.75 0.762 40.237 0.646 -49.658 0.646 -49.658 0.762 40.237
24783.708 0.763 40.207 0.646 -49.689 0.646 -49.689 0.763 40.207
24808.667 0.763 40.176 0.645 -49.72 0.645 -49.72 0.763 40.176
24833.625 0.763 40.146 0.645 -49.75 0.645 -49.75 0.763 40.146
24858.583 0.764 40.115 0.644 -49.781 0.644 -49.781 0.764 40.115
24883.542 0.764 40.085 0.644 -49.811 0.644 -49.811 0.764 40.085
24908.5 0.764 40.055 0.644 -49.841 0.644 -49.841 0.764 40.055
24933.458 0.765 40.025 0.643 -49.872 0.643 -49.872 0.765 40.025
24958.417 0.765 39.994 0.643 -49.902 0.643 -49.902 0.765 39.994
24983.375 0.765 39.964 0.642 -49.932 0.642 -49.932 0.765 39.964
25008.333 0.766 39.934 0.642 -49.963 0.642 -49.963 0.766 39.934
25033.292 0.766 39.904 0.642 -49.993 0.642 -49.993 0.766 39.904
25058.25 0.766 39.874 0.641 -50.023 0.641 -50.023 0.766 39.874
25083.208 0.767 39.844 0.641 -50.053 0.641 -50.053 0.767 39.844
25108.167 0.767 39.814 0.64 -50.083 0.64 -50.083 0.767 39.814
25133.125 0.767 39.784 0.64 -50.113 0.64 -50.113 0.767 39.784
25158.083 0.768 39.754 0.639 -50.143 0.639 -50.143 0.768 39.754
25183.042 0.768 39.724 0.639 -50.173 0.639 -50.173 0.768 39.724
25208 0.768 39.694 0.639 -50.203 0.639 -50.203 0.768 39.694
25232.958 0.769 39.664 0.638 -50.233 0.638 -50.233 0.769 39.664
25257.917 0.769 39.635 0.638 -50.263 0.638 -50.263 0.769 39.635
25282.875 0.769 39.605 0.637 -50.293 0.637 -50.293 0.769 39.605
25307.833 0.77 39.575 0.637 -50.323 0.637 -50.323 0.77 39.575
25332.792 0.77 39.546 0.637 -50.352 0.637 -50.352 0.77 39.546
25357.75 0.77 39.516 0.636 -50.382 0.636 -50.382 0.77 39.516
25382.708 0.771 39.487 0.636 -50.412 0.636 -50.412 0.771 39.487
25407.667 0.771 39.457 0.636 -50.441 0.636 -50.441 0.771 39.457
25432.625 0.771 39.428 0.635 -50.471 0.635 -50.471 0.771 39.428
25457.583 0.772 39.398 0.635 -50.5 0.635 -50.5 0.772 39.398
25482.542 0.772 39.369 0.634 -50.53 0.634 -50.53 0.772 39.369
25507.5 0.772 39.339 0.634 -50.559 0.634 -50.559 0.772 39.339
25532.458 0.773 39.31 0.634 -50.589 0.634 -50.589 0.773 39.31
25557.417 0.773 39.281 0.633 -50.618 0.633 -50.618 0.773 39.281
25582.375 0.773 39.252 0.633 -50.648 0.633 -50.648 0.773 39.252
25607.333 0.774 39.222 0.632 -50.677 0.632 -50.677 0.774 39.222
25632.292 0.774 39.193 0.632 -50.706 0.632 -50.706 0.774 39.193
25657.25 0.774 39.164 0.632 -50.735 0.632 -50.735 0.774 39.164
25682.208 0.775 39.135 0.631 -50.765 0.631 -50.765 0.775 39.135
25707.167 0.775 39.106 0.631 -50.794 0.631 -50.794 0.775 39.106
25732.125 0.775 39.077 0.63 -50.823 0.63 -50.823 0.775 39.077
25757.083 0.776 39.048 0.63 -50.852 0.63 -50.852 0.776 39.048
25782.042 0.776 39.019 0.63 -50.881 0.63 -50.881 0.776 39.019
25807 0.776 38.99 0.629 -50.91 0.629 -50.91 0.776 38.99
25831.958 0.776 38.961 0.629 -50.939 0.629 -50.939 0.776 38.961
25856.917 0.777 38.932 0.628 -50.968 0.628 -50.968 0.777 38.932
25881.875 0.777 38.904 0.628 -50.997 0.628 -50.997 0.777 38.904
25906.833 0.777 38.875 0.628 -51.026 0.628 -51.026 0.777 38.875
25931.792 0.778 38.846 0.627 -51.055 0.627 -51.055 0.778 38.846
25956.75 0.778 38.817 0.627 -51.083 0.627 -51.083 0.778 38.817
25981.708 0.778 38.789 0.626 -51.112 0.626 -51.112 0.778 38.789
26006.667 0.779 38.76 0.626 -51.141 0.626 -51.141 0.779 38.76
26031.625 0.779 38.732 0.626 -51.169 0.626 -51.169 0.779 38.732
26056.583 0.779 38.703 0.625 -51.198 0.625 -51.198 0.779 38.703
26081.542 0.78 38.675 0.625 -51.227 0.625 -51.227 0.78 38.675
26106.5 0.78 38.646 0.625 -51.255 0.625 -51.255 0.78 38.646
26131.458 0.78 38.618 0.624 -51.284 0.624 -51.284 0.78 38.618
26156.417 0.781 38.589 0.624 -51.312 0.624 -51.312 0.781 38.589
26181.375 0.781 38.561 0.623 -51.341 0.623 -51.341 0.781 38.561
26206.333 0.781 38.533 0.623 -51.369 0.623 -51.369 0.781 38.533
26231.292 0.781 38.504 0.623 -51.397 0.623 -51.397 0.781 38.504
26256.25 0.782 38.476 0.622 -51.426 0.622 -51.426 0.782 38.476
26281.208 0.782 38.448 0.622 -51.454 0.622 -51.454 0.782 38.448
26306.167 0.782 38.42 0.621 -51.482 0.621 -51.482 0.782 38.42
26331.125 0.783 38.392 0.621 -51.511 0.621 -51.511 0.783 38.392
26356.083 0.783 38.364 0.621 -51.539 0.621 -51.539 0.783 38.364
26381.042 0.783 38.335 0.62 -51.567 0.62 -51.567 0.783 38.335
26406 0.784 38.307 0.62 -51.595 0.62 -51.595 0.784 38.307
26430.958 0.784 38.279 0.619 -51.623 0.619 -51.623 0.784 38.279
26455.917 0.784 38.252 0.619 -51.651 0.619 -51.651 0.784 38.252
26480.875 0.785 38.224 0.619 -51.679 0.619 -51.679 0.785 38.224
26505.833 0.785 38.196 0.618 -51.707 0.618 -51.707 0.785 38.196
26530.792 0.785 38.168 0.618 -51.735 0.618 -51.735 0.785 38.168
26555.75 0.785 38.14 0.618 -51.763 0.618 -51.763 0.785 38.14
26580.708 0.786 38.112 0.617 -51.791 0.617 -51.791 0.786 38.112
26605.667 0.786 38.085 0.617 -51.819 0.617 -51.819 0.786 38.085
26630.625 0.786 38.057 0.616 -51.846 0.616 -51.846 0.786 38.057
26655.583 0.787 38.029 0.616 -51.874 0.616 -51.874 0.787 38.029
26680.542 0.787 38.002 0.616 -51.902 0.616 -51.902 0.787 38.002
26705.5 0.787 37.974 0.615 -51.93 0.615 -51.93 0.787 37.974
26730.458 0.788 37.947 0.615 -51.957 0.615 -51.957 0.788 37.947
26755.417 0.788 37.919 0.615 -51.985 0.615 -51.985 0.788 37.919
26780.375 0.788 37.892 0.614 -52.012 0.614 -52.012 0.788 37.892
26805.333 0.788 37.864 0.614 -52.04 0.614 -52.04 0.788 37.864
26830.292 0.789 37.837 0.613 -52.067 0.613 -52.067 0.789 37.837
26855.25 0.789 37.809 0.613 -52.095 0.613 -52.095 0.789 37.809
26880.208 0.789 37.782 0.613 -52.122 0.613 -52.122 0.789 37.782
26905.167 0.79 37.755 0.612 -52.15 0.612 -52.15 0.79 37.755
26930.125 0.79 37.727 0.612 -52.177 0.612 -52.177 0.79 37.727
26955.083 0.79 37.7 0.612 -52.204 0.612 -52.204 0.79 37.7
26980.042 0.79 37.673 0.611 -52.232 0.611 -52.232 0.79 37.673
27005 0.791 37.646 0.611 -52.259 0.611 -52.259 0.791 37.646
27029.958 0.791 37.619 0.61 -52.286 0.61 -52.286 0.791 37.619
27054.917 0.791 37.592 0.61 -52.313 0.61 -52.313 0.791 37.592
27079.875 0.792 37.565 0.61 -52.341 0.61 -52.341 0.792 37.565
27104.833 0.792 37.537 0.609 -52.368 0.609 -52.368 0.792 37.537
27129.792 0.792 37.51 0.609 -52.395 0.609 -52.395 0.792 37.51
27154.75 0.793 37.484 0.609 -52.422 0.609 -52.422 0.793 37.484
27179.708 0.793 37.457 0.608 -52.449 0.608 -52.449 0.793 37.457
27204.667 0.793 37.43 0.608 -52.476 0.608 -52.476 0.793 37.43
27229.625 0.793 37.403 0.607 -52.503 0.607 -52.503 0.793 37.403
27254.583 0.794 37.376 0.607 -52.53 0.607 -52.53 0.794 37.376
27279.542 0.794 37.349 0.607 -52.557 0.607 -52.557 0.794 37.349
27304.5 0.794 37.323 0.606 -52.583 0.606 -52.583 0.794 37.323
27329.458 0.795 37.296 0.606 -52.61 0.606 -52.61 0.795 37.296
27354.417 0.795 37.269 0.606 -52.637 0.606 -52.637 0.795 37.269
27379.375 0.795 37.242 0.605 -52.664 0.605 -52.664 0.795 37.242
27404.333 0.795 37.216 0.605 -52.69 0.605 -52.69 0.795 37.216
27429.292 0.796 37.189 0.604 -52.717 0.604 -52.717 0.796 37.189
27454.25 0.796 37.163 0.604 -52.744 0.604 -52.744 0.796 37.163
27479.208 0.796 37.136 0.604 -52.77 0.604 -52.77 0.796 37.136
27504.167 0.796 37.11 0.603 -52.797 0.603 -52.797 0.796 37.11
27529.125 0.797 37.083 0.603 -52.823 0.603 -52.823 0.797 37.083
27554.083 0.797 37.057 0.603 -52.85 0.603 -52.85 0.797 37.057
27579.042 0.797 37.03 0.602 -52.876 0.602 -52.876 0.797 37.03
27604 0.798 37.004 0.602 -52.903 0.602 -52.903 0.798 37.004
27628.958 0.798 36.978 0.602 -52.929 0.602 -52.929 0.798 36.978
27653.917 0.798 36.952 0.601 -52.956 0.601 -52.956 0.798 36.952
27678.875 0.798 36.925 0.601 -52.982 0.601 -52.982 0.798 36.925
27703.833 0.799 36.899 0.6 -53.008 0.6 -53.008 0.799 36.899
27728.792 0.799 36.873 0.6 -53.035 0.6 -53.035 0.799 36.873
27753.75 0.799 36.847 0.6 -53.061 0.6 -53.061 0.799 36.847
27778.708 0.8 36.821 0.599 -53.087 0.599 -53.087 0.8 36.821
27803.667 0.8 36.795 0.599 -53.113 0.599 -53.113 0.8 36.795
27828.625 0.8 36.769 0.599 -53.139 0.599 -53.139 0.8 36.769
27853.583 0.8 36.743 0.598 -53.165 0.598 -53.165 0.8 36.743
27878.542 0.801 36.717 0.598 -53.191 0.598 -53.191 0.801 36.717
27903.5 0.801 36.691 0.597 -53.217 0.597 -53.217 0.801 36.691
27928.458 0.801 36.665 0.597 -53.243 0.597 -53.243 0.801 36.665
27953.417 0.801 36.639 0.597 -53.269 0.597 -53.269 0.801 36.639
27978.375 0.802 36.613 0.596 -53.295 0.596 -53.295 0.802 36.613
28003.333 0.802 36.587 0.596 -53.321 0.596 -53.321 0.802 36.587
28028.292 0.802 36.561 0.596 -53.347 0.596 -53.347 0.802 36.561
28053.25 0.803 36.536 0.595 -53.373 0.595 -53.373 0.803 36.536
28078.208 0.803 36.51 0.595 -53.399 0.595 -53.399 0.803 36.51
28103.167 0.803 36.484 0.595 -53.425 0.595 -53.425 0.803 36.484
28128.125 0.803 36.459 0.594 -53.45 0.594 -53.45 0.803 36.459
28153.083 0.804 36.433 0.594 -53.476 0.594 -53.476 0.804 36.433
28178.042 0.804 36.407 0.594 -53.502 0.594 -53.502 0.804 36.407
28203 0.804 36.382 0.593 -53.527 0.593 -53.527 0.804 36.382
28227.958 0.804 36.356 0.593 -53.553 0.593 -53.553 0.804 36.356
28252.917 0.805 36.331 0.592 -53.579 0.592 -53.579 0.805 36.331
28277.875 0.805 36.305 0.592 -53.604 0.592 -53.604 0.805 36.305
28302.833 0.805 36.28 0.592 -53.63 0.592 -53.63 0.805 36.28
28327.792 0.805 36.254 0.591 -53.655 0.591 -53.655 0.805 36.254
28352.75 0.806 36.229 0.591 -53.681 0.591 -53.681 0.806 36.229
28377.708 0.806 36.204 0.591 -53.706 0.591 -53.706 0.806 36.204
28402.667 0.806 36.178 0.59 -53.731 0.59 -53.731 0.806 36.178
28427.625 0.807 36.153 0.59 -53.757 0.59 -53.757 0.807 36.153
28452.583 0.807 36.128 0.59 -53.782 0.59 -53.782 0.807 36.128
28477.542 0.807 36.103 0.589 -53.807 0.589 -53.807 0.807 36.103
28502.5 0.807 36.078 0.589 -53.833 0.589 -53.833 0.807 36.078
28527.458 0.808 36.052 0.589 -53.858 0.589 -53.858 0.808 36.052
28552.417 0.808 36.027 0.588 -53.883 0.588 -53.883 0.808 36.027
28577.375 0.808 36.002 0.588 -53.908 0.588 -53.908 0.808 36.002
28602.333 0.808 35.977 0.587 -53.933 0.587 -53.933 0.808 35.977
28627.292 0.809 35.952 0.587 -53.958 0.587 -53.958 0.809 35.952
28652.25 0.809 35.927 0.587 -53.983 0.587 -53.983 0.809 35.927
28677.208 0.809 35.902 0.586 -54.009 0.586 -54.009 0.809 35.902
28702.167 0.809 35.877 0.586 -54.034 0.586 -54.034 0.809 35.877
28727.125 0.81 35.852 0.586 -54.059 0.586 -54.059 0.81 35.852
28752.083 0.81 35.827 0.585 -54.083 0.585 -54.083 0.81 35.827
28777.042 0.81 35.803 0.585 -54.108 0.585 -54.108 0.81 35.803
28802 0.81 35.778 0.585 -54.133 0.585 -54.133 0.81 35.778
28826.958 0.811 35.753 0.584 -54.158 0.584 -54.158 0.811 35.753
28851.917 0.811 35.728 0.584 -54.183 0.584 -54.183 0.811 35.728
28876.875 0.811 35.704 0.584 -54.208 0.584 -54.208 0.811 35.704
28901.833 0.811 35.679 0.583 -54.232 0.583 -54.232 0.811 35.679
28926.792 0.812 35.654 0.583 -54.257 0.583 -54.257 0.812 35.654
28951.75 0.812 35.63 0.583 -54.282 0.583 -54.282 0.812 35.63
28976.708 0.812 35.605 0.582 -54.307 0.582 -54.307 0.812 35.605
29001.667 0.812 35.58 0.582 -54.331 0.582 -54.331 0.812 35.58
29026.625 0.813 35.556 0.581 -54.356 0.581 -54.356 0.813 35.556
29051.583 0.813 35.531 0.581 -54.38 0.581 -54.38 0.813 35.531
29076.542 0.813 35.507 0.581 -54.405 0.581 -54.405 0.813 35.507
29101.5 0.813 35.483 0.58 -54.429 0.58 -54.429 0.813 35.483
29126.458 0.814 35.458 0.58 -54.454 0.58 -54.454 0.814 35.458
29151.417 0.814 35.434 0.58 -54.478 0.58 -54.478 0.814 35.434
29176.375 0.814 35.409 0.579 -54.503 0.579 -54.503 0.814 35.409
29201.333 0.814 35.385 0.579 -54.527 0.579 -54.527 0.814 35.385
29226.292 0.815 35.361 0.579 -54.552 0.579 -54.552 0.815 35.361
29251.25 0.815 35.337 0.578 -54.576 0.578 -54.576 0.815 35.337
29276.208 0.815 35.312 0.578 -54.6 0.578 -54.6 0.815 35.312
29301.167 0.815 35.288 0.578 -54.625 0.578 -54.625 0.815 35.288
29326.125 0.816 35.264 0.577 -54.649 0.577 -54.649 0.816 35.264
29351.083 0.816 35.24 0.577 -54.673 0.577 -54.673 0.816 35.24
29376.042 0.816 35.216 0.577 -54.697 0.577 -54.697 0.816 35.216
29401 0.816 35.192 0.576 -54.721 0.576 -54.721 0.816 35.192
29425.958 0.817 35.168 0.576 -54.745 0.576 -54.745 0.817 35.168
29450.917 0.817 35.144 0.576 -54.77 0.576 -54.77 0.817 35.144
29475.875 0.817 35.12 0.575 -54.794 0.575 -54.794 0.817 35.12
29500.833 0.817 35.096 0.575 -54.818 0.575 -54.818 0.817 35.096
29525.792 0.818 35.072 0.575 -54.842 0.575 -54.842 0.818 35.072
29550.75 0.818 35.048 0.574 -54.866 0.574 -54.866 0.818 35.048
29575.708 0.818 35.024 0.574 -54.89 0.574 -54.89 0.818 35.024
29600.667 0.818 35 0.574 -54.914 0.574 -54.914 0.818 35
29625.625 0.819 34.976 0.573 -54.937 0.573 -54.937 0.819 34.976
29650.583 0.819 34.952 0.573 -54.961 0.573 -54.961 0.819 34.952
29675.542 0.819 34.929 0.573 -54.985 0.573 -54.985 0.819 34.929
29700.5 0.819 34.905 0.572 -55.009 0.572 -55.009 0.819 34.905
29725.458 0.819 34.881 0.572 -55.033 0.572 -55.033 0.819 34.881
29750.417 0.82 34.858 0.572 -55.056 0.572 -55.056 0.82 34.858
29775.375 0.82 34.834 0.571 -55.08 0.571 -55.08 0.82 34.834
29800.333 0.82 34.81 0.571 -55.104 0.571 -55.104 0.82 34.81
29825.292 0.82 34.787 0.571 -55.127 0.571 -55.127 0.82 34.787
29850.25 0.821 34.763 0.57 -55.151 0.57 -55.151 0.821 34.763
29875.208 0.821 34.74 0.57 -55.175 0.57 -55.175 0.821 34.74
29900.167 0.821 34.716 0.57 -55.198 0.57 -55.198 0.821 34.716
29925.125 0.821 34.693 0.569 -55.222 0.569 -55.222 0.821 34.693
29950.083 0.822 34.669 0.569 -55.245 0.569 -55.245 0.822 34.669
29975.042 0.822 34.646 0.569 -55.269 0.569 -55.269 0.822 34.646
30000 0.822 34.623 0.568 -55.292 0.568 -55.292 0.822 34.623
