!	AVX Thin Film Operation 	Date: April 2014		
!	Description: Accu-P® Series, Thin Film  SMD RF Capacitor
!	Part Number: 06031J1R3PBSTR					
!								
# MHZ S MA R 50

50 0.999 -2.339 0.041 87.656 0.041 87.656 0.999 -2.339
74.958 0.998 -3.504 0.061 86.488 0.061 86.488 0.998 -3.504
99.917 0.997 -4.668 0.081 85.322 0.081 85.322 0.997 -4.668
124.875 0.995 -5.827 0.102 84.159 0.102 84.159 0.995 -5.827
149.833 0.993 -6.983 0.122 83.001 0.122 83.001 0.993 -6.983
174.792 0.99 -8.135 0.141 81.847 0.141 81.847 0.99 -8.135
199.75 0.987 -9.28 0.161 80.699 0.161 80.699 0.987 -9.28
224.708 0.983 -10.42 0.181 79.556 0.181 79.556 0.983 -10.42
249.667 0.98 -11.553 0.2 78.421 0.2 78.421 0.98 -11.553
274.625 0.976 -12.678 0.219 77.293 0.219 77.293 0.976 -12.678
299.583 0.971 -13.795 0.238 76.173 0.238 76.173 0.971 -13.795
324.542 0.966 -14.904 0.257 75.062 0.257 75.062 0.966 -14.904
349.5 0.961 -16.003 0.276 73.96 0.276 73.96 0.961 -16.003
374.458 0.956 -17.092 0.294 72.868 0.294 72.868 0.956 -17.092
399.417 0.95 -18.172 0.312 71.786 0.312 71.786 0.95 -18.172
424.375 0.944 -19.24 0.33 70.715 0.33 70.715 0.944 -19.24
449.333 0.938 -20.297 0.347 69.655 0.347 69.655 0.938 -20.297
474.292 0.931 -21.343 0.364 68.607 0.364 68.607 0.931 -21.343
499.25 0.924 -22.376 0.381 67.571 0.381 67.571 0.924 -22.376
524.208 0.917 -23.397 0.397 66.547 0.397 66.547 0.917 -23.397
549.167 0.91 -24.406 0.413 65.535 0.413 65.535 0.91 -24.406
574.125 0.903 -25.402 0.429 64.537 0.429 64.537 0.903 -25.402
599.083 0.895 -26.385 0.444 63.551 0.444 63.551 0.895 -26.385
624.042 0.888 -27.355 0.46 62.578 0.46 62.578 0.888 -27.355
649 0.88 -28.312 0.474 61.619 0.474 61.619 0.88 -28.312
673.958 0.872 -29.255 0.489 60.673 0.489 60.673 0.872 -29.255
698.917 0.864 -30.184 0.503 59.741 0.503 59.741 0.864 -30.184
723.875 0.856 -31.1 0.517 58.822 0.517 58.822 0.856 -31.1
748.833 0.847 -32.002 0.53 57.917 0.53 57.917 0.847 -32.002
773.792 0.839 -32.891 0.543 57.026 0.543 57.026 0.839 -32.891
798.75 0.83 -33.766 0.556 56.148 0.556 56.148 0.83 -33.766
823.708 0.822 -34.627 0.568 55.284 0.568 55.284 0.822 -34.627
848.667 0.813 -35.475 0.58 54.433 0.58 54.433 0.813 -35.475
873.625 0.805 -36.309 0.592 53.596 0.592 53.596 0.805 -36.309
898.583 0.796 -37.13 0.604 52.773 0.604 52.773 0.796 -37.13
923.542 0.788 -37.938 0.615 51.962 0.615 51.962 0.788 -37.938
948.5 0.779 -38.732 0.626 51.165 0.626 51.165 0.779 -38.732
973.458 0.77 -39.513 0.636 50.381 0.636 50.381 0.77 -39.513
998.417 0.762 -40.281 0.647 49.61 0.647 49.61 0.762 -40.281
1023.375 0.753 -41.036 0.657 48.852 0.657 48.852 0.753 -41.036
1048.333 0.744 -41.779 0.666 48.106 0.666 48.106 0.744 -41.779
1073.292 0.736 -42.509 0.676 47.373 0.676 47.373 0.736 -42.509
1098.25 0.727 -43.227 0.685 46.652 0.685 46.652 0.727 -43.227
1123.208 0.719 -43.933 0.694 45.943 0.694 45.943 0.719 -43.933
1148.167 0.71 -44.627 0.702 45.246 0.702 45.246 0.71 -44.627
1173.125 0.702 -45.309 0.711 44.561 0.711 44.561 0.702 -45.309
1198.083 0.693 -45.979 0.719 43.888 0.719 43.888 0.693 -45.979
1223.042 0.685 -46.638 0.727 43.225 0.727 43.225 0.685 -46.638
1248 0.677 -47.286 0.735 42.574 0.735 42.574 0.677 -47.286
1272.958 0.668 -47.923 0.742 41.934 0.742 41.934 0.668 -47.923
1297.917 0.66 -48.549 0.75 41.305 0.75 41.305 0.66 -48.549
1322.875 0.652 -49.165 0.757 40.686 0.757 40.686 0.652 -49.165
1347.833 0.644 -49.77 0.763 40.078 0.763 40.078 0.644 -49.77
1372.792 0.636 -50.365 0.77 39.48 0.77 39.48 0.636 -50.365
1397.75 0.628 -50.95 0.777 38.891 0.777 38.891 0.628 -50.95
1422.708 0.62 -51.525 0.783 38.313 0.783 38.313 0.62 -51.525
1447.667 0.612 -52.091 0.789 37.744 0.789 37.744 0.612 -52.091
1472.625 0.604 -52.647 0.795 37.184 0.795 37.184 0.604 -52.647
1497.583 0.597 -53.194 0.801 36.634 0.801 36.634 0.597 -53.194
1522.542 0.589 -53.732 0.806 36.092 0.806 36.092 0.589 -53.732
1547.5 0.582 -54.261 0.812 35.56 0.812 35.56 0.582 -54.261
1572.458 0.574 -54.781 0.817 35.036 0.817 35.036 0.574 -54.781
1597.417 0.567 -55.294 0.822 34.52 0.822 34.52 0.567 -55.294
1622.375 0.559 -55.797 0.827 34.013 0.827 34.013 0.559 -55.797
1647.333 0.552 -56.293 0.832 33.514 0.832 33.514 0.552 -56.293
1672.292 0.545 -56.781 0.837 33.022 0.837 33.022 0.545 -56.781
1697.25 0.538 -57.261 0.841 32.539 0.841 32.539 0.538 -57.261
1722.208 0.531 -57.733 0.846 32.062 0.846 32.062 0.531 -57.733
1747.167 0.524 -58.198 0.85 31.594 0.85 31.594 0.524 -58.198
1772.125 0.517 -58.656 0.854 31.132 0.854 31.132 0.517 -58.656
1797.083 0.51 -59.106 0.858 30.678 0.858 30.678 0.51 -59.106
1822.042 0.503 -59.55 0.862 30.23 0.862 30.23 0.503 -59.55
1847 0.497 -59.987 0.866 29.789 0.866 29.789 0.497 -59.987
1871.958 0.49 -60.417 0.87 29.355 0.87 29.355 0.49 -60.417
1896.917 0.484 -60.841 0.873 28.927 0.873 28.927 0.484 -60.841
1921.875 0.477 -61.258 0.877 28.506 0.877 28.506 0.477 -61.258
1946.833 0.471 -61.67 0.88 28.09 0.88 28.09 0.471 -61.67
1971.792 0.465 -62.075 0.884 27.681 0.884 27.681 0.465 -62.075
1996.75 0.458 -62.474 0.887 27.278 0.887 27.278 0.458 -62.474
2021.708 0.452 -62.867 0.89 26.88 0.89 26.88 0.452 -62.867
2046.667 0.446 -63.255 0.893 26.488 0.893 26.488 0.446 -63.255
2071.625 0.44 -63.637 0.896 26.102 0.896 26.102 0.44 -63.637
2096.583 0.434 -64.013 0.899 25.721 0.899 25.721 0.434 -64.013
2121.542 0.428 -64.385 0.902 25.345 0.902 25.345 0.428 -64.385
2146.5 0.422 -64.751 0.904 24.974 0.904 24.974 0.422 -64.751
2171.458 0.416 -65.112 0.907 24.609 0.907 24.609 0.416 -65.112
2196.417 0.411 -65.468 0.91 24.248 0.91 24.248 0.411 -65.468
2221.375 0.405 -65.819 0.912 23.892 0.912 23.892 0.405 -65.819
2246.333 0.399 -66.165 0.915 23.541 0.915 23.541 0.399 -66.165
2271.292 0.394 -66.507 0.917 23.194 0.917 23.194 0.394 -66.507
2296.25 0.388 -66.844 0.919 22.852 0.919 22.852 0.388 -66.844
2321.208 0.383 -67.176 0.922 22.515 0.922 22.515 0.383 -67.176
2346.167 0.378 -67.504 0.924 22.182 0.924 22.182 0.378 -67.504
2371.125 0.372 -67.828 0.926 21.853 0.926 21.853 0.372 -67.828
2396.083 0.367 -68.148 0.928 21.528 0.928 21.528 0.367 -68.148
2421.042 0.362 -68.463 0.93 21.207 0.93 21.207 0.362 -68.463
2446 0.357 -68.774 0.932 20.89 0.932 20.89 0.357 -68.774
2470.958 0.351 -69.082 0.934 20.577 0.934 20.577 0.351 -69.082
2495.917 0.346 -69.385 0.936 20.268 0.936 20.268 0.346 -69.385
2520.875 0.341 -69.685 0.938 19.962 0.938 19.962 0.341 -69.685
2545.833 0.336 -69.981 0.94 19.66 0.94 19.66 0.336 -69.981
2570.792 0.332 -70.273 0.941 19.362 0.941 19.362 0.332 -70.273
2595.75 0.327 -70.562 0.943 19.067 0.943 19.067 0.327 -70.562
2620.708 0.322 -70.847 0.945 18.776 0.945 18.776 0.322 -70.847
2645.667 0.317 -71.129 0.946 18.488 0.946 18.488 0.317 -71.129
2670.625 0.312 -71.407 0.948 18.203 0.948 18.203 0.312 -71.407
2695.583 0.308 -71.682 0.949 17.922 0.949 17.922 0.308 -71.682
2720.542 0.303 -71.954 0.951 17.643 0.951 17.643 0.303 -71.954
2745.5 0.299 -72.222 0.952 17.368 0.952 17.368 0.299 -72.222
2770.458 0.294 -72.488 0.954 17.096 0.954 17.096 0.294 -72.488
2795.417 0.289 -72.75 0.955 16.826 0.955 16.826 0.289 -72.75
2820.375 0.285 -73.009 0.956 16.56 0.956 16.56 0.285 -73.009
2845.333 0.281 -73.266 0.958 16.296 0.958 16.296 0.281 -73.266
2870.292 0.276 -73.519 0.959 16.036 0.959 16.036 0.276 -73.519
2895.25 0.272 -73.769 0.96 15.777 0.96 15.777 0.272 -73.769
2920.208 0.268 -74.017 0.961 15.522 0.961 15.522 0.268 -74.017
2945.167 0.263 -74.262 0.963 15.269 0.963 15.269 0.263 -74.262
2970.125 0.259 -74.504 0.964 15.019 0.964 15.019 0.259 -74.504
2995.083 0.255 -74.743 0.965 14.771 0.965 14.771 0.255 -74.743
3020.042 0.251 -74.979 0.966 14.526 0.966 14.526 0.251 -74.979
3045 0.247 -75.213 0.967 14.283 0.967 14.283 0.247 -75.213
3069.958 0.243 -75.445 0.968 14.043 0.968 14.043 0.243 -75.445
3094.917 0.239 -75.674 0.969 13.805 0.969 13.805 0.239 -75.674
3119.875 0.235 -75.9 0.97 13.569 0.97 13.569 0.235 -75.9
3144.833 0.231 -76.124 0.971 13.336 0.971 13.336 0.231 -76.124
3169.792 0.227 -76.345 0.972 13.104 0.972 13.104 0.227 -76.345
3194.75 0.223 -76.564 0.973 12.875 0.973 12.875 0.223 -76.564
3219.708 0.219 -76.781 0.974 12.648 0.974 12.648 0.219 -76.781
3244.667 0.215 -76.995 0.974 12.423 0.974 12.423 0.215 -76.995
3269.625 0.211 -77.207 0.975 12.201 0.975 12.201 0.211 -77.207
3294.583 0.208 -77.417 0.976 11.98 0.976 11.98 0.208 -77.417
3319.542 0.204 -77.624 0.977 11.761 0.977 11.761 0.204 -77.624
3344.5 0.2 -77.829 0.978 11.544 0.978 11.544 0.2 -77.829
3369.458 0.196 -78.032 0.978 11.329 0.978 11.329 0.196 -78.032
3394.417 0.193 -78.232 0.979 11.116 0.979 11.116 0.193 -78.232
3419.375 0.189 -78.431 0.98 10.904 0.98 10.904 0.189 -78.431
3444.333 0.186 -78.627 0.98 10.695 0.98 10.695 0.186 -78.627
3469.292 0.182 -78.821 0.981 10.487 0.981 10.487 0.182 -78.821
3494.25 0.178 -79.013 0.982 10.281 0.982 10.281 0.178 -79.013
3519.208 0.175 -79.203 0.982 10.077 0.982 10.077 0.175 -79.203
3544.167 0.171 -79.39 0.983 9.874 0.983 9.874 0.171 -79.39
3569.125 0.168 -79.575 0.984 9.673 0.984 9.673 0.168 -79.575
3594.083 0.165 -79.759 0.984 9.474 0.984 9.474 0.165 -79.759
3619.042 0.161 -79.94 0.985 9.276 0.985 9.276 0.161 -79.94
3644 0.158 -80.119 0.985 9.08 0.985 9.08 0.158 -80.119
3668.958 0.154 -80.295 0.986 8.885 0.986 8.885 0.154 -80.295
3693.917 0.151 -80.47 0.986 8.692 0.986 8.692 0.151 -80.47
3718.875 0.148 -80.643 0.987 8.501 0.987 8.501 0.148 -80.643
3743.833 0.145 -80.813 0.987 8.31 0.987 8.31 0.145 -80.813
3768.792 0.141 -80.981 0.988 8.122 0.988 8.122 0.141 -80.981
3793.75 0.138 -81.147 0.988 7.934 0.988 7.934 0.138 -81.147
3818.708 0.135 -81.31 0.989 7.749 0.989 7.749 0.135 -81.31
3843.667 0.132 -81.471 0.989 7.564 0.989 7.564 0.132 -81.471
3868.625 0.128 -81.63 0.989 7.381 0.989 7.381 0.128 -81.63
3893.583 0.125 -81.787 0.99 7.199 0.99 7.199 0.125 -81.787
3918.542 0.122 -81.941 0.99 7.019 0.99 7.019 0.122 -81.941
3943.5 0.119 -82.093 0.991 6.839 0.991 6.839 0.119 -82.093
3968.458 0.116 -82.242 0.991 6.661 0.991 6.661 0.116 -82.242
3993.417 0.113 -82.389 0.991 6.485 0.991 6.485 0.113 -82.389
4018.375 0.11 -82.533 0.992 6.309 0.992 6.309 0.11 -82.533
4043.333 0.107 -82.674 0.992 6.135 0.992 6.135 0.107 -82.674
4068.292 0.104 -82.812 0.992 5.962 0.992 5.962 0.104 -82.812
4093.25 0.101 -82.947 0.993 5.79 0.993 5.79 0.101 -82.947
4118.208 0.098 -83.079 0.993 5.619 0.993 5.619 0.098 -83.079
4143.167 0.095 -83.208 0.993 5.45 0.993 5.45 0.095 -83.208
4168.125 0.092 -83.334 0.994 5.281 0.994 5.281 0.092 -83.334
4193.083 0.089 -83.455 0.994 5.114 0.994 5.114 0.089 -83.455
4218.042 0.086 -83.573 0.994 4.947 0.994 4.947 0.086 -83.573
4243 0.083 -83.687 0.994 4.782 0.994 4.782 0.083 -83.687
4267.958 0.081 -83.797 0.995 4.618 0.995 4.618 0.081 -83.797
4292.917 0.078 -83.902 0.995 4.455 0.995 4.455 0.078 -83.902
4317.875 0.075 -84.001 0.995 4.293 0.995 4.293 0.075 -84.001
4342.833 0.072 -84.096 0.995 4.132 0.995 4.132 0.072 -84.096
4367.792 0.069 -84.184 0.995 3.971 0.995 3.971 0.069 -84.184
4392.75 0.067 -84.266 0.996 3.812 0.996 3.812 0.067 -84.266
4417.708 0.064 -84.341 0.996 3.654 0.996 3.654 0.064 -84.341
4442.667 0.061 -84.408 0.996 3.497 0.996 3.497 0.061 -84.408
4467.625 0.058 -84.466 0.996 3.341 0.996 3.341 0.058 -84.466
4492.583 0.056 -84.514 0.996 3.185 0.996 3.185 0.056 -84.514
4517.542 0.053 -84.552 0.996 3.031 0.996 3.031 0.053 -84.552
4542.5 0.05 -84.576 0.997 2.877 0.997 2.877 0.05 -84.576
4567.458 0.048 -84.586 0.997 2.725 0.997 2.725 0.048 -84.586
4592.417 0.045 -84.579 0.997 2.573 0.997 2.573 0.045 -84.579
4617.375 0.042 -84.553 0.997 2.422 0.997 2.422 0.042 -84.553
4642.333 0.04 -84.503 0.997 2.272 0.997 2.272 0.04 -84.503
4667.292 0.037 -84.426 0.997 2.123 0.997 2.123 0.037 -84.426
4692.25 0.035 -84.315 0.997 1.974 0.997 1.974 0.035 -84.315
4717.208 0.032 -84.164 0.997 1.827 0.997 1.827 0.032 -84.164
4742.167 0.029 -83.961 0.997 1.68 0.997 1.68 0.029 -83.961
4767.125 0.027 -83.694 0.997 1.534 0.997 1.534 0.027 -83.694
4792.083 0.024 -83.342 0.997 1.389 0.997 1.389 0.024 -83.342
4817.042 0.022 -82.879 0.998 1.244 0.998 1.244 0.022 -82.879
4842 0.019 -82.262 0.998 1.101 0.998 1.101 0.019 -82.262
4866.958 0.017 -81.425 0.998 0.958 0.998 0.958 0.017 -81.425
4891.917 0.014 -80.258 0.998 0.815 0.998 0.815 0.014 -80.258
4916.875 0.012 -78.567 0.998 0.674 0.998 0.674 0.012 -78.567
4941.833 9.572e-3 -75.962 0.998 0.533 0.998 0.533 9.572e-3 -75.962
4966.792 7.219e-3 -71.569 0.998 0.393 0.998 0.393 7.219e-3 -71.569
4991.75 4.965e-3 -62.988 0.998 0.254 0.998 0.254 4.965e-3 -62.988
5016.708 3.009e-3 -41.911 0.998 0.115 0.998 0.115 3.009e-3 -41.911
5041.667 2.27e-3 9.925 0.998 -0.022 0.998 -0.022 2.27e-3 9.925
5066.625 3.573e-3 51.106 0.998 -0.16 0.998 -0.16 3.573e-3 51.106
5091.583 5.633e-3 66.321 0.998 -0.296 0.998 -0.296 5.633e-3 66.321
5116.542 7.866e-3 73.057 0.998 -0.432 0.998 -0.432 7.866e-3 73.057
5141.5 0.01 76.711 0.998 -0.567 0.998 -0.567 0.01 76.711
5166.458 0.012 78.957 0.998 -0.702 0.998 -0.702 0.012 78.957
5191.417 0.015 80.453 0.998 -0.836 0.998 -0.836 0.015 80.453
5216.375 0.017 81.503 0.998 -0.969 0.998 -0.969 0.017 81.503
5241.333 0.019 82.268 0.998 -1.102 0.998 -1.102 0.019 82.268
5266.292 0.022 82.841 0.998 -1.234 0.998 -1.234 0.022 82.841
5291.25 0.024 83.276 0.997 -1.365 0.997 -1.365 0.024 83.276
5316.208 0.026 83.612 0.997 -1.496 0.997 -1.496 0.026 83.612
5341.167 0.028 83.872 0.997 -1.626 0.997 -1.626 0.028 83.872
5366.125 0.031 84.074 0.997 -1.756 0.997 -1.756 0.031 84.074
5391.083 0.033 84.229 0.997 -1.885 0.997 -1.885 0.033 84.229
5416.042 0.035 84.348 0.997 -2.014 0.997 -2.014 0.035 84.348
5441 0.037 84.437 0.997 -2.142 0.997 -2.142 0.037 84.437
5465.958 0.04 84.502 0.997 -2.269 0.997 -2.269 0.04 84.502
5490.917 0.042 84.546 0.997 -2.396 0.997 -2.396 0.042 84.546
5515.875 0.044 84.573 0.997 -2.522 0.997 -2.522 0.044 84.573
5540.833 0.046 84.585 0.997 -2.648 0.997 -2.648 0.046 84.585
5565.792 0.048 84.584 0.997 -2.773 0.997 -2.773 0.048 84.584
5590.75 0.051 84.574 0.996 -2.898 0.996 -2.898 0.051 84.574
5615.708 0.053 84.553 0.996 -3.022 0.996 -3.022 0.053 84.553
5640.667 0.055 84.525 0.996 -3.145 0.996 -3.145 0.055 84.525
5665.625 0.057 84.49 0.996 -3.269 0.996 -3.269 0.057 84.49
5690.583 0.059 84.448 0.996 -3.391 0.996 -3.391 0.059 84.448
5715.542 0.061 84.401 0.996 -3.513 0.996 -3.513 0.061 84.401
5740.5 0.063 84.35 0.996 -3.635 0.996 -3.635 0.063 84.35
5765.458 0.066 84.294 0.996 -3.756 0.996 -3.756 0.066 84.294
5790.417 0.068 84.234 0.995 -3.877 0.995 -3.877 0.068 84.234
5815.375 0.07 84.171 0.995 -3.997 0.995 -3.997 0.07 84.171
5840.333 0.072 84.104 0.995 -4.116 0.995 -4.116 0.072 84.104
5865.292 0.074 84.035 0.995 -4.236 0.995 -4.236 0.074 84.035
5890.25 0.076 83.964 0.995 -4.354 0.995 -4.354 0.076 83.964
5915.208 0.078 83.89 0.995 -4.473 0.995 -4.473 0.078 83.89
5940.167 0.08 83.815 0.995 -4.59 0.995 -4.59 0.08 83.815
5965.125 0.082 83.737 0.994 -4.708 0.994 -4.708 0.082 83.737
5990.083 0.084 83.658 0.994 -4.825 0.994 -4.825 0.084 83.658
6015.042 0.086 83.578 0.994 -4.941 0.994 -4.941 0.086 83.578
6040 0.088 83.496 0.994 -5.057 0.994 -5.057 0.088 83.496
6064.958 0.09 83.413 0.994 -5.173 0.994 -5.173 0.09 83.413
6089.917 0.092 83.328 0.994 -5.288 0.994 -5.288 0.092 83.328
6114.875 0.094 83.243 0.993 -5.403 0.993 -5.403 0.094 83.243
6139.833 0.096 83.157 0.993 -5.517 0.993 -5.517 0.096 83.157
6164.792 0.098 83.07 0.993 -5.631 0.993 -5.631 0.098 83.07
6189.75 0.1 82.983 0.993 -5.744 0.993 -5.744 0.1 82.983
6214.708 0.102 82.894 0.993 -5.857 0.993 -5.857 0.102 82.894
6239.667 0.104 82.805 0.992 -5.97 0.992 -5.97 0.104 82.805
6264.625 0.106 82.716 0.992 -6.082 0.992 -6.082 0.106 82.716
6289.583 0.108 82.626 0.992 -6.194 0.992 -6.194 0.108 82.626
6314.542 0.11 82.535 0.992 -6.306 0.992 -6.306 0.11 82.535
6339.5 0.112 82.444 0.992 -6.417 0.992 -6.417 0.112 82.444
6364.458 0.114 82.353 0.991 -6.527 0.991 -6.527 0.114 82.353
6389.417 0.116 82.262 0.991 -6.638 0.991 -6.638 0.116 82.262
6414.375 0.118 82.17 0.991 -6.748 0.991 -6.748 0.118 82.17
6439.333 0.119 82.078 0.991 -6.857 0.991 -6.857 0.119 82.078
6464.292 0.121 81.985 0.99 -6.966 0.99 -6.966 0.121 81.985
6489.25 0.123 81.893 0.99 -7.075 0.99 -7.075 0.123 81.893
6514.208 0.125 81.8 0.99 -7.184 0.99 -7.184 0.125 81.8
6539.167 0.127 81.707 0.99 -7.292 0.99 -7.292 0.127 81.707
6564.125 0.129 81.614 0.989 -7.4 0.989 -7.4 0.129 81.614
6589.083 0.131 81.521 0.989 -7.507 0.989 -7.507 0.131 81.521
6614.042 0.133 81.428 0.989 -7.614 0.989 -7.614 0.133 81.428
6639 0.134 81.335 0.989 -7.721 0.989 -7.721 0.134 81.335
6663.958 0.136 81.241 0.988 -7.827 0.988 -7.827 0.136 81.241
6688.917 0.138 81.148 0.988 -7.933 0.988 -7.933 0.138 81.148
6713.875 0.14 81.054 0.988 -8.039 0.988 -8.039 0.14 81.054
6738.833 0.142 80.961 0.988 -8.144 0.988 -8.144 0.142 80.961
6763.792 0.143 80.868 0.987 -8.249 0.987 -8.249 0.143 80.868
6788.75 0.145 80.774 0.987 -8.354 0.987 -8.354 0.145 80.774
6813.708 0.147 80.681 0.987 -8.458 0.987 -8.458 0.147 80.681
6838.667 0.149 80.587 0.987 -8.562 0.987 -8.562 0.149 80.587
6863.625 0.151 80.494 0.986 -8.666 0.986 -8.666 0.151 80.494
6888.583 0.152 80.401 0.986 -8.769 0.986 -8.769 0.152 80.401
6913.542 0.154 80.308 0.986 -8.872 0.986 -8.872 0.154 80.308
6938.5 0.156 80.214 0.986 -8.975 0.986 -8.975 0.156 80.214
6963.458 0.158 80.121 0.985 -9.077 0.985 -9.077 0.158 80.121
6988.417 0.16 80.028 0.985 -9.179 0.985 -9.179 0.16 80.028
7013.375 0.161 79.935 0.985 -9.281 0.985 -9.281 0.161 79.935
7038.333 0.163 79.842 0.984 -9.382 0.984 -9.382 0.163 79.842
7063.292 0.165 79.75 0.984 -9.484 0.984 -9.484 0.165 79.75
7088.25 0.167 79.657 0.984 -9.585 0.984 -9.585 0.167 79.657
7113.208 0.168 79.564 0.984 -9.685 0.984 -9.685 0.168 79.564
7138.167 0.17 79.472 0.983 -9.785 0.983 -9.785 0.17 79.472
7163.125 0.172 79.38 0.983 -9.885 0.983 -9.885 0.172 79.38
7188.083 0.173 79.287 0.983 -9.985 0.983 -9.985 0.173 79.287
7213.042 0.175 79.195 0.982 -10.084 0.982 -10.084 0.175 79.195
7238 0.177 79.103 0.982 -10.184 0.982 -10.184 0.177 79.103
7262.958 0.179 79.012 0.982 -10.282 0.982 -10.282 0.179 79.012
7287.917 0.18 78.92 0.981 -10.381 0.981 -10.381 0.18 78.92
7312.875 0.182 78.828 0.981 -10.479 0.981 -10.479 0.182 78.828
7337.833 0.184 78.737 0.981 -10.577 0.981 -10.577 0.184 78.737
7362.792 0.185 78.646 0.98 -10.675 0.98 -10.675 0.185 78.646
7387.75 0.187 78.554 0.98 -10.772 0.98 -10.772 0.187 78.554
7412.708 0.189 78.463 0.98 -10.87 0.98 -10.87 0.189 78.463
7437.667 0.19 78.372 0.98 -10.967 0.98 -10.967 0.19 78.372
7462.625 0.192 78.282 0.979 -11.063 0.979 -11.063 0.192 78.282
7487.583 0.194 78.191 0.979 -11.16 0.979 -11.16 0.194 78.191
7512.542 0.195 78.101 0.979 -11.256 0.979 -11.256 0.195 78.101
7537.5 0.197 78.01 0.978 -11.352 0.978 -11.352 0.197 78.01
7562.458 0.198 77.92 0.978 -11.447 0.978 -11.447 0.198 77.92
7587.417 0.2 77.83 0.978 -11.542 0.978 -11.542 0.2 77.83
7612.375 0.202 77.741 0.977 -11.638 0.977 -11.638 0.202 77.741
7637.333 0.203 77.651 0.977 -11.732 0.977 -11.732 0.203 77.651
7662.292 0.205 77.561 0.977 -11.827 0.977 -11.827 0.205 77.561
7687.25 0.207 77.472 0.976 -11.921 0.976 -11.921 0.207 77.472
7712.208 0.208 77.383 0.976 -12.015 0.976 -12.015 0.208 77.383
7737.167 0.21 77.294 0.976 -12.109 0.976 -12.109 0.21 77.294
7762.125 0.211 77.205 0.975 -12.203 0.975 -12.203 0.211 77.205
7787.083 0.213 77.116 0.975 -12.296 0.975 -12.296 0.213 77.116
7812.042 0.215 77.028 0.975 -12.389 0.975 -12.389 0.215 77.028
7837 0.216 76.939 0.974 -12.482 0.974 -12.482 0.216 76.939
7861.958 0.218 76.851 0.974 -12.575 0.974 -12.575 0.218 76.851
7886.917 0.219 76.763 0.973 -12.667 0.973 -12.667 0.219 76.763
7911.875 0.221 76.675 0.973 -12.759 0.973 -12.759 0.221 76.675
7936.833 0.222 76.588 0.973 -12.851 0.973 -12.851 0.222 76.588
7961.792 0.224 76.5 0.972 -12.943 0.972 -12.943 0.224 76.5
7986.75 0.226 76.413 0.972 -13.034 0.972 -13.034 0.226 76.413
8011.708 0.227 76.325 0.972 -13.125 0.972 -13.125 0.227 76.325
8036.667 0.229 76.238 0.971 -13.216 0.971 -13.216 0.229 76.238
8061.625 0.23 76.151 0.971 -13.307 0.971 -13.307 0.23 76.151
8086.583 0.232 76.065 0.971 -13.398 0.971 -13.398 0.232 76.065
8111.542 0.233 75.978 0.97 -13.488 0.97 -13.488 0.233 75.978
8136.5 0.235 75.892 0.97 -13.578 0.97 -13.578 0.235 75.892
8161.458 0.236 75.805 0.97 -13.668 0.97 -13.668 0.236 75.805
8186.417 0.238 75.719 0.969 -13.757 0.969 -13.757 0.238 75.719
8211.375 0.239 75.633 0.969 -13.847 0.969 -13.847 0.239 75.633
8236.333 0.241 75.548 0.968 -13.936 0.968 -13.936 0.241 75.548
8261.292 0.242 75.462 0.968 -14.025 0.968 -14.025 0.242 75.462
8286.25 0.244 75.377 0.968 -14.114 0.968 -14.114 0.244 75.377
8311.208 0.245 75.291 0.967 -14.202 0.967 -14.202 0.245 75.291
8336.167 0.247 75.206 0.967 -14.291 0.967 -14.291 0.247 75.206
8361.125 0.248 75.121 0.967 -14.379 0.967 -14.379 0.248 75.121
8386.083 0.25 75.037 0.966 -14.467 0.966 -14.467 0.25 75.037
8411.042 0.251 74.952 0.966 -14.555 0.966 -14.555 0.251 74.952
8436 0.253 74.868 0.965 -14.642 0.965 -14.642 0.253 74.868
8460.958 0.254 74.783 0.965 -14.729 0.965 -14.729 0.254 74.783
8485.917 0.256 74.699 0.965 -14.816 0.965 -14.816 0.256 74.699
8510.875 0.257 74.615 0.964 -14.903 0.964 -14.903 0.257 74.615
8535.833 0.259 74.532 0.964 -14.99 0.964 -14.99 0.259 74.532
8560.792 0.26 74.448 0.963 -15.077 0.963 -15.077 0.26 74.448
8585.75 0.262 74.364 0.963 -15.163 0.963 -15.163 0.262 74.364
8610.708 0.263 74.281 0.963 -15.249 0.963 -15.249 0.263 74.281
8635.667 0.264 74.198 0.962 -15.335 0.962 -15.335 0.264 74.198
8660.625 0.266 74.115 0.962 -15.421 0.962 -15.421 0.266 74.115
8685.583 0.267 74.032 0.961 -15.506 0.961 -15.506 0.267 74.032
8710.542 0.269 73.95 0.961 -15.591 0.961 -15.591 0.269 73.95
8735.5 0.27 73.867 0.961 -15.677 0.961 -15.677 0.27 73.867
8760.458 0.272 73.785 0.96 -15.761 0.96 -15.761 0.272 73.785
8785.417 0.273 73.703 0.96 -15.846 0.96 -15.846 0.273 73.703
8810.375 0.274 73.62 0.959 -15.931 0.959 -15.931 0.274 73.62
8835.333 0.276 73.539 0.959 -16.015 0.959 -16.015 0.276 73.539
8860.292 0.277 73.457 0.959 -16.099 0.959 -16.099 0.277 73.457
8885.25 0.279 73.375 0.958 -16.183 0.958 -16.183 0.279 73.375
8910.208 0.28 73.294 0.958 -16.267 0.958 -16.267 0.28 73.294
8935.167 0.282 73.213 0.957 -16.351 0.957 -16.351 0.282 73.213
8960.125 0.283 73.132 0.957 -16.434 0.957 -16.434 0.283 73.132
8985.083 0.284 73.051 0.957 -16.517 0.957 -16.517 0.284 73.051
9010.042 0.286 72.97 0.956 -16.6 0.956 -16.6 0.286 72.97
9035 0.287 72.889 0.956 -16.683 0.956 -16.683 0.287 72.889
9059.958 0.288 72.809 0.955 -16.766 0.955 -16.766 0.288 72.809
9084.917 0.29 72.728 0.955 -16.849 0.955 -16.849 0.29 72.728
9109.875 0.291 72.648 0.955 -16.931 0.955 -16.931 0.291 72.648
9134.833 0.293 72.568 0.954 -17.013 0.954 -17.013 0.293 72.568
9159.792 0.294 72.488 0.954 -17.095 0.954 -17.095 0.294 72.488
9184.75 0.295 72.409 0.953 -17.177 0.953 -17.177 0.295 72.409
9209.708 0.297 72.329 0.953 -17.259 0.953 -17.259 0.297 72.329
9234.667 0.298 72.25 0.952 -17.34 0.952 -17.34 0.298 72.25
9259.625 0.299 72.17 0.952 -17.421 0.952 -17.421 0.299 72.17
9284.583 0.301 72.091 0.952 -17.502 0.952 -17.502 0.301 72.091
9309.542 0.302 72.012 0.951 -17.583 0.951 -17.583 0.302 72.012
9334.5 0.303 71.934 0.951 -17.664 0.951 -17.664 0.303 71.934
9359.458 0.305 71.855 0.95 -17.745 0.95 -17.745 0.305 71.855
9384.417 0.306 71.776 0.95 -17.825 0.95 -17.825 0.306 71.776
9409.375 0.307 71.698 0.949 -17.906 0.949 -17.906 0.307 71.698
9434.333 0.309 71.62 0.949 -17.986 0.949 -17.986 0.309 71.62
9459.292 0.31 71.542 0.949 -18.066 0.949 -18.066 0.31 71.542
9484.25 0.311 71.464 0.948 -18.145 0.948 -18.145 0.311 71.464
9509.208 0.313 71.386 0.948 -18.225 0.948 -18.225 0.313 71.386
9534.167 0.314 71.308 0.947 -18.304 0.947 -18.304 0.314 71.308
9559.125 0.315 71.231 0.947 -18.384 0.947 -18.384 0.315 71.231
9584.083 0.317 71.154 0.946 -18.463 0.946 -18.463 0.317 71.154
9609.042 0.318 71.076 0.946 -18.542 0.946 -18.542 0.318 71.076
9634 0.319 70.999 0.946 -18.621 0.946 -18.621 0.319 70.999
9658.958 0.321 70.922 0.945 -18.699 0.945 -18.699 0.321 70.922
9683.917 0.322 70.846 0.945 -18.778 0.945 -18.778 0.322 70.846
9708.875 0.323 70.769 0.944 -18.856 0.944 -18.856 0.323 70.769
9733.833 0.324 70.692 0.944 -18.934 0.944 -18.934 0.324 70.692
9758.792 0.326 70.616 0.943 -19.012 0.943 -19.012 0.326 70.616
9783.75 0.327 70.54 0.943 -19.09 0.943 -19.09 0.327 70.54
9808.708 0.328 70.464 0.942 -19.168 0.942 -19.168 0.328 70.464
9833.667 0.33 70.388 0.942 -19.245 0.942 -19.245 0.33 70.388
9858.625 0.331 70.312 0.942 -19.323 0.942 -19.323 0.331 70.312
9883.583 0.332 70.236 0.941 -19.4 0.941 -19.4 0.332 70.236
9908.542 0.333 70.161 0.941 -19.477 0.941 -19.477 0.333 70.161
9933.5 0.335 70.086 0.94 -19.554 0.94 -19.554 0.335 70.086
9958.458 0.336 70.01 0.94 -19.631 0.94 -19.631 0.336 70.01
9983.417 0.337 69.935 0.939 -19.707 0.939 -19.707 0.337 69.935
10008.375 0.338 69.86 0.939 -19.784 0.939 -19.784 0.338 69.86
10033.333 0.34 69.785 0.938 -19.86 0.938 -19.86 0.34 69.785
10058.292 0.341 69.711 0.938 -19.936 0.938 -19.936 0.341 69.711
10083.25 0.342 69.636 0.938 -20.012 0.938 -20.012 0.342 69.636
10108.208 0.343 69.562 0.937 -20.088 0.937 -20.088 0.343 69.562
10133.167 0.345 69.487 0.937 -20.164 0.937 -20.164 0.345 69.487
10158.125 0.346 69.413 0.936 -20.239 0.936 -20.239 0.346 69.413
10183.083 0.347 69.339 0.936 -20.315 0.936 -20.315 0.347 69.339
10208.042 0.348 69.265 0.935 -20.39 0.935 -20.39 0.348 69.265
10233 0.35 69.192 0.935 -20.465 0.935 -20.465 0.35 69.192
10257.958 0.351 69.118 0.934 -20.54 0.934 -20.54 0.351 69.118
10282.917 0.352 69.045 0.934 -20.615 0.934 -20.615 0.352 69.045
10307.875 0.353 68.971 0.933 -20.69 0.933 -20.69 0.353 68.971
10332.833 0.355 68.898 0.933 -20.764 0.933 -20.764 0.355 68.898
10357.792 0.356 68.825 0.932 -20.839 0.932 -20.839 0.356 68.825
10382.75 0.357 68.752 0.932 -20.913 0.932 -20.913 0.357 68.752
10407.708 0.358 68.679 0.932 -20.987 0.932 -20.987 0.358 68.679
10432.667 0.359 68.606 0.931 -21.061 0.931 -21.061 0.359 68.606
10457.625 0.361 68.534 0.931 -21.135 0.931 -21.135 0.361 68.534
10482.583 0.362 68.461 0.93 -21.209 0.93 -21.209 0.362 68.461
10507.542 0.363 68.389 0.93 -21.282 0.93 -21.282 0.363 68.389
10532.5 0.364 68.317 0.929 -21.356 0.929 -21.356 0.364 68.317
10557.458 0.365 68.245 0.929 -21.429 0.929 -21.429 0.365 68.245
10582.417 0.367 68.173 0.928 -21.502 0.928 -21.502 0.367 68.173
10607.375 0.368 68.101 0.928 -21.575 0.928 -21.575 0.368 68.101
10632.333 0.369 68.029 0.927 -21.648 0.927 -21.648 0.369 68.029
10657.292 0.37 67.958 0.927 -21.721 0.927 -21.721 0.37 67.958
10682.25 0.371 67.886 0.926 -21.793 0.926 -21.793 0.371 67.886
10707.208 0.372 67.815 0.926 -21.866 0.926 -21.866 0.372 67.815
10732.167 0.374 67.744 0.926 -21.938 0.926 -21.938 0.374 67.744
10757.125 0.375 67.673 0.925 -22.01 0.925 -22.01 0.375 67.673
10782.083 0.376 67.602 0.925 -22.082 0.925 -22.082 0.376 67.602
10807.042 0.377 67.531 0.924 -22.154 0.924 -22.154 0.377 67.531
10832 0.378 67.46 0.924 -22.226 0.924 -22.226 0.378 67.46
10856.958 0.379 67.39 0.923 -22.298 0.923 -22.298 0.379 67.39
10881.917 0.381 67.319 0.923 -22.369 0.923 -22.369 0.381 67.319
10906.875 0.382 67.249 0.922 -22.441 0.922 -22.441 0.382 67.249
10931.833 0.383 67.179 0.922 -22.512 0.922 -22.512 0.383 67.179
10956.792 0.384 67.109 0.921 -22.583 0.921 -22.583 0.384 67.109
10981.75 0.385 67.039 0.921 -22.654 0.921 -22.654 0.385 67.039
11006.708 0.386 66.969 0.92 -22.725 0.92 -22.725 0.386 66.969
11031.667 0.387 66.899 0.92 -22.796 0.92 -22.796 0.387 66.899
11056.625 0.389 66.83 0.919 -22.867 0.919 -22.867 0.389 66.83
11081.583 0.39 66.76 0.919 -22.937 0.919 -22.937 0.39 66.76
11106.542 0.391 66.691 0.918 -23.007 0.918 -23.007 0.391 66.691
11131.5 0.392 66.622 0.918 -23.078 0.918 -23.078 0.392 66.622
11156.458 0.393 66.553 0.917 -23.148 0.917 -23.148 0.393 66.553
11181.417 0.394 66.484 0.917 -23.218 0.917 -23.218 0.394 66.484
11206.375 0.395 66.415 0.916 -23.288 0.916 -23.288 0.395 66.415
11231.333 0.396 66.346 0.916 -23.357 0.916 -23.357 0.396 66.346
11256.292 0.398 66.277 0.916 -23.427 0.916 -23.427 0.398 66.277
11281.25 0.399 66.209 0.915 -23.497 0.915 -23.497 0.399 66.209
11306.208 0.4 66.14 0.915 -23.566 0.915 -23.566 0.4 66.14
11331.167 0.401 66.072 0.914 -23.635 0.914 -23.635 0.401 66.072
11356.125 0.402 66.004 0.914 -23.704 0.914 -23.704 0.402 66.004
11381.083 0.403 65.936 0.913 -23.773 0.913 -23.773 0.403 65.936
11406.042 0.404 65.868 0.913 -23.842 0.913 -23.842 0.404 65.868
11431 0.405 65.8 0.912 -23.911 0.912 -23.911 0.405 65.8
11455.958 0.406 65.732 0.912 -23.98 0.912 -23.98 0.406 65.732
11480.917 0.408 65.665 0.911 -24.048 0.911 -24.048 0.408 65.665
11505.875 0.409 65.597 0.911 -24.116 0.911 -24.116 0.409 65.597
11530.833 0.41 65.53 0.91 -24.185 0.91 -24.185 0.41 65.53
11555.792 0.411 65.463 0.91 -24.253 0.91 -24.253 0.411 65.463
11580.75 0.412 65.396 0.909 -24.321 0.909 -24.321 0.412 65.396
11605.708 0.413 65.329 0.909 -24.389 0.909 -24.389 0.413 65.329
11630.667 0.414 65.262 0.908 -24.457 0.908 -24.457 0.414 65.262
11655.625 0.415 65.195 0.908 -24.524 0.908 -24.524 0.415 65.195
11680.583 0.416 65.128 0.907 -24.592 0.907 -24.592 0.416 65.128
11705.542 0.417 65.062 0.907 -24.659 0.907 -24.659 0.417 65.062
11730.5 0.418 64.995 0.906 -24.727 0.906 -24.727 0.418 64.995
11755.458 0.419 64.929 0.906 -24.794 0.906 -24.794 0.419 64.929
11780.417 0.42 64.863 0.905 -24.861 0.905 -24.861 0.42 64.863
11805.375 0.421 64.797 0.905 -24.928 0.905 -24.928 0.421 64.797
11830.333 0.423 64.73 0.904 -24.995 0.904 -24.995 0.423 64.73
11855.292 0.424 64.665 0.904 -25.061 0.904 -25.061 0.424 64.665
11880.25 0.425 64.599 0.903 -25.128 0.903 -25.128 0.425 64.599
11905.208 0.426 64.533 0.903 -25.195 0.903 -25.195 0.426 64.533
11930.167 0.427 64.468 0.902 -25.261 0.902 -25.261 0.427 64.468
11955.125 0.428 64.402 0.902 -25.327 0.902 -25.327 0.428 64.402
11980.083 0.429 64.337 0.901 -25.393 0.901 -25.393 0.429 64.337
12005.042 0.43 64.271 0.901 -25.459 0.901 -25.459 0.43 64.271
12030 0.431 64.206 0.9 -25.525 0.9 -25.525 0.431 64.206
12054.958 0.432 64.141 0.9 -25.591 0.9 -25.591 0.432 64.141
12079.917 0.433 64.076 0.899 -25.657 0.899 -25.657 0.433 64.076
12104.875 0.434 64.012 0.899 -25.723 0.899 -25.723 0.434 64.012
12129.833 0.435 63.947 0.898 -25.788 0.898 -25.788 0.435 63.947
12154.792 0.436 63.882 0.898 -25.853 0.898 -25.853 0.436 63.882
12179.75 0.437 63.818 0.897 -25.919 0.897 -25.919 0.437 63.818
12204.708 0.438 63.753 0.897 -25.984 0.897 -25.984 0.438 63.753
12229.667 0.439 63.689 0.896 -26.049 0.896 -26.049 0.439 63.689
12254.625 0.44 63.625 0.896 -26.114 0.896 -26.114 0.44 63.625
12279.583 0.441 63.561 0.895 -26.179 0.895 -26.179 0.441 63.561
12304.542 0.442 63.497 0.895 -26.243 0.895 -26.243 0.442 63.497
12329.5 0.443 63.433 0.894 -26.308 0.894 -26.308 0.443 63.433
12354.458 0.444 63.369 0.894 -26.372 0.894 -26.372 0.444 63.369
12379.417 0.445 63.306 0.893 -26.437 0.893 -26.437 0.445 63.306
12404.375 0.446 63.242 0.893 -26.501 0.893 -26.501 0.446 63.242
12429.333 0.447 63.179 0.892 -26.565 0.892 -26.565 0.447 63.179
12454.292 0.448 63.115 0.892 -26.629 0.892 -26.629 0.448 63.115
12479.25 0.449 63.052 0.891 -26.693 0.891 -26.693 0.449 63.052
12504.208 0.45 62.989 0.891 -26.757 0.891 -26.757 0.45 62.989
12529.167 0.451 62.926 0.89 -26.821 0.89 -26.821 0.451 62.926
12554.125 0.452 62.863 0.89 -26.884 0.89 -26.884 0.452 62.863
12579.083 0.453 62.8 0.889 -26.948 0.889 -26.948 0.453 62.8
12604.042 0.454 62.737 0.889 -27.011 0.889 -27.011 0.454 62.737
12629 0.455 62.675 0.888 -27.075 0.888 -27.075 0.455 62.675
12653.958 0.456 62.612 0.888 -27.138 0.888 -27.138 0.456 62.612
12678.917 0.457 62.55 0.887 -27.201 0.887 -27.201 0.457 62.55
12703.875 0.458 62.487 0.887 -27.264 0.887 -27.264 0.458 62.487
12728.833 0.459 62.425 0.886 -27.327 0.886 -27.327 0.459 62.425
12753.792 0.46 62.363 0.886 -27.39 0.886 -27.39 0.46 62.363
12778.75 0.461 62.301 0.885 -27.452 0.885 -27.452 0.461 62.301
12803.708 0.462 62.239 0.885 -27.515 0.885 -27.515 0.462 62.239
12828.667 0.463 62.177 0.884 -27.577 0.884 -27.577 0.463 62.177
12853.625 0.464 62.116 0.884 -27.64 0.884 -27.64 0.464 62.116
12878.583 0.465 62.054 0.883 -27.702 0.883 -27.702 0.465 62.054
12903.542 0.466 61.992 0.883 -27.764 0.883 -27.764 0.466 61.992
12928.5 0.467 61.931 0.882 -27.826 0.882 -27.826 0.467 61.931
12953.458 0.468 61.87 0.882 -27.888 0.882 -27.888 0.468 61.87
12978.417 0.469 61.808 0.881 -27.95 0.881 -27.95 0.469 61.808
13003.375 0.47 61.747 0.881 -28.012 0.881 -28.012 0.47 61.747
13028.333 0.471 61.686 0.88 -28.073 0.88 -28.073 0.471 61.686
13053.292 0.472 61.625 0.88 -28.135 0.88 -28.135 0.472 61.625
13078.25 0.473 61.565 0.879 -28.196 0.879 -28.196 0.473 61.565
13103.208 0.473 61.504 0.879 -28.258 0.879 -28.258 0.473 61.504
13128.167 0.474 61.443 0.878 -28.319 0.878 -28.319 0.474 61.443
13153.125 0.475 61.383 0.878 -28.38 0.878 -28.38 0.475 61.383
13178.083 0.476 61.322 0.877 -28.441 0.877 -28.441 0.476 61.322
13203.042 0.477 61.262 0.877 -28.502 0.877 -28.502 0.477 61.262
13228 0.478 61.202 0.876 -28.563 0.876 -28.563 0.478 61.202
13252.958 0.479 61.141 0.876 -28.624 0.876 -28.624 0.479 61.141
13277.917 0.48 61.081 0.875 -28.684 0.875 -28.684 0.48 61.081
13302.875 0.481 61.021 0.875 -28.745 0.875 -28.745 0.481 61.021
13327.833 0.482 60.962 0.874 -28.805 0.874 -28.805 0.482 60.962
13352.792 0.483 60.902 0.874 -28.866 0.874 -28.866 0.483 60.902
13377.75 0.484 60.842 0.873 -28.926 0.873 -28.926 0.484 60.842
13402.708 0.485 60.783 0.873 -28.986 0.873 -28.986 0.485 60.783
13427.667 0.486 60.723 0.872 -29.046 0.872 -29.046 0.486 60.723
13452.625 0.486 60.664 0.872 -29.106 0.872 -29.106 0.486 60.664
13477.583 0.487 60.604 0.871 -29.166 0.871 -29.166 0.487 60.604
13502.542 0.488 60.545 0.871 -29.226 0.871 -29.226 0.488 60.545
13527.5 0.489 60.486 0.87 -29.286 0.87 -29.286 0.489 60.486
13552.458 0.49 60.427 0.87 -29.345 0.87 -29.345 0.49 60.427
13577.417 0.491 60.368 0.869 -29.405 0.869 -29.405 0.491 60.368
13602.375 0.492 60.309 0.869 -29.464 0.869 -29.464 0.492 60.309
13627.333 0.493 60.25 0.868 -29.523 0.868 -29.523 0.493 60.25
13652.292 0.494 60.192 0.868 -29.582 0.868 -29.582 0.494 60.192
13677.25 0.495 60.133 0.867 -29.642 0.867 -29.642 0.495 60.133
13702.208 0.495 60.075 0.867 -29.701 0.867 -29.701 0.495 60.075
13727.167 0.496 60.016 0.866 -29.76 0.866 -29.76 0.496 60.016
13752.125 0.497 59.958 0.866 -29.818 0.866 -29.818 0.497 59.958
13777.083 0.498 59.9 0.865 -29.877 0.865 -29.877 0.498 59.9
13802.042 0.499 59.842 0.865 -29.936 0.865 -29.936 0.499 59.842
13827 0.5 59.784 0.864 -29.994 0.864 -29.994 0.5 59.784
13851.958 0.501 59.726 0.864 -30.053 0.864 -30.053 0.501 59.726
13876.917 0.502 59.668 0.863 -30.111 0.863 -30.111 0.502 59.668
13901.875 0.503 59.61 0.863 -30.169 0.863 -30.169 0.503 59.61
13926.833 0.503 59.553 0.862 -30.227 0.862 -30.227 0.503 59.553
13951.792 0.504 59.495 0.862 -30.285 0.862 -30.285 0.504 59.495
13976.75 0.505 59.438 0.861 -30.343 0.861 -30.343 0.505 59.438
14001.708 0.506 59.38 0.861 -30.401 0.861 -30.401 0.506 59.38
14026.667 0.507 59.323 0.86 -30.459 0.86 -30.459 0.507 59.323
14051.625 0.508 59.266 0.86 -30.517 0.86 -30.517 0.508 59.266
14076.583 0.509 59.209 0.859 -30.574 0.859 -30.574 0.509 59.209
14101.542 0.51 59.152 0.859 -30.632 0.859 -30.632 0.51 59.152
14126.5 0.51 59.095 0.858 -30.689 0.858 -30.689 0.51 59.095
14151.458 0.511 59.038 0.858 -30.747 0.858 -30.747 0.511 59.038
14176.417 0.512 58.981 0.857 -30.804 0.857 -30.804 0.512 58.981
14201.375 0.513 58.925 0.856 -30.861 0.856 -30.861 0.513 58.925
14226.333 0.514 58.868 0.856 -30.918 0.856 -30.918 0.514 58.868
14251.292 0.515 58.812 0.855 -30.975 0.855 -30.975 0.515 58.812
14276.25 0.516 58.755 0.855 -31.032 0.855 -31.032 0.516 58.755
14301.208 0.516 58.699 0.854 -31.089 0.854 -31.089 0.516 58.699
14326.167 0.517 58.643 0.854 -31.145 0.854 -31.145 0.517 58.643
14351.125 0.518 58.586 0.853 -31.202 0.853 -31.202 0.518 58.586
14376.083 0.519 58.53 0.853 -31.259 0.853 -31.259 0.519 58.53
14401.042 0.52 58.474 0.852 -31.315 0.852 -31.315 0.52 58.474
14426 0.521 58.419 0.852 -31.371 0.852 -31.371 0.521 58.419
14450.958 0.521 58.363 0.851 -31.428 0.851 -31.428 0.521 58.363
14475.917 0.522 58.307 0.851 -31.484 0.851 -31.484 0.522 58.307
14500.875 0.523 58.251 0.85 -31.54 0.85 -31.54 0.523 58.251
14525.833 0.524 58.196 0.85 -31.596 0.85 -31.596 0.524 58.196
14550.792 0.525 58.14 0.849 -31.652 0.849 -31.652 0.525 58.14
14575.75 0.526 58.085 0.849 -31.708 0.849 -31.708 0.526 58.085
14600.708 0.526 58.03 0.848 -31.763 0.848 -31.763 0.526 58.03
14625.667 0.527 57.975 0.848 -31.819 0.848 -31.819 0.527 57.975
14650.625 0.528 57.92 0.847 -31.874 0.847 -31.874 0.528 57.92
14675.583 0.529 57.865 0.847 -31.93 0.847 -31.93 0.529 57.865
14700.542 0.53 57.81 0.846 -31.985 0.846 -31.985 0.53 57.81
14725.5 0.531 57.755 0.846 -32.041 0.846 -32.041 0.531 57.755
14750.458 0.531 57.7 0.845 -32.096 0.845 -32.096 0.531 57.7
14775.417 0.532 57.645 0.845 -32.151 0.845 -32.151 0.532 57.645
14800.375 0.533 57.591 0.844 -32.206 0.844 -32.206 0.533 57.591
14825.333 0.534 57.536 0.844 -32.261 0.844 -32.261 0.534 57.536
14850.292 0.535 57.482 0.843 -32.316 0.843 -32.316 0.535 57.482
14875.25 0.535 57.427 0.843 -32.371 0.843 -32.371 0.535 57.427
14900.208 0.536 57.373 0.842 -32.425 0.842 -32.425 0.536 57.373
14925.167 0.537 57.319 0.842 -32.48 0.842 -32.48 0.537 57.319
14950.125 0.538 57.265 0.841 -32.534 0.841 -32.534 0.538 57.265
14975.083 0.539 57.211 0.841 -32.589 0.841 -32.589 0.539 57.211
15000.042 0.539 57.157 0.84 -32.643 0.84 -32.643 0.539 57.157
15025 0.54 57.103 0.84 -32.697 0.84 -32.697 0.54 57.103
15049.958 0.541 57.049 0.839 -32.752 0.839 -32.752 0.541 57.049
15074.917 0.542 56.996 0.839 -32.806 0.839 -32.806 0.542 56.996
15099.875 0.543 56.942 0.838 -32.86 0.838 -32.86 0.543 56.942
15124.833 0.543 56.888 0.838 -32.914 0.838 -32.914 0.543 56.888
15149.792 0.544 56.835 0.837 -32.967 0.837 -32.967 0.544 56.835
15174.75 0.545 56.782 0.837 -33.021 0.837 -33.021 0.545 56.782
15199.708 0.546 56.728 0.836 -33.075 0.836 -33.075 0.546 56.728
15224.667 0.547 56.675 0.836 -33.129 0.836 -33.129 0.547 56.675
15249.625 0.547 56.622 0.835 -33.182 0.835 -33.182 0.547 56.622
15274.583 0.548 56.569 0.835 -33.235 0.835 -33.235 0.548 56.569
15299.542 0.549 56.516 0.834 -33.289 0.834 -33.289 0.549 56.516
15324.5 0.55 56.463 0.834 -33.342 0.834 -33.342 0.55 56.463
15349.458 0.55 56.41 0.833 -33.395 0.833 -33.395 0.55 56.41
15374.417 0.551 56.358 0.833 -33.448 0.833 -33.448 0.551 56.358
15399.375 0.552 56.305 0.832 -33.501 0.832 -33.501 0.552 56.305
15424.333 0.553 56.252 0.831 -33.554 0.831 -33.554 0.553 56.252
15449.292 0.553 56.2 0.831 -33.607 0.831 -33.607 0.553 56.2
15474.25 0.554 56.148 0.83 -33.66 0.83 -33.66 0.554 56.148
15499.208 0.555 56.095 0.83 -33.713 0.83 -33.713 0.555 56.095
15524.167 0.556 56.043 0.829 -33.765 0.829 -33.765 0.556 56.043
15549.125 0.557 55.991 0.829 -33.818 0.829 -33.818 0.557 55.991
15574.083 0.557 55.939 0.828 -33.87 0.828 -33.87 0.557 55.939
15599.042 0.558 55.887 0.828 -33.923 0.828 -33.923 0.558 55.887
15624 0.559 55.835 0.827 -33.975 0.827 -33.975 0.559 55.835
15648.958 0.56 55.783 0.827 -34.027 0.827 -34.027 0.56 55.783
15673.917 0.56 55.731 0.826 -34.079 0.826 -34.079 0.56 55.731
15698.875 0.561 55.68 0.826 -34.131 0.826 -34.131 0.561 55.68
15723.833 0.562 55.628 0.825 -34.183 0.825 -34.183 0.562 55.628
15748.792 0.563 55.576 0.825 -34.235 0.825 -34.235 0.563 55.576
15773.75 0.563 55.525 0.824 -34.287 0.824 -34.287 0.563 55.525
15798.708 0.564 55.474 0.824 -34.339 0.824 -34.339 0.564 55.474
15823.667 0.565 55.422 0.823 -34.391 0.823 -34.391 0.565 55.422
15848.625 0.566 55.371 0.823 -34.442 0.823 -34.442 0.566 55.371
15873.583 0.566 55.32 0.822 -34.494 0.822 -34.494 0.566 55.32
15898.542 0.567 55.269 0.822 -34.545 0.822 -34.545 0.567 55.269
15923.5 0.568 55.218 0.821 -34.596 0.821 -34.596 0.568 55.218
15948.458 0.569 55.167 0.821 -34.648 0.821 -34.648 0.569 55.167
15973.417 0.569 55.116 0.82 -34.699 0.82 -34.699 0.569 55.116
15998.375 0.57 55.065 0.82 -34.75 0.82 -34.75 0.57 55.065
16023.333 0.571 55.015 0.819 -34.801 0.819 -34.801 0.571 55.015
16048.292 0.571 54.964 0.819 -34.852 0.819 -34.852 0.571 54.964
16073.25 0.572 54.914 0.818 -34.903 0.818 -34.903 0.572 54.914
16098.208 0.573 54.863 0.818 -34.954 0.818 -34.954 0.573 54.863
16123.167 0.574 54.813 0.817 -35.004 0.817 -35.004 0.574 54.813
16148.125 0.574 54.762 0.817 -35.055 0.817 -35.055 0.574 54.762
16173.083 0.575 54.712 0.816 -35.106 0.816 -35.106 0.575 54.712
16198.042 0.576 54.662 0.816 -35.156 0.816 -35.156 0.576 54.662
16223 0.577 54.612 0.815 -35.207 0.815 -35.207 0.577 54.612
16247.958 0.577 54.562 0.815 -35.257 0.815 -35.257 0.577 54.562
16272.917 0.578 54.512 0.814 -35.307 0.814 -35.307 0.578 54.512
16297.875 0.579 54.462 0.814 -35.357 0.814 -35.357 0.579 54.462
16322.833 0.579 54.412 0.813 -35.407 0.813 -35.407 0.579 54.412
16347.792 0.58 54.363 0.813 -35.458 0.813 -35.458 0.58 54.363
16372.75 0.581 54.313 0.812 -35.507 0.812 -35.507 0.581 54.313
16397.708 0.582 54.263 0.812 -35.557 0.812 -35.557 0.582 54.263
16422.667 0.582 54.214 0.811 -35.607 0.811 -35.607 0.582 54.214
16447.625 0.583 54.164 0.811 -35.657 0.811 -35.657 0.583 54.164
16472.583 0.584 54.115 0.81 -35.707 0.81 -35.707 0.584 54.115
16497.542 0.584 54.066 0.81 -35.756 0.81 -35.756 0.584 54.066
16522.5 0.585 54.017 0.809 -35.806 0.809 -35.806 0.585 54.017
16547.458 0.586 53.968 0.809 -35.855 0.809 -35.855 0.586 53.968
16572.417 0.586 53.919 0.808 -35.905 0.808 -35.905 0.586 53.919
16597.375 0.587 53.87 0.808 -35.954 0.808 -35.954 0.587 53.87
16622.333 0.588 53.821 0.807 -36.003 0.807 -36.003 0.588 53.821
16647.292 0.589 53.772 0.807 -36.052 0.807 -36.052 0.589 53.772
16672.25 0.589 53.723 0.806 -36.101 0.806 -36.101 0.589 53.723
16697.208 0.59 53.674 0.806 -36.15 0.806 -36.15 0.59 53.674
16722.167 0.591 53.626 0.805 -36.199 0.805 -36.199 0.591 53.626
16747.125 0.591 53.577 0.805 -36.248 0.805 -36.248 0.591 53.577
16772.083 0.592 53.529 0.804 -36.297 0.804 -36.297 0.592 53.529
16797.042 0.593 53.48 0.804 -36.346 0.804 -36.346 0.593 53.48
16822 0.593 53.432 0.803 -36.394 0.803 -36.394 0.593 53.432
16846.958 0.594 53.384 0.803 -36.443 0.803 -36.443 0.594 53.384
16871.917 0.595 53.336 0.802 -36.491 0.802 -36.491 0.595 53.336
16896.875 0.595 53.287 0.802 -36.54 0.802 -36.54 0.595 53.287
16921.833 0.596 53.239 0.801 -36.588 0.801 -36.588 0.596 53.239
16946.792 0.597 53.191 0.801 -36.636 0.801 -36.636 0.597 53.191
16971.75 0.597 53.144 0.8 -36.685 0.8 -36.685 0.597 53.144
16996.708 0.598 53.096 0.8 -36.733 0.8 -36.733 0.598 53.096
17021.667 0.599 53.048 0.799 -36.781 0.799 -36.781 0.599 53.048
17046.625 0.599 53 0.799 -36.829 0.799 -36.829 0.599 53
17071.583 0.6 52.953 0.798 -36.877 0.798 -36.877 0.6 52.953
17096.542 0.601 52.905 0.798 -36.924 0.798 -36.924 0.601 52.905
17121.5 0.601 52.858 0.797 -36.972 0.797 -36.972 0.601 52.858
17146.458 0.602 52.81 0.797 -37.02 0.797 -37.02 0.602 52.81
17171.417 0.603 52.763 0.796 -37.068 0.796 -37.068 0.603 52.763
17196.375 0.603 52.716 0.796 -37.115 0.796 -37.115 0.603 52.716
17221.333 0.604 52.668 0.795 -37.163 0.795 -37.163 0.604 52.668
17246.292 0.605 52.621 0.795 -37.21 0.795 -37.21 0.605 52.621
17271.25 0.605 52.574 0.794 -37.257 0.794 -37.257 0.605 52.574
17296.208 0.606 52.527 0.794 -37.305 0.794 -37.305 0.606 52.527
17321.167 0.607 52.48 0.793 -37.352 0.793 -37.352 0.607 52.48
17346.125 0.607 52.433 0.793 -37.399 0.793 -37.399 0.607 52.433
17371.083 0.608 52.387 0.792 -37.446 0.792 -37.446 0.608 52.387
17396.042 0.609 52.34 0.792 -37.493 0.792 -37.493 0.609 52.34
17421 0.609 52.293 0.791 -37.54 0.791 -37.54 0.609 52.293
17445.958 0.61 52.247 0.791 -37.587 0.791 -37.587 0.61 52.247
17470.917 0.611 52.2 0.79 -37.634 0.79 -37.634 0.611 52.2
17495.875 0.611 52.154 0.79 -37.68 0.79 -37.68 0.611 52.154
17520.833 0.612 52.107 0.789 -37.727 0.789 -37.727 0.612 52.107
17545.792 0.613 52.061 0.789 -37.774 0.789 -37.774 0.613 52.061
17570.75 0.613 52.015 0.788 -37.82 0.788 -37.82 0.613 52.015
17595.708 0.614 51.969 0.788 -37.867 0.788 -37.867 0.614 51.969
17620.667 0.614 51.923 0.787 -37.913 0.787 -37.913 0.614 51.923
17645.625 0.615 51.877 0.787 -37.959 0.787 -37.959 0.615 51.877
17670.583 0.616 51.831 0.786 -38.006 0.786 -38.006 0.616 51.831
17695.542 0.616 51.785 0.786 -38.052 0.786 -38.052 0.616 51.785
17720.5 0.617 51.739 0.785 -38.098 0.785 -38.098 0.617 51.739
17745.458 0.618 51.693 0.785 -38.144 0.785 -38.144 0.618 51.693
17770.417 0.618 51.647 0.784 -38.19 0.784 -38.19 0.618 51.647
17795.375 0.619 51.602 0.784 -38.236 0.784 -38.236 0.619 51.602
17820.333 0.62 51.556 0.783 -38.282 0.783 -38.282 0.62 51.556
17845.292 0.62 51.511 0.783 -38.327 0.783 -38.327 0.62 51.511
17870.25 0.621 51.465 0.782 -38.373 0.782 -38.373 0.621 51.465
17895.208 0.621 51.42 0.782 -38.419 0.782 -38.419 0.621 51.42
17920.167 0.622 51.375 0.781 -38.464 0.781 -38.464 0.622 51.375
17945.125 0.623 51.329 0.781 -38.51 0.781 -38.51 0.623 51.329
17970.083 0.623 51.284 0.78 -38.555 0.78 -38.555 0.623 51.284
17995.042 0.624 51.239 0.78 -38.601 0.78 -38.601 0.624 51.239
18020 0.625 51.194 0.779 -38.646 0.779 -38.646 0.625 51.194
18044.958 0.625 51.149 0.779 -38.691 0.779 -38.691 0.625 51.149
18069.917 0.626 51.104 0.778 -38.736 0.778 -38.736 0.626 51.104
18094.875 0.626 51.059 0.778 -38.781 0.778 -38.781 0.626 51.059
18119.833 0.627 51.014 0.777 -38.826 0.777 -38.826 0.627 51.014
18144.792 0.628 50.97 0.777 -38.871 0.777 -38.871 0.628 50.97
18169.75 0.628 50.925 0.776 -38.916 0.776 -38.916 0.628 50.925
18194.708 0.629 50.88 0.776 -38.961 0.776 -38.961 0.629 50.88
18219.667 0.629 50.836 0.775 -39.006 0.775 -39.006 0.629 50.836
18244.625 0.63 50.791 0.775 -39.051 0.775 -39.051 0.63 50.791
18269.583 0.631 50.747 0.774 -39.095 0.774 -39.095 0.631 50.747
18294.542 0.631 50.703 0.774 -39.14 0.774 -39.14 0.631 50.703
18319.5 0.632 50.658 0.773 -39.184 0.773 -39.184 0.632 50.658
18344.458 0.632 50.614 0.773 -39.229 0.773 -39.229 0.632 50.614
18369.417 0.633 50.57 0.772 -39.273 0.772 -39.273 0.633 50.57
18394.375 0.634 50.526 0.772 -39.317 0.772 -39.317 0.634 50.526
18419.333 0.634 50.482 0.771 -39.362 0.771 -39.362 0.634 50.482
18444.292 0.635 50.438 0.771 -39.406 0.771 -39.406 0.635 50.438
18469.25 0.635 50.394 0.77 -39.45 0.77 -39.45 0.635 50.394
18494.208 0.636 50.35 0.77 -39.494 0.77 -39.494 0.636 50.35
18519.167 0.637 50.307 0.769 -39.538 0.769 -39.538 0.637 50.307
18544.125 0.637 50.263 0.769 -39.582 0.769 -39.582 0.637 50.263
18569.083 0.638 50.219 0.769 -39.626 0.769 -39.626 0.638 50.219
18594.042 0.638 50.176 0.768 -39.67 0.768 -39.67 0.638 50.176
18619 0.639 50.132 0.768 -39.713 0.768 -39.713 0.639 50.132
18643.958 0.64 50.089 0.767 -39.757 0.767 -39.757 0.64 50.089
18668.917 0.64 50.045 0.767 -39.801 0.767 -39.801 0.64 50.045
18693.875 0.641 50.002 0.766 -39.844 0.766 -39.844 0.641 50.002
18718.833 0.641 49.959 0.766 -39.888 0.766 -39.888 0.641 49.959
18743.792 0.642 49.916 0.765 -39.931 0.765 -39.931 0.642 49.916
18768.75 0.642 49.873 0.765 -39.975 0.765 -39.975 0.642 49.873
18793.708 0.643 49.829 0.764 -40.018 0.764 -40.018 0.643 49.829
18818.667 0.644 49.786 0.764 -40.061 0.764 -40.061 0.644 49.786
18843.625 0.644 49.744 0.763 -40.104 0.763 -40.104 0.644 49.744
18868.583 0.645 49.701 0.763 -40.147 0.763 -40.147 0.645 49.701
18893.542 0.645 49.658 0.762 -40.191 0.762 -40.191 0.645 49.658
18918.5 0.646 49.615 0.762 -40.234 0.762 -40.234 0.646 49.615
18943.458 0.646 49.572 0.761 -40.276 0.761 -40.276 0.646 49.572
18968.417 0.647 49.53 0.761 -40.319 0.761 -40.319 0.647 49.53
18993.375 0.648 49.487 0.76 -40.362 0.76 -40.362 0.648 49.487
19018.333 0.648 49.445 0.76 -40.405 0.76 -40.405 0.648 49.445
19043.292 0.649 49.402 0.759 -40.448 0.759 -40.448 0.649 49.402
19068.25 0.649 49.36 0.759 -40.49 0.759 -40.49 0.649 49.36
19093.208 0.65 49.317 0.758 -40.533 0.758 -40.533 0.65 49.317
19118.167 0.65 49.275 0.758 -40.575 0.758 -40.575 0.65 49.275
19143.125 0.651 49.233 0.757 -40.618 0.757 -40.618 0.651 49.233
19168.083 0.652 49.191 0.757 -40.66 0.757 -40.66 0.652 49.191
19193.042 0.652 49.149 0.756 -40.702 0.756 -40.702 0.652 49.149
19218 0.653 49.107 0.756 -40.745 0.756 -40.745 0.653 49.107
19242.958 0.653 49.065 0.755 -40.787 0.755 -40.787 0.653 49.065
19267.917 0.654 49.023 0.755 -40.829 0.755 -40.829 0.654 49.023
19292.875 0.654 48.981 0.754 -40.871 0.754 -40.871 0.654 48.981
19317.833 0.655 48.939 0.754 -40.913 0.754 -40.913 0.655 48.939
19342.792 0.655 48.897 0.754 -40.955 0.754 -40.955 0.655 48.897
19367.75 0.656 48.856 0.753 -40.997 0.753 -40.997 0.656 48.856
19392.708 0.657 48.814 0.753 -41.039 0.753 -41.039 0.657 48.814
19417.667 0.657 48.773 0.752 -41.08 0.752 -41.08 0.657 48.773
19442.625 0.658 48.731 0.752 -41.122 0.752 -41.122 0.658 48.731
19467.583 0.658 48.69 0.751 -41.164 0.751 -41.164 0.658 48.69
19492.542 0.659 48.648 0.751 -41.205 0.751 -41.205 0.659 48.648
19517.5 0.659 48.607 0.75 -41.247 0.75 -41.247 0.659 48.607
19542.458 0.66 48.566 0.75 -41.288 0.75 -41.288 0.66 48.566
19567.417 0.66 48.524 0.749 -41.33 0.749 -41.33 0.66 48.524
19592.375 0.661 48.483 0.749 -41.371 0.749 -41.371 0.661 48.483
19617.333 0.661 48.442 0.748 -41.413 0.748 -41.413 0.661 48.442
19642.292 0.662 48.401 0.748 -41.454 0.748 -41.454 0.662 48.401
19667.25 0.663 48.36 0.747 -41.495 0.747 -41.495 0.663 48.36
19692.208 0.663 48.319 0.747 -41.536 0.747 -41.536 0.663 48.319
19717.167 0.664 48.278 0.746 -41.577 0.746 -41.577 0.664 48.278
19742.125 0.664 48.238 0.746 -41.618 0.746 -41.618 0.664 48.238
19767.083 0.665 48.197 0.745 -41.659 0.745 -41.659 0.665 48.197
19792.042 0.665 48.156 0.745 -41.7 0.745 -41.7 0.665 48.156
19817 0.666 48.116 0.744 -41.741 0.744 -41.741 0.666 48.116
19841.958 0.666 48.075 0.744 -41.782 0.744 -41.782 0.666 48.075
19866.917 0.667 48.035 0.744 -41.822 0.744 -41.822 0.667 48.035
19891.875 0.667 47.994 0.743 -41.863 0.743 -41.863 0.667 47.994
19916.833 0.668 47.954 0.743 -41.904 0.743 -41.904 0.668 47.954
19941.792 0.668 47.913 0.742 -41.944 0.742 -41.944 0.668 47.913
19966.75 0.669 47.873 0.742 -41.985 0.742 -41.985 0.669 47.873
19991.708 0.669 47.833 0.741 -42.025 0.741 -42.025 0.669 47.833
20016.667 0.67 47.793 0.741 -42.065 0.741 -42.065 0.67 47.793
20041.625 0.671 47.753 0.74 -42.106 0.74 -42.106 0.671 47.753
20066.583 0.671 47.713 0.74 -42.146 0.74 -42.146 0.671 47.713
20091.542 0.672 47.673 0.739 -42.186 0.739 -42.186 0.672 47.673
20116.5 0.672 47.633 0.739 -42.226 0.739 -42.226 0.672 47.633
20141.458 0.673 47.593 0.738 -42.266 0.738 -42.266 0.673 47.593
20166.417 0.673 47.553 0.738 -42.306 0.738 -42.306 0.673 47.553
20191.375 0.674 47.513 0.737 -42.346 0.737 -42.346 0.674 47.513
20216.333 0.674 47.473 0.737 -42.386 0.737 -42.386 0.674 47.473
20241.292 0.675 47.434 0.736 -42.426 0.736 -42.426 0.675 47.434
20266.25 0.675 47.394 0.736 -42.466 0.736 -42.466 0.675 47.394
20291.208 0.676 47.355 0.736 -42.506 0.736 -42.506 0.676 47.355
20316.167 0.676 47.315 0.735 -42.545 0.735 -42.545 0.676 47.315
20341.125 0.677 47.276 0.735 -42.585 0.735 -42.585 0.677 47.276
20366.083 0.677 47.236 0.734 -42.625 0.734 -42.625 0.677 47.236
20391.042 0.678 47.197 0.734 -42.664 0.734 -42.664 0.678 47.197
20416 0.678 47.158 0.733 -42.704 0.733 -42.704 0.678 47.158
20440.958 0.679 47.118 0.733 -42.743 0.733 -42.743 0.679 47.118
20465.917 0.679 47.079 0.732 -42.782 0.732 -42.782 0.679 47.079
20490.875 0.68 47.04 0.732 -42.822 0.732 -42.822 0.68 47.04
20515.833 0.68 47.001 0.731 -42.861 0.731 -42.861 0.68 47.001
20540.792 0.681 46.962 0.731 -42.9 0.731 -42.9 0.681 46.962
20565.75 0.681 46.923 0.73 -42.939 0.73 -42.939 0.681 46.923
20590.708 0.682 46.884 0.73 -42.978 0.73 -42.978 0.682 46.884
20615.667 0.682 46.845 0.73 -43.017 0.73 -43.017 0.682 46.845
20640.625 0.683 46.807 0.729 -43.056 0.729 -43.056 0.683 46.807
20665.583 0.683 46.768 0.729 -43.095 0.729 -43.095 0.683 46.768
20690.542 0.684 46.729 0.728 -43.134 0.728 -43.134 0.684 46.729
20715.5 0.684 46.691 0.728 -43.173 0.728 -43.173 0.684 46.691
20740.458 0.685 46.652 0.727 -43.212 0.727 -43.212 0.685 46.652
20765.417 0.685 46.614 0.727 -43.25 0.727 -43.25 0.685 46.614
20790.375 0.686 46.575 0.726 -43.289 0.726 -43.289 0.686 46.575
20815.333 0.686 46.537 0.726 -43.327 0.726 -43.327 0.686 46.537
20840.292 0.687 46.498 0.725 -43.366 0.725 -43.366 0.687 46.498
20865.25 0.687 46.46 0.725 -43.404 0.725 -43.404 0.687 46.46
20890.208 0.688 46.422 0.724 -43.443 0.724 -43.443 0.688 46.422
20915.167 0.688 46.384 0.724 -43.481 0.724 -43.481 0.688 46.384
20940.125 0.689 46.346 0.724 -43.52 0.724 -43.52 0.689 46.346
20965.083 0.689 46.307 0.723 -43.558 0.723 -43.558 0.689 46.307
20990.042 0.69 46.269 0.723 -43.596 0.723 -43.596 0.69 46.269
21015 0.69 46.231 0.722 -43.634 0.722 -43.634 0.69 46.231
21039.958 0.691 46.194 0.722 -43.672 0.722 -43.672 0.691 46.194
21064.917 0.691 46.156 0.721 -43.71 0.721 -43.71 0.691 46.156
21089.875 0.691 46.118 0.721 -43.748 0.721 -43.748 0.691 46.118
21114.833 0.692 46.08 0.72 -43.786 0.72 -43.786 0.692 46.08
21139.792 0.692 46.042 0.72 -43.824 0.72 -43.824 0.692 46.042
21164.75 0.693 46.005 0.719 -43.862 0.719 -43.862 0.693 46.005
21189.708 0.693 45.967 0.719 -43.9 0.719 -43.9 0.693 45.967
21214.667 0.694 45.93 0.718 -43.937 0.718 -43.937 0.694 45.93
21239.625 0.694 45.892 0.718 -43.975 0.718 -43.975 0.694 45.892
21264.583 0.695 45.855 0.718 -44.013 0.718 -44.013 0.695 45.855
21289.542 0.695 45.817 0.717 -44.05 0.717 -44.05 0.695 45.817
21314.5 0.696 45.78 0.717 -44.088 0.717 -44.088 0.696 45.78
21339.458 0.696 45.743 0.716 -44.125 0.716 -44.125 0.696 45.743
21364.417 0.697 45.705 0.716 -44.163 0.716 -44.163 0.697 45.705
21389.375 0.697 45.668 0.715 -44.2 0.715 -44.2 0.697 45.668
21414.333 0.698 45.631 0.715 -44.237 0.715 -44.237 0.698 45.631
21439.292 0.698 45.594 0.714 -44.275 0.714 -44.275 0.698 45.594
21464.25 0.699 45.557 0.714 -44.312 0.714 -44.312 0.699 45.557
21489.208 0.699 45.52 0.713 -44.349 0.713 -44.349 0.699 45.52
21514.167 0.699 45.483 0.713 -44.386 0.713 -44.386 0.699 45.483
21539.125 0.7 45.446 0.713 -44.423 0.713 -44.423 0.7 45.446
21564.083 0.7 45.409 0.712 -44.46 0.712 -44.46 0.7 45.409
21589.042 0.701 45.372 0.712 -44.497 0.712 -44.497 0.701 45.372
21614 0.701 45.336 0.711 -44.534 0.711 -44.534 0.701 45.336
21638.958 0.702 45.299 0.711 -44.571 0.711 -44.571 0.702 45.299
21663.917 0.702 45.262 0.71 -44.608 0.71 -44.608 0.702 45.262
21688.875 0.703 45.226 0.71 -44.645 0.71 -44.645 0.703 45.226
21713.833 0.703 45.189 0.709 -44.681 0.709 -44.681 0.703 45.189
21738.792 0.704 45.153 0.709 -44.718 0.709 -44.718 0.704 45.153
21763.75 0.704 45.116 0.709 -44.754 0.709 -44.754 0.704 45.116
21788.708 0.705 45.08 0.708 -44.791 0.708 -44.791 0.705 45.08
21813.667 0.705 45.044 0.708 -44.827 0.708 -44.827 0.705 45.044
21838.625 0.705 45.007 0.707 -44.864 0.707 -44.864 0.705 45.007
21863.583 0.706 44.971 0.707 -44.9 0.707 -44.9 0.706 44.971
21888.542 0.706 44.935 0.706 -44.937 0.706 -44.937 0.706 44.935
21913.5 0.707 44.899 0.706 -44.973 0.706 -44.973 0.707 44.899
21938.458 0.707 44.863 0.705 -45.009 0.705 -45.009 0.707 44.863
21963.417 0.708 44.827 0.705 -45.045 0.705 -45.045 0.708 44.827
21988.375 0.708 44.791 0.705 -45.082 0.705 -45.082 0.708 44.791
22013.333 0.709 44.755 0.704 -45.118 0.704 -45.118 0.709 44.755
22038.292 0.709 44.719 0.704 -45.154 0.704 -45.154 0.709 44.719
22063.25 0.709 44.683 0.703 -45.19 0.703 -45.19 0.709 44.683
22088.208 0.71 44.647 0.703 -45.226 0.703 -45.226 0.71 44.647
22113.167 0.71 44.612 0.702 -45.262 0.702 -45.262 0.71 44.612
22138.125 0.711 44.576 0.702 -45.297 0.702 -45.297 0.711 44.576
22163.083 0.711 44.54 0.701 -45.333 0.701 -45.333 0.711 44.54
22188.042 0.712 44.505 0.701 -45.369 0.701 -45.369 0.712 44.505
22213 0.712 44.469 0.701 -45.405 0.701 -45.405 0.712 44.469
22237.958 0.713 44.434 0.7 -45.44 0.7 -45.44 0.713 44.434
22262.917 0.713 44.398 0.7 -45.476 0.7 -45.476 0.713 44.398
22287.875 0.713 44.363 0.699 -45.511 0.699 -45.511 0.713 44.363
22312.833 0.714 44.327 0.699 -45.547 0.699 -45.547 0.714 44.327
22337.792 0.714 44.292 0.698 -45.582 0.698 -45.582 0.714 44.292
22362.75 0.715 44.257 0.698 -45.618 0.698 -45.618 0.715 44.257
22387.708 0.715 44.222 0.697 -45.653 0.697 -45.653 0.715 44.222
22412.667 0.716 44.186 0.697 -45.688 0.697 -45.688 0.716 44.186
22437.625 0.716 44.151 0.697 -45.724 0.697 -45.724 0.716 44.151
22462.583 0.716 44.116 0.696 -45.759 0.696 -45.759 0.716 44.116
22487.542 0.717 44.081 0.696 -45.794 0.696 -45.794 0.717 44.081
22512.5 0.717 44.046 0.695 -45.829 0.695 -45.829 0.717 44.046
22537.458 0.718 44.011 0.695 -45.864 0.695 -45.864 0.718 44.011
22562.417 0.718 43.977 0.694 -45.899 0.694 -45.899 0.718 43.977
22587.375 0.719 43.942 0.694 -45.934 0.694 -45.934 0.719 43.942
22612.333 0.719 43.907 0.693 -45.969 0.693 -45.969 0.719 43.907
22637.292 0.719 43.872 0.693 -46.004 0.693 -46.004 0.719 43.872
22662.25 0.72 43.838 0.693 -46.039 0.693 -46.039 0.72 43.838
22687.208 0.72 43.803 0.692 -46.074 0.692 -46.074 0.72 43.803
22712.167 0.721 43.768 0.692 -46.108 0.692 -46.108 0.721 43.768
22737.125 0.721 43.734 0.691 -46.143 0.691 -46.143 0.721 43.734
22762.083 0.721 43.699 0.691 -46.178 0.691 -46.178 0.721 43.699
22787.042 0.722 43.665 0.69 -46.212 0.69 -46.212 0.722 43.665
22812 0.722 43.63 0.69 -46.247 0.69 -46.247 0.722 43.63
22836.958 0.723 43.596 0.69 -46.281 0.69 -46.281 0.723 43.596
22861.917 0.723 43.562 0.689 -46.316 0.689 -46.316 0.723 43.562
22886.875 0.724 43.527 0.689 -46.35 0.689 -46.35 0.724 43.527
22911.833 0.724 43.493 0.688 -46.385 0.688 -46.385 0.724 43.493
22936.792 0.724 43.459 0.688 -46.419 0.688 -46.419 0.724 43.459
22961.75 0.725 43.425 0.687 -46.453 0.687 -46.453 0.725 43.425
22986.708 0.725 43.391 0.687 -46.487 0.687 -46.487 0.725 43.391
23011.667 0.726 43.357 0.687 -46.522 0.687 -46.522 0.726 43.357
23036.625 0.726 43.323 0.686 -46.556 0.686 -46.556 0.726 43.323
23061.583 0.726 43.289 0.686 -46.59 0.686 -46.59 0.726 43.289
23086.542 0.727 43.255 0.685 -46.624 0.685 -46.624 0.727 43.255
23111.5 0.727 43.221 0.685 -46.658 0.685 -46.658 0.727 43.221
23136.458 0.728 43.187 0.684 -46.692 0.684 -46.692 0.728 43.187
23161.417 0.728 43.154 0.684 -46.726 0.684 -46.726 0.728 43.154
23186.375 0.728 43.12 0.684 -46.76 0.684 -46.76 0.728 43.12
23211.333 0.729 43.086 0.683 -46.793 0.683 -46.793 0.729 43.086
23236.292 0.729 43.053 0.683 -46.827 0.683 -46.827 0.729 43.053
23261.25 0.73 43.019 0.682 -46.861 0.682 -46.861 0.73 43.019
23286.208 0.73 42.986 0.682 -46.895 0.682 -46.895 0.73 42.986
23311.167 0.73 42.952 0.681 -46.928 0.681 -46.928 0.73 42.952
23336.125 0.731 42.919 0.681 -46.962 0.681 -46.962 0.731 42.919
23361.083 0.731 42.885 0.681 -46.995 0.681 -46.995 0.731 42.885
23386.042 0.732 42.852 0.68 -47.029 0.68 -47.029 0.732 42.852
23411 0.732 42.819 0.68 -47.062 0.68 -47.062 0.732 42.819
23435.958 0.732 42.785 0.679 -47.096 0.679 -47.096 0.732 42.785
23460.917 0.733 42.752 0.679 -47.129 0.679 -47.129 0.733 42.752
23485.875 0.733 42.719 0.678 -47.162 0.678 -47.162 0.733 42.719
23510.833 0.734 42.686 0.678 -47.195 0.678 -47.195 0.734 42.686
23535.792 0.734 42.653 0.678 -47.229 0.678 -47.229 0.734 42.653
23560.75 0.734 42.62 0.677 -47.262 0.677 -47.262 0.734 42.62
23585.708 0.735 42.587 0.677 -47.295 0.677 -47.295 0.735 42.587
23610.667 0.735 42.554 0.676 -47.328 0.676 -47.328 0.735 42.554
23635.625 0.736 42.521 0.676 -47.361 0.676 -47.361 0.736 42.521
23660.583 0.736 42.488 0.675 -47.394 0.675 -47.394 0.736 42.488
23685.542 0.736 42.455 0.675 -47.427 0.675 -47.427 0.736 42.455
23710.5 0.737 42.422 0.675 -47.46 0.675 -47.46 0.737 42.422
23735.458 0.737 42.39 0.674 -47.493 0.674 -47.493 0.737 42.39
23760.417 0.738 42.357 0.674 -47.526 0.674 -47.526 0.738 42.357
23785.375 0.738 42.324 0.673 -47.558 0.673 -47.558 0.738 42.324
23810.333 0.738 42.292 0.673 -47.591 0.673 -47.591 0.738 42.292
23835.292 0.739 42.259 0.672 -47.624 0.672 -47.624 0.739 42.259
23860.25 0.739 42.227 0.672 -47.657 0.672 -47.657 0.739 42.227
23885.208 0.74 42.194 0.672 -47.689 0.672 -47.689 0.74 42.194
23910.167 0.74 42.162 0.671 -47.722 0.671 -47.722 0.74 42.162
23935.125 0.74 42.129 0.671 -47.754 0.671 -47.754 0.74 42.129
23960.083 0.741 42.097 0.67 -47.787 0.67 -47.787 0.741 42.097
23985.042 0.741 42.065 0.67 -47.819 0.67 -47.819 0.741 42.065
24010 0.741 42.033 0.67 -47.851 0.67 -47.851 0.741 42.033
24034.958 0.742 42 0.669 -47.884 0.669 -47.884 0.742 42
24059.917 0.742 41.968 0.669 -47.916 0.669 -47.916 0.742 41.968
24084.875 0.743 41.936 0.668 -47.948 0.668 -47.948 0.743 41.936
24109.833 0.743 41.904 0.668 -47.981 0.668 -47.981 0.743 41.904
24134.792 0.743 41.872 0.667 -48.013 0.667 -48.013 0.743 41.872
24159.75 0.744 41.84 0.667 -48.045 0.667 -48.045 0.744 41.84
24184.708 0.744 41.808 0.667 -48.077 0.667 -48.077 0.744 41.808
24209.667 0.744 41.776 0.666 -48.109 0.666 -48.109 0.744 41.776
24234.625 0.745 41.744 0.666 -48.141 0.666 -48.141 0.745 41.744
24259.583 0.745 41.712 0.665 -48.173 0.665 -48.173 0.745 41.712
24284.542 0.746 41.681 0.665 -48.205 0.665 -48.205 0.746 41.681
24309.5 0.746 41.649 0.665 -48.237 0.665 -48.237 0.746 41.649
24334.458 0.746 41.617 0.664 -48.269 0.664 -48.269 0.746 41.617
24359.417 0.747 41.586 0.664 -48.3 0.664 -48.3 0.747 41.586
24384.375 0.747 41.554 0.663 -48.332 0.663 -48.332 0.747 41.554
24409.333 0.747 41.522 0.663 -48.364 0.663 -48.364 0.747 41.522
24434.292 0.748 41.491 0.663 -48.395 0.663 -48.395 0.748 41.491
24459.25 0.748 41.459 0.662 -48.427 0.662 -48.427 0.748 41.459
24484.208 0.748 41.428 0.662 -48.459 0.662 -48.459 0.748 41.428
24509.167 0.749 41.396 0.661 -48.49 0.661 -48.49 0.749 41.396
24534.125 0.749 41.365 0.661 -48.522 0.661 -48.522 0.749 41.365
24559.083 0.75 41.334 0.66 -48.553 0.66 -48.553 0.75 41.334
24584.042 0.75 41.303 0.66 -48.584 0.66 -48.584 0.75 41.303
24609 0.75 41.271 0.66 -48.616 0.66 -48.616 0.75 41.271
24633.958 0.751 41.24 0.659 -48.647 0.659 -48.647 0.751 41.24
24658.917 0.751 41.209 0.659 -48.678 0.659 -48.678 0.751 41.209
24683.875 0.751 41.178 0.658 -48.71 0.658 -48.71 0.751 41.178
24708.833 0.752 41.147 0.658 -48.741 0.658 -48.741 0.752 41.147
24733.792 0.752 41.116 0.658 -48.772 0.658 -48.772 0.752 41.116
24758.75 0.752 41.085 0.657 -48.803 0.657 -48.803 0.752 41.085
24783.708 0.753 41.054 0.657 -48.834 0.657 -48.834 0.753 41.054
24808.667 0.753 41.023 0.656 -48.865 0.656 -48.865 0.753 41.023
24833.625 0.754 40.992 0.656 -48.896 0.656 -48.896 0.754 40.992
24858.583 0.754 40.961 0.656 -48.927 0.656 -48.927 0.754 40.961
24883.542 0.754 40.93 0.655 -48.958 0.655 -48.958 0.754 40.93
24908.5 0.755 40.9 0.655 -48.989 0.655 -48.989 0.755 40.9
24933.458 0.755 40.869 0.654 -49.02 0.654 -49.02 0.755 40.869
24958.417 0.755 40.838 0.654 -49.051 0.654 -49.051 0.755 40.838
24983.375 0.756 40.808 0.654 -49.081 0.654 -49.081 0.756 40.808
25008.333 0.756 40.777 0.653 -49.112 0.653 -49.112 0.756 40.777
25033.292 0.756 40.746 0.653 -49.143 0.653 -49.143 0.756 40.746
25058.25 0.757 40.716 0.652 -49.173 0.652 -49.173 0.757 40.716
25083.208 0.757 40.685 0.652 -49.204 0.652 -49.204 0.757 40.685
25108.167 0.757 40.655 0.652 -49.235 0.652 -49.235 0.757 40.655
25133.125 0.758 40.625 0.651 -49.265 0.651 -49.265 0.758 40.625
25158.083 0.758 40.594 0.651 -49.296 0.651 -49.296 0.758 40.594
25183.042 0.758 40.564 0.65 -49.326 0.65 -49.326 0.758 40.564
25208 0.759 40.534 0.65 -49.356 0.65 -49.356 0.759 40.534
25232.958 0.759 40.503 0.649 -49.387 0.649 -49.387 0.759 40.503
25257.917 0.759 40.473 0.649 -49.417 0.649 -49.417 0.759 40.473
25282.875 0.76 40.443 0.649 -49.447 0.649 -49.447 0.76 40.443
25307.833 0.76 40.413 0.648 -49.477 0.648 -49.477 0.76 40.413
25332.792 0.76 40.383 0.648 -49.508 0.648 -49.508 0.76 40.383
25357.75 0.761 40.353 0.647 -49.538 0.647 -49.538 0.761 40.353
25382.708 0.761 40.323 0.647 -49.568 0.647 -49.568 0.761 40.323
25407.667 0.762 40.293 0.647 -49.598 0.647 -49.598 0.762 40.293
25432.625 0.762 40.263 0.646 -49.628 0.646 -49.628 0.762 40.263
25457.583 0.762 40.233 0.646 -49.658 0.646 -49.658 0.762 40.233
25482.542 0.763 40.203 0.646 -49.688 0.646 -49.688 0.763 40.203
25507.5 0.763 40.173 0.645 -49.718 0.645 -49.718 0.763 40.173
25532.458 0.763 40.144 0.645 -49.748 0.645 -49.748 0.763 40.144
25557.417 0.764 40.114 0.644 -49.778 0.644 -49.778 0.764 40.114
25582.375 0.764 40.084 0.644 -49.807 0.644 -49.807 0.764 40.084
25607.333 0.764 40.055 0.644 -49.837 0.644 -49.837 0.764 40.055
25632.292 0.765 40.025 0.643 -49.867 0.643 -49.867 0.765 40.025
25657.25 0.765 39.995 0.643 -49.897 0.643 -49.897 0.765 39.995
25682.208 0.765 39.966 0.642 -49.926 0.642 -49.926 0.765 39.966
25707.167 0.766 39.936 0.642 -49.956 0.642 -49.956 0.766 39.936
25732.125 0.766 39.907 0.642 -49.985 0.642 -49.985 0.766 39.907
25757.083 0.766 39.878 0.641 -50.015 0.641 -50.015 0.766 39.878
25782.042 0.767 39.848 0.641 -50.044 0.641 -50.044 0.767 39.848
25807 0.767 39.819 0.64 -50.074 0.64 -50.074 0.767 39.819
25831.958 0.767 39.79 0.64 -50.103 0.64 -50.103 0.767 39.79
25856.917 0.768 39.76 0.64 -50.133 0.64 -50.133 0.768 39.76
25881.875 0.768 39.731 0.639 -50.162 0.639 -50.162 0.768 39.731
25906.833 0.768 39.702 0.639 -50.191 0.639 -50.191 0.768 39.702
25931.792 0.769 39.673 0.638 -50.221 0.638 -50.221 0.769 39.673
25956.75 0.769 39.644 0.638 -50.25 0.638 -50.25 0.769 39.644
25981.708 0.769 39.615 0.638 -50.279 0.638 -50.279 0.769 39.615
26006.667 0.769 39.586 0.637 -50.308 0.637 -50.308 0.769 39.586
26031.625 0.77 39.557 0.637 -50.337 0.637 -50.337 0.77 39.557
26056.583 0.77 39.528 0.636 -50.366 0.636 -50.366 0.77 39.528
26081.542 0.77 39.499 0.636 -50.395 0.636 -50.395 0.77 39.499
26106.5 0.771 39.47 0.636 -50.424 0.636 -50.424 0.771 39.47
26131.458 0.771 39.441 0.635 -50.453 0.635 -50.453 0.771 39.441
26156.417 0.771 39.412 0.635 -50.482 0.635 -50.482 0.771 39.412
26181.375 0.772 39.383 0.635 -50.511 0.635 -50.511 0.772 39.383
26206.333 0.772 39.355 0.634 -50.54 0.634 -50.54 0.772 39.355
26231.292 0.772 39.326 0.634 -50.569 0.634 -50.569 0.772 39.326
26256.25 0.773 39.297 0.633 -50.598 0.633 -50.598 0.773 39.297
26281.208 0.773 39.269 0.633 -50.626 0.633 -50.626 0.773 39.269
26306.167 0.773 39.24 0.633 -50.655 0.633 -50.655 0.773 39.24
26331.125 0.774 39.211 0.632 -50.684 0.632 -50.684 0.774 39.211
26356.083 0.774 39.183 0.632 -50.712 0.632 -50.712 0.774 39.183
26381.042 0.774 39.154 0.631 -50.741 0.631 -50.741 0.774 39.154
26406 0.775 39.126 0.631 -50.769 0.631 -50.769 0.775 39.126
26430.958 0.775 39.098 0.631 -50.798 0.631 -50.798 0.775 39.098
26455.917 0.775 39.069 0.63 -50.826 0.63 -50.826 0.775 39.069
26480.875 0.776 39.041 0.63 -50.855 0.63 -50.855 0.776 39.041
26505.833 0.776 39.013 0.629 -50.883 0.629 -50.883 0.776 39.013
26530.792 0.776 38.984 0.629 -50.912 0.629 -50.912 0.776 38.984
26555.75 0.776 38.956 0.629 -50.94 0.629 -50.94 0.776 38.956
26580.708 0.777 38.928 0.628 -50.968 0.628 -50.968 0.777 38.928
26605.667 0.777 38.9 0.628 -50.997 0.628 -50.997 0.777 38.9
26630.625 0.777 38.872 0.628 -51.025 0.628 -51.025 0.777 38.872
26655.583 0.778 38.844 0.627 -51.053 0.627 -51.053 0.778 38.844
26680.542 0.778 38.815 0.627 -51.081 0.627 -51.081 0.778 38.815
26705.5 0.778 38.787 0.626 -51.109 0.626 -51.109 0.778 38.787
26730.458 0.779 38.759 0.626 -51.137 0.626 -51.137 0.779 38.759
26755.417 0.779 38.732 0.626 -51.165 0.626 -51.165 0.779 38.732
26780.375 0.779 38.704 0.625 -51.193 0.625 -51.193 0.779 38.704
26805.333 0.78 38.676 0.625 -51.221 0.625 -51.221 0.78 38.676
26830.292 0.78 38.648 0.625 -51.249 0.625 -51.249 0.78 38.648
26855.25 0.78 38.62 0.624 -51.277 0.624 -51.277 0.78 38.62
26880.208 0.78 38.592 0.624 -51.305 0.624 -51.305 0.78 38.592
26905.167 0.781 38.565 0.623 -51.333 0.623 -51.333 0.781 38.565
26930.125 0.781 38.537 0.623 -51.361 0.623 -51.361 0.781 38.537
26955.083 0.781 38.509 0.623 -51.388 0.623 -51.388 0.781 38.509
26980.042 0.782 38.482 0.622 -51.416 0.622 -51.416 0.782 38.482
27005 0.782 38.454 0.622 -51.444 0.622 -51.444 0.782 38.454
27029.958 0.782 38.427 0.622 -51.471 0.622 -51.471 0.782 38.427
27054.917 0.783 38.399 0.621 -51.499 0.621 -51.499 0.783 38.399
27079.875 0.783 38.372 0.621 -51.527 0.621 -51.527 0.783 38.372
27104.833 0.783 38.344 0.62 -51.554 0.62 -51.554 0.783 38.344
27129.792 0.783 38.317 0.62 -51.582 0.62 -51.582 0.783 38.317
27154.75 0.784 38.289 0.62 -51.609 0.62 -51.609 0.784 38.289
27179.708 0.784 38.262 0.619 -51.637 0.619 -51.637 0.784 38.262
27204.667 0.784 38.235 0.619 -51.664 0.619 -51.664 0.784 38.235
27229.625 0.785 38.207 0.619 -51.691 0.619 -51.691 0.785 38.207
27254.583 0.785 38.18 0.618 -51.719 0.618 -51.719 0.785 38.18
27279.542 0.785 38.153 0.618 -51.746 0.618 -51.746 0.785 38.153
27304.5 0.786 38.126 0.617 -51.773 0.617 -51.773 0.786 38.126
27329.458 0.786 38.099 0.617 -51.801 0.617 -51.801 0.786 38.099
27354.417 0.786 38.072 0.617 -51.828 0.617 -51.828 0.786 38.072
27379.375 0.786 38.044 0.616 -51.855 0.616 -51.855 0.786 38.044
27404.333 0.787 38.017 0.616 -51.882 0.616 -51.882 0.787 38.017
27429.292 0.787 37.99 0.616 -51.909 0.616 -51.909 0.787 37.99
27454.25 0.787 37.963 0.615 -51.936 0.615 -51.936 0.787 37.963
27479.208 0.788 37.937 0.615 -51.963 0.615 -51.963 0.788 37.937
27504.167 0.788 37.91 0.614 -51.99 0.614 -51.99 0.788 37.91
27529.125 0.788 37.883 0.614 -52.017 0.614 -52.017 0.788 37.883
27554.083 0.788 37.856 0.614 -52.044 0.614 -52.044 0.788 37.856
27579.042 0.789 37.829 0.613 -52.071 0.613 -52.071 0.789 37.829
27604 0.789 37.802 0.613 -52.098 0.613 -52.098 0.789 37.802
27628.958 0.789 37.776 0.613 -52.125 0.613 -52.125 0.789 37.776
27653.917 0.79 37.749 0.612 -52.151 0.612 -52.151 0.79 37.749
27678.875 0.79 37.722 0.612 -52.178 0.612 -52.178 0.79 37.722
27703.833 0.79 37.696 0.611 -52.205 0.611 -52.205 0.79 37.696
27728.792 0.79 37.669 0.611 -52.232 0.611 -52.232 0.79 37.669
27753.75 0.791 37.642 0.611 -52.258 0.611 -52.258 0.791 37.642
27778.708 0.791 37.616 0.61 -52.285 0.61 -52.285 0.791 37.616
27803.667 0.791 37.589 0.61 -52.312 0.61 -52.312 0.791 37.589
27828.625 0.792 37.563 0.61 -52.338 0.61 -52.338 0.792 37.563
27853.583 0.792 37.537 0.609 -52.365 0.609 -52.365 0.792 37.537
27878.542 0.792 37.51 0.609 -52.391 0.609 -52.391 0.792 37.51
27903.5 0.792 37.484 0.609 -52.418 0.609 -52.418 0.792 37.484
27928.458 0.793 37.457 0.608 -52.444 0.608 -52.444 0.793 37.457
27953.417 0.793 37.431 0.608 -52.47 0.608 -52.47 0.793 37.431
27978.375 0.793 37.405 0.607 -52.497 0.607 -52.497 0.793 37.405
28003.333 0.794 37.379 0.607 -52.523 0.607 -52.523 0.794 37.379
28028.292 0.794 37.353 0.607 -52.549 0.607 -52.549 0.794 37.353
28053.25 0.794 37.326 0.606 -52.576 0.606 -52.576 0.794 37.326
28078.208 0.794 37.3 0.606 -52.602 0.606 -52.602 0.794 37.3
28103.167 0.795 37.274 0.606 -52.628 0.606 -52.628 0.795 37.274
28128.125 0.795 37.248 0.605 -52.654 0.605 -52.654 0.795 37.248
28153.083 0.795 37.222 0.605 -52.68 0.605 -52.68 0.795 37.222
28178.042 0.796 37.196 0.605 -52.706 0.605 -52.706 0.796 37.196
28203 0.796 37.17 0.604 -52.732 0.604 -52.732 0.796 37.17
28227.958 0.796 37.144 0.604 -52.758 0.604 -52.758 0.796 37.144
28252.917 0.796 37.118 0.603 -52.784 0.603 -52.784 0.796 37.118
28277.875 0.797 37.092 0.603 -52.81 0.603 -52.81 0.797 37.092
28302.833 0.797 37.066 0.603 -52.836 0.603 -52.836 0.797 37.066
28327.792 0.797 37.041 0.602 -52.862 0.602 -52.862 0.797 37.041
28352.75 0.797 37.015 0.602 -52.888 0.602 -52.888 0.797 37.015
28377.708 0.798 36.989 0.602 -52.914 0.602 -52.914 0.798 36.989
28402.667 0.798 36.963 0.601 -52.94 0.601 -52.94 0.798 36.963
28427.625 0.798 36.938 0.601 -52.966 0.601 -52.966 0.798 36.938
28452.583 0.799 36.912 0.601 -52.991 0.601 -52.991 0.799 36.912
28477.542 0.799 36.887 0.6 -53.017 0.6 -53.017 0.799 36.887
28502.5 0.799 36.861 0.6 -53.043 0.6 -53.043 0.799 36.861
28527.458 0.799 36.835 0.6 -53.068 0.6 -53.068 0.799 36.835
28552.417 0.8 36.81 0.599 -53.094 0.599 -53.094 0.8 36.81
28577.375 0.8 36.784 0.599 -53.119 0.599 -53.119 0.8 36.784
28602.333 0.8 36.759 0.598 -53.145 0.598 -53.145 0.8 36.759
28627.292 0.8 36.733 0.598 -53.171 0.598 -53.171 0.8 36.733
28652.25 0.801 36.708 0.598 -53.196 0.598 -53.196 0.801 36.708
28677.208 0.801 36.683 0.597 -53.221 0.597 -53.221 0.801 36.683
28702.167 0.801 36.657 0.597 -53.247 0.597 -53.247 0.801 36.657
28727.125 0.801 36.632 0.597 -53.272 0.597 -53.272 0.801 36.632
28752.083 0.802 36.607 0.596 -53.298 0.596 -53.298 0.802 36.607
28777.042 0.802 36.582 0.596 -53.323 0.596 -53.323 0.802 36.582
28802 0.802 36.556 0.596 -53.348 0.596 -53.348 0.802 36.556
28826.958 0.803 36.531 0.595 -53.374 0.595 -53.374 0.803 36.531
28851.917 0.803 36.506 0.595 -53.399 0.595 -53.399 0.803 36.506
28876.875 0.803 36.481 0.595 -53.424 0.595 -53.424 0.803 36.481
28901.833 0.803 36.456 0.594 -53.449 0.594 -53.449 0.803 36.456
28926.792 0.804 36.431 0.594 -53.474 0.594 -53.474 0.804 36.431
28951.75 0.804 36.406 0.594 -53.499 0.594 -53.499 0.804 36.406
28976.708 0.804 36.381 0.593 -53.524 0.593 -53.524 0.804 36.381
29001.667 0.804 36.356 0.593 -53.55 0.593 -53.55 0.804 36.356
29026.625 0.805 36.331 0.592 -53.575 0.592 -53.575 0.805 36.331
29051.583 0.805 36.306 0.592 -53.6 0.592 -53.6 0.805 36.306
29076.542 0.805 36.281 0.592 -53.624 0.592 -53.624 0.805 36.281
29101.5 0.805 36.256 0.591 -53.649 0.591 -53.649 0.805 36.256
29126.458 0.806 36.232 0.591 -53.674 0.591 -53.674 0.806 36.232
29151.417 0.806 36.207 0.591 -53.699 0.591 -53.699 0.806 36.207
29176.375 0.806 36.182 0.59 -53.724 0.59 -53.724 0.806 36.182
29201.333 0.806 36.157 0.59 -53.749 0.59 -53.749 0.806 36.157
29226.292 0.807 36.133 0.59 -53.774 0.59 -53.774 0.807 36.133
29251.25 0.807 36.108 0.589 -53.798 0.589 -53.798 0.807 36.108
29276.208 0.807 36.083 0.589 -53.823 0.589 -53.823 0.807 36.083
29301.167 0.807 36.059 0.589 -53.848 0.589 -53.848 0.807 36.059
29326.125 0.808 36.034 0.588 -53.872 0.588 -53.872 0.808 36.034
29351.083 0.808 36.01 0.588 -53.897 0.588 -53.897 0.808 36.01
29376.042 0.808 35.985 0.588 -53.922 0.588 -53.922 0.808 35.985
29401 0.808 35.961 0.587 -53.946 0.587 -53.946 0.808 35.961
29425.958 0.809 35.936 0.587 -53.971 0.587 -53.971 0.809 35.936
29450.917 0.809 35.912 0.587 -53.995 0.587 -53.995 0.809 35.912
29475.875 0.809 35.887 0.586 -54.02 0.586 -54.02 0.809 35.887
29500.833 0.809 35.863 0.586 -54.044 0.586 -54.044 0.809 35.863
29525.792 0.81 35.839 0.586 -54.068 0.586 -54.068 0.81 35.839
29550.75 0.81 35.814 0.585 -54.093 0.585 -54.093 0.81 35.814
29575.708 0.81 35.79 0.585 -54.117 0.585 -54.117 0.81 35.79
29600.667 0.81 35.766 0.584 -54.141 0.584 -54.141 0.81 35.766
29625.625 0.811 35.742 0.584 -54.166 0.584 -54.166 0.811 35.742
29650.583 0.811 35.718 0.584 -54.19 0.584 -54.19 0.811 35.718
29675.542 0.811 35.693 0.583 -54.214 0.583 -54.214 0.811 35.693
29700.5 0.811 35.669 0.583 -54.238 0.583 -54.238 0.811 35.669
29725.458 0.812 35.645 0.583 -54.263 0.583 -54.263 0.812 35.645
29750.417 0.812 35.621 0.582 -54.287 0.582 -54.287 0.812 35.621
29775.375 0.812 35.597 0.582 -54.311 0.582 -54.311 0.812 35.597
29800.333 0.812 35.573 0.582 -54.335 0.582 -54.335 0.812 35.573
29825.292 0.813 35.549 0.581 -54.359 0.581 -54.359 0.813 35.549
29850.25 0.813 35.525 0.581 -54.383 0.581 -54.383 0.813 35.525
29875.208 0.813 35.501 0.581 -54.407 0.581 -54.407 0.813 35.501
29900.167 0.813 35.477 0.58 -54.431 0.58 -54.431 0.813 35.477
29925.125 0.814 35.454 0.58 -54.455 0.58 -54.455 0.814 35.454
29950.083 0.814 35.43 0.58 -54.479 0.58 -54.479 0.814 35.43
29975.042 0.814 35.406 0.579 -54.503 0.579 -54.503 0.814 35.406
30000 0.814 35.382 0.579 -54.527 0.579 -54.527 0.814 35.382
