!	AVX Thin Film Operation 	Date: April 2014		
!	Description: Accu-P® Series, Thin Film  SMD RF Capacitor
!	Part Number: 06035J160FBSTR					
!								
# MHZ S MA R 50

50 0.893 -26.708 0.449 63.259 0.449 63.259 0.893 -26.708
74.958 0.798 -37.057 0.603 52.893 0.603 52.893 0.798 -37.057
99.917 0.703 -45.232 0.71 44.7 0.71 44.7 0.703 -45.232
124.875 0.62 -51.619 0.784 38.296 0.784 38.296 0.62 -51.619
149.833 0.548 -56.636 0.835 33.262 0.835 33.262 0.548 -56.636
174.792 0.489 -60.63 0.871 29.251 0.871 29.251 0.489 -60.63
199.75 0.438 -63.859 0.898 26.004 0.898 26.004 0.438 -63.859
224.708 0.396 -66.51 0.917 23.334 0.917 23.334 0.396 -66.51
249.667 0.36 -68.721 0.932 21.106 0.932 21.106 0.36 -68.721
274.625 0.329 -70.588 0.943 19.22 0.943 19.22 0.329 -70.588
299.583 0.302 -72.186 0.952 17.603 0.952 17.603 0.302 -72.186
324.542 0.279 -73.567 0.959 16.203 0.959 16.203 0.279 -73.567
349.5 0.258 -74.773 0.965 14.977 0.965 14.977 0.258 -74.773
374.458 0.24 -75.835 0.97 13.895 0.97 13.895 0.24 -75.835
399.417 0.224 -76.777 0.974 12.931 0.974 12.931 0.224 -76.777
424.375 0.209 -77.62 0.977 12.067 0.977 12.067 0.209 -77.62
449.333 0.196 -78.378 0.98 11.286 0.98 11.286 0.196 -78.378
474.292 0.184 -79.064 0.982 10.578 0.982 10.578 0.184 -79.064
499.25 0.172 -79.687 0.984 9.93 0.984 9.93 0.172 -79.687
524.208 0.162 -80.257 0.986 9.336 0.986 9.336 0.162 -80.257
549.167 0.153 -80.779 0.987 8.788 0.987 8.788 0.153 -80.779
574.125 0.144 -81.26 0.988 8.28 0.988 8.28 0.144 -81.26
599.083 0.136 -81.704 0.99 7.808 0.99 7.808 0.136 -81.704
624.042 0.128 -82.115 0.991 7.367 0.991 7.367 0.128 -82.115
649 0.121 -82.497 0.991 6.954 0.991 6.954 0.121 -82.497
673.958 0.114 -82.852 0.992 6.566 0.992 6.566 0.114 -82.852
698.917 0.108 -83.183 0.993 6.201 0.993 6.201 0.108 -83.183
723.875 0.102 -83.492 0.994 5.855 0.994 5.855 0.102 -83.492
748.833 0.096 -83.78 0.994 5.528 0.994 5.528 0.096 -83.78
773.792 0.091 -84.05 0.995 5.217 0.995 5.217 0.091 -84.05
798.75 0.086 -84.302 0.995 4.921 0.995 4.921 0.086 -84.302
823.708 0.081 -84.537 0.996 4.638 0.996 4.638 0.081 -84.537
848.667 0.076 -84.755 0.996 4.368 0.996 4.368 0.076 -84.755
873.625 0.072 -84.959 0.996 4.109 0.996 4.109 0.072 -84.959
898.583 0.067 -85.147 0.997 3.861 0.997 3.861 0.067 -85.147
923.542 0.063 -85.32 0.997 3.622 0.997 3.622 0.063 -85.32
948.5 0.059 -85.478 0.997 3.392 0.997 3.392 0.059 -85.478
973.458 0.055 -85.621 0.997 3.17 0.997 3.17 0.055 -85.621
998.417 0.052 -85.747 0.998 2.956 0.998 2.956 0.052 -85.747
1023.375 0.048 -85.857 0.998 2.749 0.998 2.749 0.048 -85.857
1048.333 0.044 -85.947 0.998 2.549 0.998 2.549 0.044 -85.947
1073.292 0.041 -86.017 0.998 2.354 0.998 2.354 0.041 -86.017
1098.25 0.038 -86.064 0.998 2.165 0.998 2.165 0.038 -86.064
1123.208 0.035 -86.084 0.998 1.982 0.998 1.982 0.035 -86.084
1148.167 0.031 -86.071 0.998 1.803 0.998 1.803 0.031 -86.071
1173.125 0.028 -86.018 0.998 1.629 0.998 1.629 0.028 -86.018
1198.083 0.026 -85.914 0.999 1.46 0.999 1.46 0.026 -85.914
1223.042 0.023 -85.745 0.999 1.294 0.999 1.294 0.023 -85.745
1248 0.02 -85.485 0.999 1.133 0.999 1.133 0.02 -85.485
1272.958 0.017 -85.096 0.999 0.975 0.999 0.975 0.017 -85.096
1297.917 0.014 -84.513 0.999 0.82 0.999 0.82 0.014 -84.513
1322.875 0.012 -83.615 0.999 0.669 0.999 0.669 0.012 -83.615
1347.833 9.164e-3 -82.152 0.999 0.521 0.999 0.521 9.164e-3 -82.152
1372.792 6.656e-3 -79.512 0.999 0.375 0.999 0.375 6.656e-3 -79.512
1397.75 4.229e-3 -73.722 0.999 0.233 0.999 0.233 4.229e-3 -73.722
1422.708 1.998e-3 -54.103 0.999 0.093 0.999 0.093 1.998e-3 -54.103
1447.667 1.405e-3 33.686 0.999 -0.045 0.999 -0.045 1.405e-3 33.686
1472.625 3.351e-3 69.405 0.999 -0.18 0.999 -0.18 3.351e-3 69.405
1497.583 5.585e-3 77.608 0.999 -0.313 0.999 -0.313 5.585e-3 77.608
1522.542 7.833e-3 80.975 0.999 -0.444 0.999 -0.444 7.833e-3 80.975
1547.5 0.01 82.758 0.999 -0.573 0.999 -0.573 0.01 82.758
1572.458 0.012 83.833 0.999 -0.7 0.999 -0.7 0.012 83.833
1597.417 0.014 84.533 0.999 -0.825 0.999 -0.825 0.014 84.533
1622.375 0.017 85.012 0.999 -0.948 0.999 -0.948 0.017 85.012
1647.333 0.019 85.349 0.999 -1.07 0.999 -1.07 0.019 85.349
1672.292 0.021 85.589 0.999 -1.19 0.999 -1.19 0.021 85.589
1697.25 0.023 85.762 0.999 -1.308 0.999 -1.308 0.023 85.762
1722.208 0.025 85.885 0.999 -1.425 0.999 -1.425 0.025 85.885
1747.167 0.027 85.971 0.998 -1.541 0.998 -1.541 0.027 85.971
1772.125 0.029 86.029 0.998 -1.656 0.998 -1.656 0.029 86.029
1797.083 0.031 86.064 0.998 -1.769 0.998 -1.769 0.031 86.064
1822.042 0.033 86.081 0.998 -1.88 0.998 -1.88 0.033 86.081
1847 0.035 86.083 0.998 -1.991 0.998 -1.991 0.035 86.083
1871.958 0.037 86.074 0.998 -2.101 0.998 -2.101 0.037 86.074
1896.917 0.039 86.055 0.998 -2.209 0.998 -2.209 0.039 86.055
1921.875 0.04 86.029 0.998 -2.316 0.998 -2.316 0.04 86.029
1946.833 0.042 85.995 0.998 -2.423 0.998 -2.423 0.042 85.995
1971.792 0.044 85.956 0.998 -2.528 0.998 -2.528 0.044 85.956
1996.75 0.046 85.911 0.998 -2.633 0.998 -2.633 0.046 85.911
2021.708 0.048 85.863 0.998 -2.736 0.998 -2.736 0.048 85.863
2046.667 0.05 85.811 0.998 -2.839 0.998 -2.839 0.05 85.811
2071.625 0.051 85.756 0.998 -2.941 0.998 -2.941 0.051 85.756
2096.583 0.053 85.698 0.997 -3.042 0.997 -3.042 0.053 85.698
2121.542 0.055 85.638 0.997 -3.142 0.997 -3.142 0.055 85.638
2146.5 0.057 85.576 0.997 -3.241 0.997 -3.241 0.057 85.576
2171.458 0.058 85.513 0.997 -3.34 0.997 -3.34 0.058 85.513
2196.417 0.06 85.447 0.997 -3.438 0.997 -3.438 0.06 85.447
2221.375 0.062 85.381 0.997 -3.535 0.997 -3.535 0.062 85.381
2246.333 0.063 85.313 0.997 -3.632 0.997 -3.632 0.063 85.313
2271.292 0.065 85.244 0.997 -3.728 0.997 -3.728 0.065 85.244
2296.25 0.067 85.175 0.997 -3.823 0.997 -3.823 0.067 85.175
2321.208 0.068 85.104 0.996 -3.918 0.996 -3.918 0.068 85.104
2346.167 0.07 85.033 0.996 -4.012 0.996 -4.012 0.07 85.033
2371.125 0.072 84.961 0.996 -4.106 0.996 -4.106 0.072 84.961
2396.083 0.073 84.889 0.996 -4.199 0.996 -4.199 0.073 84.889
2421.042 0.075 84.816 0.996 -4.292 0.996 -4.292 0.075 84.816
2446 0.076 84.743 0.996 -4.384 0.996 -4.384 0.076 84.743
2470.958 0.078 84.669 0.996 -4.475 0.996 -4.475 0.078 84.669
2495.917 0.08 84.595 0.996 -4.566 0.996 -4.566 0.08 84.595
2520.875 0.081 84.521 0.996 -4.657 0.996 -4.657 0.081 84.521
2545.833 0.083 84.447 0.995 -4.747 0.995 -4.747 0.083 84.447
2570.792 0.084 84.372 0.995 -4.837 0.995 -4.837 0.084 84.372
2595.75 0.086 84.297 0.995 -4.926 0.995 -4.926 0.086 84.297
2620.708 0.087 84.222 0.995 -5.015 0.995 -5.015 0.087 84.222
2645.667 0.089 84.147 0.995 -5.103 0.995 -5.103 0.089 84.147
2670.625 0.09 84.072 0.995 -5.191 0.995 -5.191 0.09 84.072
2695.583 0.092 83.997 0.995 -5.278 0.995 -5.278 0.092 83.997
2720.542 0.094 83.921 0.994 -5.366 0.994 -5.366 0.094 83.921
2745.5 0.095 83.846 0.994 -5.452 0.994 -5.452 0.095 83.846
2770.458 0.097 83.771 0.994 -5.539 0.994 -5.539 0.097 83.771
2795.417 0.098 83.695 0.994 -5.625 0.994 -5.625 0.098 83.695
2820.375 0.1 83.62 0.994 -5.711 0.994 -5.711 0.1 83.62
2845.333 0.101 83.544 0.994 -5.796 0.994 -5.796 0.101 83.544
2870.292 0.102 83.469 0.994 -5.881 0.994 -5.881 0.102 83.469
2895.25 0.104 83.393 0.993 -5.966 0.993 -5.966 0.104 83.393
2920.208 0.105 83.318 0.993 -6.05 0.993 -6.05 0.105 83.318
2945.167 0.107 83.242 0.993 -6.134 0.993 -6.134 0.107 83.242
2970.125 0.108 83.167 0.993 -6.218 0.993 -6.218 0.108 83.167
2995.083 0.11 83.092 0.993 -6.302 0.993 -6.302 0.11 83.092
3020.042 0.111 83.016 0.993 -6.385 0.993 -6.385 0.111 83.016
3045 0.113 82.941 0.992 -6.468 0.992 -6.468 0.113 82.941
3069.958 0.114 82.866 0.992 -6.551 0.992 -6.551 0.114 82.866
3094.917 0.116 82.791 0.992 -6.633 0.992 -6.633 0.116 82.791
3119.875 0.117 82.716 0.992 -6.715 0.992 -6.715 0.117 82.716
3144.833 0.118 82.641 0.992 -6.797 0.992 -6.797 0.118 82.641
3169.792 0.12 82.566 0.992 -6.879 0.992 -6.879 0.12 82.566
3194.75 0.121 82.491 0.991 -6.96 0.991 -6.96 0.121 82.491
3219.708 0.123 82.416 0.991 -7.041 0.991 -7.041 0.123 82.416
3244.667 0.124 82.342 0.991 -7.122 0.991 -7.122 0.124 82.342
3269.625 0.125 82.267 0.991 -7.203 0.991 -7.203 0.125 82.267
3294.583 0.127 82.193 0.991 -7.283 0.991 -7.283 0.127 82.193
3319.542 0.128 82.118 0.991 -7.364 0.991 -7.364 0.128 82.118
3344.5 0.13 82.044 0.99 -7.444 0.99 -7.444 0.13 82.044
3369.458 0.131 81.969 0.99 -7.523 0.99 -7.523 0.131 81.969
3394.417 0.132 81.895 0.99 -7.603 0.99 -7.603 0.132 81.895
3419.375 0.134 81.821 0.99 -7.682 0.99 -7.682 0.134 81.821
3444.333 0.135 81.747 0.99 -7.762 0.99 -7.762 0.135 81.747
3469.292 0.136 81.673 0.989 -7.841 0.989 -7.841 0.136 81.673
3494.25 0.138 81.599 0.989 -7.919 0.989 -7.919 0.138 81.599
3519.208 0.139 81.525 0.989 -7.998 0.989 -7.998 0.139 81.525
3544.167 0.14 81.452 0.989 -8.076 0.989 -8.076 0.14 81.452
3569.125 0.142 81.378 0.989 -8.155 0.989 -8.155 0.142 81.378
3594.083 0.143 81.305 0.989 -8.233 0.989 -8.233 0.143 81.305
3619.042 0.145 81.231 0.988 -8.31 0.988 -8.31 0.145 81.231
3644 0.146 81.158 0.988 -8.388 0.988 -8.388 0.146 81.158
3668.958 0.147 81.084 0.988 -8.466 0.988 -8.466 0.147 81.084
3693.917 0.149 81.011 0.988 -8.543 0.988 -8.543 0.149 81.011
3718.875 0.15 80.938 0.988 -8.62 0.988 -8.62 0.15 80.938
3743.833 0.151 80.865 0.987 -8.697 0.987 -8.697 0.151 80.865
3768.792 0.153 80.792 0.987 -8.774 0.987 -8.774 0.153 80.792
3793.75 0.154 80.719 0.987 -8.851 0.987 -8.851 0.154 80.719
3818.708 0.155 80.647 0.987 -8.927 0.987 -8.927 0.155 80.647
3843.667 0.156 80.574 0.987 -9.003 0.987 -9.003 0.156 80.574
3868.625 0.158 80.501 0.986 -9.08 0.986 -9.08 0.158 80.501
3893.583 0.159 80.429 0.986 -9.156 0.986 -9.156 0.159 80.429
3918.542 0.16 80.356 0.986 -9.231 0.986 -9.231 0.16 80.356
3943.5 0.162 80.284 0.986 -9.307 0.986 -9.307 0.162 80.284
3968.458 0.163 80.212 0.985 -9.383 0.985 -9.383 0.163 80.212
3993.417 0.164 80.14 0.985 -9.458 0.985 -9.458 0.164 80.14
4018.375 0.166 80.068 0.985 -9.534 0.985 -9.534 0.166 80.068
4043.333 0.167 79.996 0.985 -9.609 0.985 -9.609 0.167 79.996
4068.292 0.168 79.924 0.985 -9.684 0.985 -9.684 0.168 79.924
4093.25 0.17 79.852 0.984 -9.759 0.984 -9.759 0.17 79.852
4118.208 0.171 79.78 0.984 -9.833 0.984 -9.833 0.171 79.78
4143.167 0.172 79.709 0.984 -9.908 0.984 -9.908 0.172 79.709
4168.125 0.173 79.637 0.984 -9.983 0.984 -9.983 0.173 79.637
4193.083 0.175 79.565 0.983 -10.057 0.983 -10.057 0.175 79.565
4218.042 0.176 79.494 0.983 -10.131 0.983 -10.131 0.176 79.494
4243 0.177 79.423 0.983 -10.205 0.983 -10.205 0.177 79.423
4267.958 0.178 79.351 0.983 -10.279 0.983 -10.279 0.178 79.351
4292.917 0.18 79.28 0.983 -10.353 0.983 -10.353 0.18 79.28
4317.875 0.181 79.209 0.982 -10.427 0.982 -10.427 0.181 79.209
4342.833 0.182 79.138 0.982 -10.501 0.982 -10.501 0.182 79.138
4367.792 0.184 79.067 0.982 -10.574 0.982 -10.574 0.184 79.067
4392.75 0.185 78.996 0.982 -10.647 0.982 -10.647 0.185 78.996
4417.708 0.186 78.926 0.981 -10.721 0.981 -10.721 0.186 78.926
4442.667 0.187 78.855 0.981 -10.794 0.981 -10.794 0.187 78.855
4467.625 0.189 78.784 0.981 -10.867 0.981 -10.867 0.189 78.784
4492.583 0.19 78.714 0.981 -10.94 0.981 -10.94 0.19 78.714
4517.542 0.191 78.643 0.98 -11.013 0.98 -11.013 0.191 78.643
4542.5 0.192 78.573 0.98 -11.085 0.98 -11.085 0.192 78.573
4567.458 0.194 78.502 0.98 -11.158 0.98 -11.158 0.194 78.502
4592.417 0.195 78.432 0.98 -11.231 0.98 -11.231 0.195 78.432
4617.375 0.196 78.362 0.979 -11.303 0.979 -11.303 0.196 78.362
4642.333 0.197 78.292 0.979 -11.375 0.979 -11.375 0.197 78.292
4667.292 0.198 78.222 0.979 -11.447 0.979 -11.447 0.198 78.222
4692.25 0.2 78.152 0.979 -11.52 0.979 -11.52 0.2 78.152
4717.208 0.201 78.082 0.978 -11.591 0.978 -11.591 0.201 78.082
4742.167 0.202 78.012 0.978 -11.663 0.978 -11.663 0.202 78.012
4767.125 0.203 77.942 0.978 -11.735 0.978 -11.735 0.203 77.942
4792.083 0.205 77.873 0.978 -11.807 0.978 -11.807 0.205 77.873
4817.042 0.206 77.803 0.977 -11.878 0.977 -11.878 0.206 77.803
4842 0.207 77.734 0.977 -11.95 0.977 -11.95 0.207 77.734
4866.958 0.208 77.664 0.977 -12.021 0.977 -12.021 0.208 77.664
4891.917 0.209 77.595 0.977 -12.093 0.977 -12.093 0.209 77.595
4916.875 0.211 77.526 0.976 -12.164 0.976 -12.164 0.211 77.526
4941.833 0.212 77.456 0.976 -12.235 0.976 -12.235 0.212 77.456
4966.792 0.213 77.387 0.976 -12.306 0.976 -12.306 0.213 77.387
4991.75 0.214 77.318 0.976 -12.377 0.976 -12.377 0.214 77.318
5016.708 0.216 77.249 0.975 -12.447 0.975 -12.447 0.216 77.249
5041.667 0.217 77.18 0.975 -12.518 0.975 -12.518 0.217 77.18
5066.625 0.218 77.111 0.975 -12.589 0.975 -12.589 0.218 77.111
5091.583 0.219 77.042 0.975 -12.659 0.975 -12.659 0.219 77.042
5116.542 0.22 76.974 0.974 -12.73 0.974 -12.73 0.22 76.974
5141.5 0.222 76.905 0.974 -12.8 0.974 -12.8 0.222 76.905
5166.458 0.223 76.836 0.974 -12.87 0.974 -12.87 0.223 76.836
5191.417 0.224 76.768 0.973 -12.941 0.973 -12.941 0.224 76.768
5216.375 0.225 76.699 0.973 -13.011 0.973 -13.011 0.225 76.699
5241.333 0.226 76.631 0.973 -13.081 0.973 -13.081 0.226 76.631
5266.292 0.228 76.563 0.973 -13.151 0.973 -13.151 0.228 76.563
5291.25 0.229 76.494 0.972 -13.22 0.972 -13.22 0.229 76.494
5316.208 0.23 76.426 0.972 -13.29 0.972 -13.29 0.23 76.426
5341.167 0.231 76.358 0.972 -13.36 0.972 -13.36 0.231 76.358
5366.125 0.232 76.29 0.972 -13.429 0.972 -13.429 0.232 76.29
5391.083 0.233 76.222 0.971 -13.499 0.971 -13.499 0.233 76.222
5416.042 0.235 76.154 0.971 -13.568 0.971 -13.568 0.235 76.154
5441 0.236 76.086 0.971 -13.638 0.971 -13.638 0.236 76.086
5465.958 0.237 76.019 0.97 -13.707 0.97 -13.707 0.237 76.019
5490.917 0.238 75.951 0.97 -13.776 0.97 -13.776 0.238 75.951
5515.875 0.239 75.883 0.97 -13.845 0.97 -13.845 0.239 75.883
5540.833 0.24 75.816 0.97 -13.914 0.97 -13.914 0.24 75.816
5565.792 0.242 75.748 0.969 -13.983 0.969 -13.983 0.242 75.748
5590.75 0.243 75.681 0.969 -14.052 0.969 -14.052 0.243 75.681
5615.708 0.244 75.613 0.969 -14.121 0.969 -14.121 0.244 75.613
5640.667 0.245 75.546 0.968 -14.189 0.968 -14.189 0.245 75.546
5665.625 0.246 75.478 0.968 -14.258 0.968 -14.258 0.246 75.478
5690.583 0.247 75.411 0.968 -14.326 0.968 -14.326 0.247 75.411
5715.542 0.249 75.344 0.967 -14.395 0.967 -14.395 0.249 75.344
5740.5 0.25 75.277 0.967 -14.463 0.967 -14.463 0.25 75.277
5765.458 0.251 75.21 0.967 -14.532 0.967 -14.532 0.251 75.21
5790.417 0.252 75.143 0.967 -14.6 0.967 -14.6 0.252 75.143
5815.375 0.253 75.076 0.966 -14.668 0.966 -14.668 0.253 75.076
5840.333 0.254 75.009 0.966 -14.736 0.966 -14.736 0.254 75.009
5865.292 0.256 74.943 0.966 -14.804 0.966 -14.804 0.256 74.943
5890.25 0.257 74.876 0.965 -14.872 0.965 -14.872 0.257 74.876
5915.208 0.258 74.809 0.965 -14.94 0.965 -14.94 0.258 74.809
5940.167 0.259 74.743 0.965 -15.008 0.965 -15.008 0.259 74.743
5965.125 0.26 74.676 0.964 -15.075 0.964 -15.075 0.26 74.676
5990.083 0.261 74.61 0.964 -15.143 0.964 -15.143 0.261 74.61
6015.042 0.262 74.543 0.964 -15.21 0.964 -15.21 0.262 74.543
6040 0.264 74.477 0.964 -15.278 0.964 -15.278 0.264 74.477
6064.958 0.265 74.411 0.963 -15.345 0.963 -15.345 0.265 74.411
6089.917 0.266 74.345 0.963 -15.413 0.963 -15.413 0.266 74.345
6114.875 0.267 74.278 0.963 -15.48 0.963 -15.48 0.267 74.278
6139.833 0.268 74.212 0.962 -15.547 0.962 -15.547 0.268 74.212
6164.792 0.269 74.146 0.962 -15.614 0.962 -15.614 0.269 74.146
6189.75 0.27 74.08 0.962 -15.681 0.962 -15.681 0.27 74.08
6214.708 0.271 74.014 0.961 -15.748 0.961 -15.748 0.271 74.014
6239.667 0.273 73.949 0.961 -15.815 0.961 -15.815 0.273 73.949
6264.625 0.274 73.883 0.961 -15.882 0.961 -15.882 0.274 73.883
6289.583 0.275 73.817 0.96 -15.948 0.96 -15.948 0.275 73.817
6314.542 0.276 73.752 0.96 -16.015 0.96 -16.015 0.276 73.752
6339.5 0.277 73.686 0.96 -16.082 0.96 -16.082 0.277 73.686
6364.458 0.278 73.62 0.959 -16.148 0.959 -16.148 0.278 73.62
6389.417 0.279 73.555 0.959 -16.215 0.959 -16.215 0.279 73.555
6414.375 0.28 73.49 0.959 -16.281 0.959 -16.281 0.28 73.49
6439.333 0.281 73.424 0.958 -16.347 0.958 -16.347 0.281 73.424
6464.292 0.283 73.359 0.958 -16.414 0.958 -16.414 0.283 73.359
6489.25 0.284 73.294 0.958 -16.48 0.958 -16.48 0.284 73.294
6514.208 0.285 73.229 0.957 -16.546 0.957 -16.546 0.285 73.229
6539.167 0.286 73.163 0.957 -16.612 0.957 -16.612 0.286 73.163
6564.125 0.287 73.098 0.957 -16.678 0.957 -16.678 0.287 73.098
6589.083 0.288 73.033 0.956 -16.744 0.956 -16.744 0.288 73.033
6614.042 0.289 72.969 0.956 -16.81 0.956 -16.81 0.289 72.969
6639 0.29 72.904 0.956 -16.876 0.956 -16.876 0.29 72.904
6663.958 0.291 72.839 0.955 -16.941 0.955 -16.941 0.291 72.839
6688.917 0.292 72.774 0.955 -17.007 0.955 -17.007 0.292 72.774
6713.875 0.294 72.709 0.955 -17.072 0.955 -17.072 0.294 72.709
6738.833 0.295 72.645 0.954 -17.138 0.954 -17.138 0.295 72.645
6763.792 0.296 72.58 0.954 -17.203 0.954 -17.203 0.296 72.58
6788.75 0.297 72.516 0.954 -17.269 0.954 -17.269 0.297 72.516
6813.708 0.298 72.451 0.953 -17.334 0.953 -17.334 0.298 72.451
6838.667 0.299 72.387 0.953 -17.399 0.953 -17.399 0.299 72.387
6863.625 0.3 72.323 0.953 -17.464 0.953 -17.464 0.3 72.323
6888.583 0.301 72.258 0.952 -17.53 0.952 -17.53 0.301 72.258
6913.542 0.302 72.194 0.952 -17.595 0.952 -17.595 0.302 72.194
6938.5 0.303 72.13 0.952 -17.66 0.952 -17.66 0.303 72.13
6963.458 0.304 72.066 0.951 -17.724 0.951 -17.724 0.304 72.066
6988.417 0.306 72.002 0.951 -17.789 0.951 -17.789 0.306 72.002
7013.375 0.307 71.938 0.951 -17.854 0.951 -17.854 0.307 71.938
7038.333 0.308 71.874 0.95 -17.919 0.95 -17.919 0.308 71.874
7063.292 0.309 71.81 0.95 -17.983 0.95 -17.983 0.309 71.81
7088.25 0.31 71.746 0.95 -18.048 0.95 -18.048 0.31 71.746
7113.208 0.311 71.683 0.949 -18.113 0.949 -18.113 0.311 71.683
7138.167 0.312 71.619 0.949 -18.177 0.949 -18.177 0.312 71.619
7163.125 0.313 71.555 0.949 -18.241 0.949 -18.241 0.313 71.555
7188.083 0.314 71.492 0.948 -18.306 0.948 -18.306 0.314 71.492
7213.042 0.315 71.428 0.948 -18.37 0.948 -18.37 0.315 71.428
7238 0.316 71.365 0.948 -18.434 0.948 -18.434 0.316 71.365
7262.958 0.317 71.302 0.947 -18.498 0.947 -18.498 0.317 71.302
7287.917 0.318 71.238 0.947 -18.562 0.947 -18.562 0.318 71.238
7312.875 0.319 71.175 0.947 -18.626 0.947 -18.626 0.319 71.175
7337.833 0.32 71.112 0.946 -18.69 0.946 -18.69 0.32 71.112
7362.792 0.322 71.049 0.946 -18.754 0.946 -18.754 0.322 71.049
7387.75 0.323 70.986 0.945 -18.818 0.945 -18.818 0.323 70.986
7412.708 0.324 70.923 0.945 -18.882 0.945 -18.882 0.324 70.923
7437.667 0.325 70.86 0.945 -18.945 0.945 -18.945 0.325 70.86
7462.625 0.326 70.797 0.944 -19.009 0.944 -19.009 0.326 70.797
7487.583 0.327 70.734 0.944 -19.072 0.944 -19.072 0.327 70.734
7512.542 0.328 70.671 0.944 -19.136 0.944 -19.136 0.328 70.671
7537.5 0.329 70.608 0.943 -19.199 0.943 -19.199 0.329 70.608
7562.458 0.33 70.546 0.943 -19.263 0.943 -19.263 0.33 70.546
7587.417 0.331 70.483 0.943 -19.326 0.943 -19.326 0.331 70.483
7612.375 0.332 70.421 0.942 -19.389 0.942 -19.389 0.332 70.421
7637.333 0.333 70.358 0.942 -19.452 0.942 -19.452 0.333 70.358
7662.292 0.334 70.296 0.941 -19.515 0.941 -19.515 0.334 70.296
7687.25 0.335 70.233 0.941 -19.578 0.941 -19.578 0.335 70.233
7712.208 0.336 70.171 0.941 -19.641 0.941 -19.641 0.336 70.171
7737.167 0.337 70.109 0.94 -19.704 0.94 -19.704 0.337 70.109
7762.125 0.338 70.047 0.94 -19.767 0.94 -19.767 0.338 70.047
7787.083 0.339 69.984 0.94 -19.83 0.94 -19.83 0.339 69.984
7812.042 0.34 69.922 0.939 -19.893 0.939 -19.893 0.34 69.922
7837 0.341 69.86 0.939 -19.955 0.939 -19.955 0.341 69.86
7861.958 0.342 69.798 0.938 -20.018 0.938 -20.018 0.342 69.798
7886.917 0.343 69.736 0.938 -20.08 0.938 -20.08 0.343 69.736
7911.875 0.344 69.675 0.938 -20.143 0.938 -20.143 0.344 69.675
7936.833 0.345 69.613 0.937 -20.205 0.937 -20.205 0.345 69.613
7961.792 0.346 69.551 0.937 -20.268 0.937 -20.268 0.346 69.551
7986.75 0.347 69.489 0.937 -20.33 0.937 -20.33 0.347 69.489
8011.708 0.348 69.428 0.936 -20.392 0.936 -20.392 0.348 69.428
8036.667 0.349 69.366 0.936 -20.454 0.936 -20.454 0.349 69.366
8061.625 0.35 69.305 0.935 -20.516 0.935 -20.516 0.35 69.305
8086.583 0.351 69.243 0.935 -20.578 0.935 -20.578 0.351 69.243
8111.542 0.353 69.182 0.935 -20.64 0.935 -20.64 0.353 69.182
8136.5 0.354 69.121 0.934 -20.702 0.934 -20.702 0.354 69.121
8161.458 0.355 69.059 0.934 -20.764 0.934 -20.764 0.355 69.059
8186.417 0.356 68.998 0.934 -20.826 0.934 -20.826 0.356 68.998
8211.375 0.357 68.937 0.933 -20.888 0.933 -20.888 0.357 68.937
8236.333 0.358 68.876 0.933 -20.949 0.933 -20.949 0.358 68.876
8261.292 0.359 68.815 0.932 -21.011 0.932 -21.011 0.359 68.815
8286.25 0.36 68.754 0.932 -21.072 0.932 -21.072 0.36 68.754
8311.208 0.361 68.693 0.932 -21.134 0.932 -21.134 0.361 68.693
8336.167 0.362 68.632 0.931 -21.195 0.931 -21.195 0.362 68.632
8361.125 0.363 68.571 0.931 -21.257 0.931 -21.257 0.363 68.571
8386.083 0.364 68.51 0.93 -21.318 0.93 -21.318 0.364 68.51
8411.042 0.365 68.45 0.93 -21.379 0.93 -21.379 0.365 68.45
8436 0.366 68.389 0.93 -21.44 0.93 -21.44 0.366 68.389
8460.958 0.367 68.329 0.929 -21.501 0.929 -21.501 0.367 68.329
8485.917 0.368 68.268 0.929 -21.562 0.929 -21.562 0.368 68.268
8510.875 0.369 68.208 0.929 -21.623 0.929 -21.623 0.369 68.208
8535.833 0.369 68.147 0.928 -21.684 0.928 -21.684 0.369 68.147
8560.792 0.37 68.087 0.928 -21.745 0.928 -21.745 0.37 68.087
8585.75 0.371 68.027 0.927 -21.806 0.927 -21.806 0.371 68.027
8610.708 0.372 67.966 0.927 -21.867 0.927 -21.867 0.372 67.966
8635.667 0.373 67.906 0.927 -21.927 0.927 -21.927 0.373 67.906
8660.625 0.374 67.846 0.926 -21.988 0.926 -21.988 0.374 67.846
8685.583 0.375 67.786 0.926 -22.049 0.926 -22.049 0.375 67.786
8710.542 0.376 67.726 0.925 -22.109 0.925 -22.109 0.376 67.726
8735.5 0.377 67.666 0.925 -22.169 0.925 -22.169 0.377 67.666
8760.458 0.378 67.606 0.925 -22.23 0.925 -22.23 0.378 67.606
8785.417 0.379 67.546 0.924 -22.29 0.924 -22.29 0.379 67.546
8810.375 0.38 67.487 0.924 -22.35 0.924 -22.35 0.38 67.487
8835.333 0.381 67.427 0.923 -22.411 0.923 -22.411 0.381 67.427
8860.292 0.382 67.367 0.923 -22.471 0.923 -22.471 0.382 67.367
8885.25 0.383 67.308 0.923 -22.531 0.923 -22.531 0.383 67.308
8910.208 0.384 67.248 0.922 -22.591 0.922 -22.591 0.384 67.248
8935.167 0.385 67.189 0.922 -22.651 0.922 -22.651 0.385 67.189
8960.125 0.386 67.129 0.921 -22.711 0.921 -22.711 0.386 67.129
8985.083 0.387 67.07 0.921 -22.77 0.921 -22.77 0.387 67.07
9010.042 0.388 67.011 0.921 -22.83 0.921 -22.83 0.388 67.011
9035 0.389 66.951 0.92 -22.89 0.92 -22.89 0.389 66.951
9059.958 0.39 66.892 0.92 -22.95 0.92 -22.95 0.39 66.892
9084.917 0.391 66.833 0.919 -23.009 0.919 -23.009 0.391 66.833
9109.875 0.392 66.774 0.919 -23.069 0.919 -23.069 0.392 66.774
9134.833 0.393 66.715 0.919 -23.128 0.919 -23.128 0.393 66.715
9159.792 0.394 66.656 0.918 -23.187 0.918 -23.187 0.394 66.656
9184.75 0.395 66.597 0.918 -23.247 0.918 -23.247 0.395 66.597
9209.708 0.396 66.538 0.917 -23.306 0.917 -23.306 0.396 66.538
9234.667 0.397 66.48 0.917 -23.365 0.917 -23.365 0.397 66.48
9259.625 0.398 66.421 0.917 -23.424 0.917 -23.424 0.398 66.421
9284.583 0.398 66.362 0.916 -23.484 0.916 -23.484 0.398 66.362
9309.542 0.399 66.304 0.916 -23.543 0.916 -23.543 0.399 66.304
9334.5 0.4 66.245 0.915 -23.602 0.915 -23.602 0.4 66.245
9359.458 0.401 66.187 0.915 -23.66 0.915 -23.66 0.401 66.187
9384.417 0.402 66.128 0.914 -23.719 0.914 -23.719 0.402 66.128
9409.375 0.403 66.07 0.914 -23.778 0.914 -23.778 0.403 66.07
9434.333 0.404 66.012 0.914 -23.837 0.914 -23.837 0.404 66.012
9459.292 0.405 65.953 0.913 -23.896 0.913 -23.896 0.405 65.953
9484.25 0.406 65.895 0.913 -23.954 0.913 -23.954 0.406 65.895
9509.208 0.407 65.837 0.912 -24.013 0.912 -24.013 0.407 65.837
9534.167 0.408 65.779 0.912 -24.071 0.912 -24.071 0.408 65.779
9559.125 0.409 65.721 0.912 -24.13 0.912 -24.13 0.409 65.721
9584.083 0.41 65.663 0.911 -24.188 0.911 -24.188 0.41 65.663
9609.042 0.411 65.605 0.911 -24.246 0.911 -24.246 0.411 65.605
9634 0.412 65.547 0.91 -24.305 0.91 -24.305 0.412 65.547
9658.958 0.413 65.489 0.91 -24.363 0.91 -24.363 0.413 65.489
9683.917 0.413 65.432 0.909 -24.421 0.909 -24.421 0.413 65.432
9708.875 0.414 65.374 0.909 -24.479 0.909 -24.479 0.414 65.374
9733.833 0.415 65.316 0.909 -24.537 0.909 -24.537 0.415 65.316
9758.792 0.416 65.259 0.908 -24.595 0.908 -24.595 0.416 65.259
9783.75 0.417 65.201 0.908 -24.653 0.908 -24.653 0.417 65.201
9808.708 0.418 65.144 0.907 -24.711 0.907 -24.711 0.418 65.144
9833.667 0.419 65.086 0.907 -24.768 0.907 -24.768 0.419 65.086
9858.625 0.42 65.029 0.907 -24.826 0.907 -24.826 0.42 65.029
9883.583 0.421 64.972 0.906 -24.884 0.906 -24.884 0.421 64.972
9908.542 0.422 64.915 0.906 -24.941 0.906 -24.941 0.422 64.915
9933.5 0.423 64.857 0.905 -24.999 0.905 -24.999 0.423 64.857
9958.458 0.424 64.8 0.905 -25.056 0.905 -25.056 0.424 64.8
9983.417 0.424 64.743 0.904 -25.114 0.904 -25.114 0.424 64.743
10008.375 0.425 64.686 0.904 -25.171 0.904 -25.171 0.425 64.686
10033.333 0.426 64.629 0.904 -25.228 0.904 -25.228 0.426 64.629
10058.292 0.427 64.573 0.903 -25.286 0.903 -25.286 0.427 64.573
10083.25 0.428 64.516 0.903 -25.343 0.903 -25.343 0.428 64.516
10108.208 0.429 64.459 0.902 -25.4 0.902 -25.4 0.429 64.459
10133.167 0.43 64.402 0.902 -25.457 0.902 -25.457 0.43 64.402
10158.125 0.431 64.346 0.901 -25.514 0.901 -25.514 0.431 64.346
10183.083 0.432 64.289 0.901 -25.571 0.901 -25.571 0.432 64.289
10208.042 0.433 64.233 0.901 -25.628 0.901 -25.628 0.433 64.233
10233 0.433 64.176 0.9 -25.685 0.9 -25.685 0.433 64.176
10257.958 0.434 64.12 0.9 -25.741 0.9 -25.741 0.434 64.12
10282.917 0.435 64.063 0.899 -25.798 0.899 -25.798 0.435 64.063
10307.875 0.436 64.007 0.899 -25.855 0.899 -25.855 0.436 64.007
10332.833 0.437 63.951 0.898 -25.911 0.898 -25.911 0.437 63.951
10357.792 0.438 63.895 0.898 -25.968 0.898 -25.968 0.438 63.895
10382.75 0.439 63.839 0.898 -26.024 0.898 -26.024 0.439 63.839
10407.708 0.44 63.782 0.897 -26.081 0.897 -26.081 0.44 63.782
10432.667 0.441 63.726 0.897 -26.137 0.897 -26.137 0.441 63.726
10457.625 0.441 63.671 0.896 -26.193 0.896 -26.193 0.441 63.671
10482.583 0.442 63.615 0.896 -26.25 0.896 -26.25 0.442 63.615
10507.542 0.443 63.559 0.895 -26.306 0.895 -26.306 0.443 63.559
10532.5 0.444 63.503 0.895 -26.362 0.895 -26.362 0.444 63.503
10557.458 0.445 63.447 0.895 -26.418 0.895 -26.418 0.445 63.447
10582.417 0.446 63.392 0.894 -26.474 0.894 -26.474 0.446 63.392
10607.375 0.447 63.336 0.894 -26.53 0.894 -26.53 0.447 63.336
10632.333 0.448 63.281 0.893 -26.586 0.893 -26.586 0.448 63.281
10657.292 0.448 63.225 0.893 -26.641 0.893 -26.641 0.448 63.225
10682.25 0.449 63.17 0.892 -26.697 0.892 -26.697 0.449 63.17
10707.208 0.45 63.114 0.892 -26.753 0.892 -26.753 0.45 63.114
10732.167 0.451 63.059 0.891 -26.808 0.891 -26.808 0.451 63.059
10757.125 0.452 63.004 0.891 -26.864 0.891 -26.864 0.452 63.004
10782.083 0.453 62.949 0.891 -26.92 0.891 -26.92 0.453 62.949
10807.042 0.454 62.893 0.89 -26.975 0.89 -26.975 0.454 62.893
10832 0.454 62.838 0.89 -27.03 0.89 -27.03 0.454 62.838
10856.958 0.455 62.783 0.889 -27.086 0.889 -27.086 0.455 62.783
10881.917 0.456 62.728 0.889 -27.141 0.889 -27.141 0.456 62.728
10906.875 0.457 62.673 0.888 -27.196 0.888 -27.196 0.457 62.673
10931.833 0.458 62.619 0.888 -27.251 0.888 -27.251 0.458 62.619
10956.792 0.459 62.564 0.888 -27.306 0.888 -27.306 0.459 62.564
10981.75 0.46 62.509 0.887 -27.362 0.887 -27.362 0.46 62.509
11006.708 0.46 62.454 0.887 -27.417 0.887 -27.417 0.46 62.454
11031.667 0.461 62.4 0.886 -27.471 0.886 -27.471 0.461 62.4
11056.625 0.462 62.345 0.886 -27.526 0.886 -27.526 0.462 62.345
11081.583 0.463 62.291 0.885 -27.581 0.885 -27.581 0.463 62.291
11106.542 0.464 62.236 0.885 -27.636 0.885 -27.636 0.464 62.236
11131.5 0.465 62.182 0.884 -27.691 0.884 -27.691 0.465 62.182
11156.458 0.466 62.127 0.884 -27.745 0.884 -27.745 0.466 62.127
11181.417 0.466 62.073 0.884 -27.8 0.884 -27.8 0.466 62.073
11206.375 0.467 62.019 0.883 -27.854 0.883 -27.854 0.467 62.019
11231.333 0.468 61.965 0.883 -27.909 0.883 -27.909 0.468 61.965
11256.292 0.469 61.911 0.882 -27.963 0.882 -27.963 0.469 61.911
11281.25 0.47 61.857 0.882 -28.017 0.882 -28.017 0.47 61.857
11306.208 0.471 61.803 0.881 -28.072 0.881 -28.072 0.471 61.803
11331.167 0.471 61.749 0.881 -28.126 0.881 -28.126 0.471 61.749
11356.125 0.472 61.695 0.88 -28.18 0.88 -28.18 0.472 61.695
11381.083 0.473 61.641 0.88 -28.234 0.88 -28.234 0.473 61.641
11406.042 0.474 61.587 0.88 -28.288 0.88 -28.288 0.474 61.587
11431 0.475 61.534 0.879 -28.342 0.879 -28.342 0.475 61.534
11455.958 0.476 61.48 0.879 -28.396 0.879 -28.396 0.476 61.48
11480.917 0.476 61.426 0.878 -28.45 0.878 -28.45 0.476 61.426
11505.875 0.477 61.373 0.878 -28.504 0.878 -28.504 0.477 61.373
11530.833 0.478 61.319 0.877 -28.558 0.877 -28.558 0.478 61.319
11555.792 0.479 61.266 0.877 -28.611 0.877 -28.611 0.479 61.266
11580.75 0.48 61.213 0.876 -28.665 0.876 -28.665 0.48 61.213
11605.708 0.481 61.159 0.876 -28.718 0.876 -28.718 0.481 61.159
11630.667 0.481 61.106 0.876 -28.772 0.876 -28.772 0.481 61.106
11655.625 0.482 61.053 0.875 -28.825 0.875 -28.825 0.482 61.053
11680.583 0.483 61 0.875 -28.879 0.875 -28.879 0.483 61
11705.542 0.484 60.947 0.874 -28.932 0.874 -28.932 0.484 60.947
11730.5 0.485 60.894 0.874 -28.985 0.874 -28.985 0.485 60.894
11755.458 0.485 60.841 0.873 -29.039 0.873 -29.039 0.485 60.841
11780.417 0.486 60.788 0.873 -29.092 0.873 -29.092 0.486 60.788
11805.375 0.487 60.735 0.872 -29.145 0.872 -29.145 0.487 60.735
11830.333 0.488 60.682 0.872 -29.198 0.872 -29.198 0.488 60.682
11855.292 0.489 60.629 0.871 -29.251 0.871 -29.251 0.489 60.629
11880.25 0.489 60.577 0.871 -29.304 0.871 -29.304 0.489 60.577
11905.208 0.49 60.524 0.871 -29.357 0.871 -29.357 0.49 60.524
11930.167 0.491 60.472 0.87 -29.41 0.87 -29.41 0.491 60.472
11955.125 0.492 60.419 0.87 -29.462 0.87 -29.462 0.492 60.419
11980.083 0.493 60.367 0.869 -29.515 0.869 -29.515 0.493 60.367
12005.042 0.493 60.314 0.869 -29.568 0.869 -29.568 0.493 60.314
12030 0.494 60.262 0.868 -29.62 0.868 -29.62 0.494 60.262
12054.958 0.495 60.21 0.868 -29.673 0.868 -29.673 0.495 60.21
12079.917 0.496 60.157 0.867 -29.725 0.867 -29.725 0.496 60.157
12104.875 0.497 60.105 0.867 -29.778 0.867 -29.778 0.497 60.105
12129.833 0.497 60.053 0.866 -29.83 0.866 -29.83 0.497 60.053
12154.792 0.498 60.001 0.866 -29.882 0.866 -29.882 0.498 60.001
12179.75 0.499 59.949 0.866 -29.935 0.866 -29.935 0.499 59.949
12204.708 0.5 59.897 0.865 -29.987 0.865 -29.987 0.5 59.897
12229.667 0.501 59.845 0.865 -30.039 0.865 -30.039 0.501 59.845
12254.625 0.501 59.793 0.864 -30.091 0.864 -30.091 0.501 59.793
12279.583 0.502 59.742 0.864 -30.143 0.864 -30.143 0.502 59.742
12304.542 0.503 59.69 0.863 -30.195 0.863 -30.195 0.503 59.69
12329.5 0.504 59.638 0.863 -30.247 0.863 -30.247 0.504 59.638
12354.458 0.505 59.587 0.862 -30.299 0.862 -30.299 0.505 59.587
12379.417 0.505 59.535 0.862 -30.35 0.862 -30.35 0.505 59.535
12404.375 0.506 59.484 0.861 -30.402 0.861 -30.402 0.506 59.484
12429.333 0.507 59.432 0.861 -30.454 0.861 -30.454 0.507 59.432
12454.292 0.508 59.381 0.861 -30.505 0.861 -30.505 0.508 59.381
12479.25 0.508 59.33 0.86 -30.557 0.86 -30.557 0.508 59.33
12504.208 0.509 59.278 0.86 -30.609 0.86 -30.609 0.509 59.278
12529.167 0.51 59.227 0.859 -30.66 0.859 -30.66 0.51 59.227
12554.125 0.511 59.176 0.859 -30.711 0.859 -30.711 0.511 59.176
12579.083 0.511 59.125 0.858 -30.763 0.858 -30.763 0.511 59.125
12604.042 0.512 59.074 0.858 -30.814 0.858 -30.814 0.512 59.074
12629 0.513 59.023 0.857 -30.865 0.857 -30.865 0.513 59.023
12653.958 0.514 58.972 0.857 -30.916 0.857 -30.916 0.514 58.972
12678.917 0.515 58.921 0.856 -30.967 0.856 -30.967 0.515 58.921
12703.875 0.515 58.87 0.856 -31.018 0.856 -31.018 0.515 58.87
12728.833 0.516 58.819 0.856 -31.069 0.856 -31.069 0.516 58.819
12753.792 0.517 58.769 0.855 -31.12 0.855 -31.12 0.517 58.769
12778.75 0.518 58.718 0.855 -31.171 0.855 -31.171 0.518 58.718
12803.708 0.518 58.668 0.854 -31.222 0.854 -31.222 0.518 58.668
12828.667 0.519 58.617 0.854 -31.273 0.854 -31.273 0.519 58.617
12853.625 0.52 58.567 0.853 -31.323 0.853 -31.323 0.52 58.567
12878.583 0.521 58.516 0.853 -31.374 0.853 -31.374 0.521 58.516
12903.542 0.521 58.466 0.852 -31.425 0.852 -31.425 0.521 58.466
12928.5 0.522 58.415 0.852 -31.475 0.852 -31.475 0.522 58.415
12953.458 0.523 58.365 0.851 -31.526 0.851 -31.526 0.523 58.365
12978.417 0.524 58.315 0.851 -31.576 0.851 -31.576 0.524 58.315
13003.375 0.524 58.265 0.85 -31.626 0.85 -31.626 0.524 58.265
13028.333 0.525 58.215 0.85 -31.677 0.85 -31.677 0.525 58.215
13053.292 0.526 58.165 0.85 -31.727 0.85 -31.727 0.526 58.165
13078.25 0.527 58.115 0.849 -31.777 0.849 -31.777 0.527 58.115
13103.208 0.527 58.065 0.849 -31.827 0.849 -31.827 0.527 58.065
13128.167 0.528 58.015 0.848 -31.877 0.848 -31.877 0.528 58.015
13153.125 0.529 57.965 0.848 -31.927 0.848 -31.927 0.529 57.965
13178.083 0.53 57.916 0.847 -31.977 0.847 -31.977 0.53 57.916
13203.042 0.53 57.866 0.847 -32.027 0.847 -32.027 0.53 57.866
13228 0.531 57.816 0.846 -32.077 0.846 -32.077 0.531 57.816
13252.958 0.532 57.767 0.846 -32.127 0.846 -32.127 0.532 57.767
13277.917 0.533 57.717 0.845 -32.176 0.845 -32.176 0.533 57.717
13302.875 0.533 57.668 0.845 -32.226 0.845 -32.226 0.533 57.668
13327.833 0.534 57.618 0.844 -32.276 0.844 -32.276 0.534 57.618
13352.792 0.535 57.569 0.844 -32.325 0.844 -32.325 0.535 57.569
13377.75 0.535 57.52 0.844 -32.375 0.844 -32.375 0.535 57.52
13402.708 0.536 57.47 0.843 -32.424 0.843 -32.424 0.536 57.47
13427.667 0.537 57.421 0.843 -32.474 0.843 -32.474 0.537 57.421
13452.625 0.538 57.372 0.842 -32.523 0.842 -32.523 0.538 57.372
13477.583 0.538 57.323 0.842 -32.572 0.842 -32.572 0.538 57.323
13502.542 0.539 57.274 0.841 -32.621 0.841 -32.621 0.539 57.274
13527.5 0.54 57.225 0.841 -32.671 0.841 -32.671 0.54 57.225
13552.458 0.541 57.176 0.84 -32.72 0.84 -32.72 0.541 57.176
13577.417 0.541 57.127 0.84 -32.769 0.84 -32.769 0.541 57.127
13602.375 0.542 57.078 0.839 -32.818 0.839 -32.818 0.542 57.078
13627.333 0.543 57.03 0.839 -32.867 0.839 -32.867 0.543 57.03
13652.292 0.543 56.981 0.838 -32.916 0.838 -32.916 0.543 56.981
13677.25 0.544 56.932 0.838 -32.964 0.838 -32.964 0.544 56.932
13702.208 0.545 56.884 0.838 -33.013 0.838 -33.013 0.545 56.884
13727.167 0.546 56.835 0.837 -33.062 0.837 -33.062 0.546 56.835
13752.125 0.546 56.787 0.837 -33.111 0.837 -33.111 0.546 56.787
13777.083 0.547 56.738 0.836 -33.159 0.836 -33.159 0.547 56.738
13802.042 0.548 56.69 0.836 -33.208 0.836 -33.208 0.548 56.69
13827 0.548 56.642 0.835 -33.256 0.835 -33.256 0.548 56.642
13851.958 0.549 56.593 0.835 -33.305 0.835 -33.305 0.549 56.593
13876.917 0.55 56.545 0.834 -33.353 0.834 -33.353 0.55 56.545
13901.875 0.551 56.497 0.834 -33.401 0.834 -33.401 0.551 56.497
13926.833 0.551 56.449 0.833 -33.45 0.833 -33.45 0.551 56.449
13951.792 0.552 56.401 0.833 -33.498 0.833 -33.498 0.552 56.401
13976.75 0.553 56.353 0.832 -33.546 0.832 -33.546 0.553 56.353
14001.708 0.553 56.305 0.832 -33.594 0.832 -33.594 0.553 56.305
14026.667 0.554 56.257 0.832 -33.642 0.832 -33.642 0.554 56.257
14051.625 0.555 56.209 0.831 -33.69 0.831 -33.69 0.555 56.209
14076.583 0.555 56.162 0.831 -33.738 0.831 -33.738 0.555 56.162
14101.542 0.556 56.114 0.83 -33.786 0.83 -33.786 0.556 56.114
14126.5 0.557 56.066 0.83 -33.834 0.83 -33.834 0.557 56.066
14151.458 0.557 56.019 0.829 -33.882 0.829 -33.882 0.557 56.019
14176.417 0.558 55.971 0.829 -33.929 0.829 -33.929 0.558 55.971
14201.375 0.559 55.924 0.828 -33.977 0.828 -33.977 0.559 55.924
14226.333 0.56 55.876 0.828 -34.025 0.828 -34.025 0.56 55.876
14251.292 0.56 55.829 0.827 -34.072 0.827 -34.072 0.56 55.829
14276.25 0.561 55.782 0.827 -34.12 0.827 -34.12 0.561 55.782
14301.208 0.562 55.734 0.826 -34.167 0.826 -34.167 0.562 55.734
14326.167 0.562 55.687 0.826 -34.214 0.826 -34.214 0.562 55.687
14351.125 0.563 55.64 0.826 -34.262 0.826 -34.262 0.563 55.64
14376.083 0.564 55.593 0.825 -34.309 0.825 -34.309 0.564 55.593
14401.042 0.564 55.546 0.825 -34.356 0.825 -34.356 0.564 55.546
14426 0.565 55.499 0.824 -34.403 0.824 -34.403 0.565 55.499
14450.958 0.566 55.452 0.824 -34.451 0.824 -34.451 0.566 55.452
14475.917 0.566 55.405 0.823 -34.498 0.823 -34.498 0.566 55.405
14500.875 0.567 55.358 0.823 -34.545 0.823 -34.545 0.567 55.358
14525.833 0.568 55.311 0.822 -34.592 0.822 -34.592 0.568 55.311
14550.792 0.568 55.265 0.822 -34.638 0.822 -34.638 0.568 55.265
14575.75 0.569 55.218 0.821 -34.685 0.821 -34.685 0.569 55.218
14600.708 0.57 55.171 0.821 -34.732 0.821 -34.732 0.57 55.171
14625.667 0.57 55.125 0.82 -34.779 0.82 -34.779 0.57 55.125
14650.625 0.571 55.078 0.82 -34.825 0.82 -34.825 0.571 55.078
14675.583 0.572 55.032 0.819 -34.872 0.819 -34.872 0.572 55.032
14700.542 0.572 54.985 0.819 -34.919 0.819 -34.919 0.572 54.985
14725.5 0.573 54.939 0.819 -34.965 0.819 -34.965 0.573 54.939
14750.458 0.574 54.893 0.818 -35.012 0.818 -35.012 0.574 54.893
14775.417 0.574 54.846 0.818 -35.058 0.818 -35.058 0.574 54.846
14800.375 0.575 54.8 0.817 -35.104 0.817 -35.104 0.575 54.8
14825.333 0.576 54.754 0.817 -35.151 0.817 -35.151 0.576 54.754
14850.292 0.576 54.708 0.816 -35.197 0.816 -35.197 0.576 54.708
14875.25 0.577 54.662 0.816 -35.243 0.816 -35.243 0.577 54.662
14900.208 0.578 54.616 0.815 -35.289 0.815 -35.289 0.578 54.616
14925.167 0.578 54.57 0.815 -35.335 0.815 -35.335 0.578 54.57
14950.125 0.579 54.524 0.814 -35.381 0.814 -35.381 0.579 54.524
14975.083 0.58 54.478 0.814 -35.427 0.814 -35.427 0.58 54.478
15000.042 0.58 54.433 0.813 -35.473 0.813 -35.473 0.58 54.433
15025 0.581 54.387 0.813 -35.519 0.813 -35.519 0.581 54.387
15049.958 0.582 54.341 0.813 -35.565 0.813 -35.565 0.582 54.341
15074.917 0.582 54.296 0.812 -35.611 0.812 -35.611 0.582 54.296
15099.875 0.583 54.25 0.812 -35.656 0.812 -35.656 0.583 54.25
15124.833 0.584 54.205 0.811 -35.702 0.811 -35.702 0.584 54.205
15149.792 0.584 54.159 0.811 -35.748 0.811 -35.748 0.584 54.159
15174.75 0.585 54.114 0.81 -35.793 0.81 -35.793 0.585 54.114
15199.708 0.586 54.069 0.81 -35.839 0.81 -35.839 0.586 54.069
15224.667 0.586 54.023 0.809 -35.884 0.809 -35.884 0.586 54.023
15249.625 0.587 53.978 0.809 -35.93 0.809 -35.93 0.587 53.978
15274.583 0.587 53.933 0.808 -35.975 0.808 -35.975 0.587 53.933
15299.542 0.588 53.888 0.808 -36.02 0.808 -36.02 0.588 53.888
15324.5 0.589 53.843 0.807 -36.065 0.807 -36.065 0.589 53.843
15349.458 0.589 53.798 0.807 -36.111 0.807 -36.111 0.589 53.798
15374.417 0.59 53.753 0.806 -36.156 0.806 -36.156 0.59 53.753
15399.375 0.591 53.708 0.806 -36.201 0.806 -36.201 0.591 53.708
15424.333 0.591 53.663 0.806 -36.246 0.806 -36.246 0.591 53.663
15449.292 0.592 53.618 0.805 -36.291 0.805 -36.291 0.592 53.618
15474.25 0.593 53.573 0.805 -36.336 0.805 -36.336 0.593 53.573
15499.208 0.593 53.529 0.804 -36.38 0.804 -36.38 0.593 53.529
15524.167 0.594 53.484 0.804 -36.425 0.804 -36.425 0.594 53.484
15549.125 0.594 53.439 0.803 -36.47 0.803 -36.47 0.594 53.439
15574.083 0.595 53.395 0.803 -36.515 0.803 -36.515 0.595 53.395
15599.042 0.596 53.35 0.802 -36.559 0.802 -36.559 0.596 53.35
15624 0.596 53.306 0.802 -36.604 0.802 -36.604 0.596 53.306
15648.958 0.597 53.262 0.801 -36.648 0.801 -36.648 0.597 53.262
15673.917 0.598 53.217 0.801 -36.693 0.801 -36.693 0.598 53.217
15698.875 0.598 53.173 0.8 -36.737 0.8 -36.737 0.598 53.173
15723.833 0.599 53.129 0.8 -36.782 0.8 -36.782 0.599 53.129
15748.792 0.599 53.084 0.8 -36.826 0.8 -36.826 0.599 53.084
15773.75 0.6 53.04 0.799 -36.87 0.799 -36.87 0.6 53.04
15798.708 0.601 52.996 0.799 -36.915 0.799 -36.915 0.601 52.996
15823.667 0.601 52.952 0.798 -36.959 0.798 -36.959 0.601 52.952
15848.625 0.602 52.908 0.798 -37.003 0.798 -37.003 0.602 52.908
15873.583 0.602 52.864 0.797 -37.047 0.797 -37.047 0.602 52.864
15898.542 0.603 52.82 0.797 -37.091 0.797 -37.091 0.603 52.82
15923.5 0.604 52.777 0.796 -37.135 0.796 -37.135 0.604 52.777
15948.458 0.604 52.733 0.796 -37.179 0.796 -37.179 0.604 52.733
15973.417 0.605 52.689 0.795 -37.223 0.795 -37.223 0.605 52.689
15998.375 0.606 52.646 0.795 -37.266 0.795 -37.266 0.606 52.646
16023.333 0.606 52.602 0.794 -37.31 0.794 -37.31 0.606 52.602
16048.292 0.607 52.558 0.794 -37.354 0.794 -37.354 0.607 52.558
16073.25 0.607 52.515 0.794 -37.398 0.794 -37.398 0.607 52.515
16098.208 0.608 52.471 0.793 -37.441 0.793 -37.441 0.608 52.471
16123.167 0.609 52.428 0.793 -37.485 0.793 -37.485 0.609 52.428
16148.125 0.609 52.385 0.792 -37.528 0.792 -37.528 0.609 52.385
16173.083 0.61 52.341 0.792 -37.572 0.792 -37.572 0.61 52.341
16198.042 0.61 52.298 0.791 -37.615 0.791 -37.615 0.61 52.298
16223 0.611 52.255 0.791 -37.658 0.791 -37.658 0.611 52.255
16247.958 0.612 52.212 0.79 -37.702 0.79 -37.702 0.612 52.212
16272.917 0.612 52.169 0.79 -37.745 0.79 -37.745 0.612 52.169
16297.875 0.613 52.126 0.789 -37.788 0.789 -37.788 0.613 52.126
16322.833 0.613 52.083 0.789 -37.831 0.789 -37.831 0.613 52.083
16347.792 0.614 52.04 0.788 -37.874 0.788 -37.874 0.614 52.04
16372.75 0.615 51.997 0.788 -37.917 0.788 -37.917 0.615 51.997
16397.708 0.615 51.954 0.788 -37.96 0.788 -37.96 0.615 51.954
16422.667 0.616 51.911 0.787 -38.003 0.787 -38.003 0.616 51.911
16447.625 0.616 51.868 0.787 -38.046 0.787 -38.046 0.616 51.868
16472.583 0.617 51.826 0.786 -38.089 0.786 -38.089 0.617 51.826
16497.542 0.617 51.783 0.786 -38.132 0.786 -38.132 0.617 51.783
16522.5 0.618 51.74 0.785 -38.174 0.785 -38.174 0.618 51.74
16547.458 0.619 51.698 0.785 -38.217 0.785 -38.217 0.619 51.698
16572.417 0.619 51.655 0.784 -38.26 0.784 -38.26 0.619 51.655
16597.375 0.62 51.613 0.784 -38.302 0.784 -38.302 0.62 51.613
16622.333 0.62 51.571 0.783 -38.345 0.783 -38.345 0.62 51.571
16647.292 0.621 51.528 0.783 -38.387 0.783 -38.387 0.621 51.528
16672.25 0.622 51.486 0.782 -38.43 0.782 -38.43 0.622 51.486
16697.208 0.622 51.444 0.782 -38.472 0.782 -38.472 0.622 51.444
16722.167 0.623 51.402 0.782 -38.514 0.782 -38.514 0.623 51.402
16747.125 0.623 51.359 0.781 -38.557 0.781 -38.557 0.623 51.359
16772.083 0.624 51.317 0.781 -38.599 0.781 -38.599 0.624 51.317
16797.042 0.624 51.275 0.78 -38.641 0.78 -38.641 0.624 51.275
16822 0.625 51.233 0.78 -38.683 0.78 -38.683 0.625 51.233
16846.958 0.626 51.191 0.779 -38.725 0.779 -38.725 0.626 51.191
16871.917 0.626 51.149 0.779 -38.767 0.779 -38.767 0.626 51.149
16896.875 0.627 51.108 0.778 -38.809 0.778 -38.809 0.627 51.108
16921.833 0.627 51.066 0.778 -38.851 0.778 -38.851 0.627 51.066
16946.792 0.628 51.024 0.777 -38.893 0.777 -38.893 0.628 51.024
16971.75 0.628 50.982 0.777 -38.935 0.777 -38.935 0.628 50.982
16996.708 0.629 50.941 0.776 -38.976 0.776 -38.976 0.629 50.941
17021.667 0.63 50.899 0.776 -39.018 0.776 -39.018 0.63 50.899
17046.625 0.63 50.858 0.776 -39.06 0.776 -39.06 0.63 50.858
17071.583 0.631 50.816 0.775 -39.101 0.775 -39.101 0.631 50.816
17096.542 0.631 50.775 0.775 -39.143 0.775 -39.143 0.631 50.775
17121.5 0.632 50.733 0.774 -39.184 0.774 -39.184 0.632 50.733
17146.458 0.632 50.692 0.774 -39.226 0.774 -39.226 0.632 50.692
17171.417 0.633 50.651 0.773 -39.267 0.773 -39.267 0.633 50.651
17196.375 0.633 50.609 0.773 -39.309 0.773 -39.309 0.633 50.609
17221.333 0.634 50.568 0.772 -39.35 0.772 -39.35 0.634 50.568
17246.292 0.635 50.527 0.772 -39.391 0.772 -39.391 0.635 50.527
17271.25 0.635 50.486 0.771 -39.432 0.771 -39.432 0.635 50.486
17296.208 0.636 50.445 0.771 -39.474 0.771 -39.474 0.636 50.445
17321.167 0.636 50.404 0.771 -39.515 0.771 -39.515 0.636 50.404
17346.125 0.637 50.363 0.77 -39.556 0.77 -39.556 0.637 50.363
17371.083 0.637 50.322 0.77 -39.597 0.77 -39.597 0.637 50.322
17396.042 0.638 50.281 0.769 -39.638 0.769 -39.638 0.638 50.281
17421 0.638 50.241 0.769 -39.679 0.769 -39.679 0.638 50.241
17445.958 0.639 50.2 0.768 -39.72 0.768 -39.72 0.639 50.2
17470.917 0.64 50.159 0.768 -39.76 0.768 -39.76 0.64 50.159
17495.875 0.64 50.118 0.767 -39.801 0.767 -39.801 0.64 50.118
17520.833 0.641 50.078 0.767 -39.842 0.767 -39.842 0.641 50.078
17545.792 0.641 50.037 0.766 -39.883 0.766 -39.883 0.641 50.037
17570.75 0.642 49.997 0.766 -39.923 0.766 -39.923 0.642 49.997
17595.708 0.642 49.956 0.766 -39.964 0.766 -39.964 0.642 49.956
17620.667 0.643 49.916 0.765 -40.004 0.765 -40.004 0.643 49.916
17645.625 0.643 49.876 0.765 -40.045 0.765 -40.045 0.643 49.876
17670.583 0.644 49.835 0.764 -40.085 0.764 -40.085 0.644 49.835
17695.542 0.644 49.795 0.764 -40.126 0.764 -40.126 0.644 49.795
17720.5 0.645 49.755 0.763 -40.166 0.763 -40.166 0.645 49.755
17745.458 0.646 49.715 0.763 -40.206 0.763 -40.206 0.646 49.715
17770.417 0.646 49.674 0.762 -40.246 0.762 -40.246 0.646 49.674
17795.375 0.647 49.634 0.762 -40.287 0.762 -40.287 0.647 49.634
17820.333 0.647 49.594 0.761 -40.327 0.761 -40.327 0.647 49.594
17845.292 0.648 49.554 0.761 -40.367 0.761 -40.367 0.648 49.554
17870.25 0.648 49.514 0.761 -40.407 0.761 -40.407 0.648 49.514
17895.208 0.649 49.475 0.76 -40.447 0.76 -40.447 0.649 49.475
17920.167 0.649 49.435 0.76 -40.487 0.76 -40.487 0.649 49.435
17945.125 0.65 49.395 0.759 -40.527 0.759 -40.527 0.65 49.395
17970.083 0.65 49.355 0.759 -40.566 0.759 -40.566 0.65 49.355
17995.042 0.651 49.316 0.758 -40.606 0.758 -40.606 0.651 49.316
18020 0.651 49.276 0.758 -40.646 0.758 -40.646 0.651 49.276
18044.958 0.652 49.236 0.757 -40.686 0.757 -40.686 0.652 49.236
18069.917 0.652 49.197 0.757 -40.725 0.757 -40.725 0.652 49.197
18094.875 0.653 49.157 0.757 -40.765 0.757 -40.765 0.653 49.157
18119.833 0.653 49.118 0.756 -40.805 0.756 -40.805 0.653 49.118
18144.792 0.654 49.078 0.756 -40.844 0.756 -40.844 0.654 49.078
18169.75 0.655 49.039 0.755 -40.884 0.755 -40.884 0.655 49.039
18194.708 0.655 49 0.755 -40.923 0.755 -40.923 0.655 49
18219.667 0.656 48.961 0.754 -40.962 0.754 -40.962 0.656 48.961
18244.625 0.656 48.921 0.754 -41.002 0.754 -41.002 0.656 48.921
18269.583 0.657 48.882 0.753 -41.041 0.753 -41.041 0.657 48.882
18294.542 0.657 48.843 0.753 -41.08 0.753 -41.08 0.657 48.843
18319.5 0.658 48.804 0.752 -41.119 0.752 -41.119 0.658 48.804
18344.458 0.658 48.765 0.752 -41.158 0.752 -41.158 0.658 48.765
18369.417 0.659 48.726 0.752 -41.198 0.752 -41.198 0.659 48.726
18394.375 0.659 48.687 0.751 -41.237 0.751 -41.237 0.659 48.687
18419.333 0.66 48.648 0.751 -41.276 0.751 -41.276 0.66 48.648
18444.292 0.66 48.609 0.75 -41.314 0.75 -41.314 0.66 48.609
18469.25 0.661 48.571 0.75 -41.353 0.75 -41.353 0.661 48.571
18494.208 0.661 48.532 0.749 -41.392 0.749 -41.392 0.661 48.532
18519.167 0.662 48.493 0.749 -41.431 0.749 -41.431 0.662 48.493
18544.125 0.662 48.454 0.748 -41.47 0.748 -41.47 0.662 48.454
18569.083 0.663 48.416 0.748 -41.508 0.748 -41.508 0.663 48.416
18594.042 0.663 48.377 0.748 -41.547 0.748 -41.547 0.663 48.377
18619 0.664 48.339 0.747 -41.586 0.747 -41.586 0.664 48.339
18643.958 0.664 48.3 0.747 -41.624 0.747 -41.624 0.664 48.3
18668.917 0.665 48.262 0.746 -41.663 0.746 -41.663 0.665 48.262
18693.875 0.665 48.224 0.746 -41.701 0.746 -41.701 0.665 48.224
18718.833 0.666 48.185 0.745 -41.74 0.745 -41.74 0.666 48.185
18743.792 0.666 48.147 0.745 -41.778 0.745 -41.778 0.666 48.147
18768.75 0.667 48.109 0.744 -41.816 0.744 -41.816 0.667 48.109
18793.708 0.667 48.07 0.744 -41.855 0.744 -41.855 0.667 48.07
18818.667 0.668 48.032 0.744 -41.893 0.744 -41.893 0.668 48.032
18843.625 0.668 47.994 0.743 -41.931 0.743 -41.931 0.668 47.994
18868.583 0.669 47.956 0.743 -41.969 0.743 -41.969 0.669 47.956
18893.542 0.669 47.918 0.742 -42.007 0.742 -42.007 0.669 47.918
18918.5 0.67 47.88 0.742 -42.045 0.742 -42.045 0.67 47.88
18943.458 0.67 47.842 0.741 -42.083 0.741 -42.083 0.67 47.842
18968.417 0.671 47.804 0.741 -42.121 0.741 -42.121 0.671 47.804
18993.375 0.671 47.767 0.74 -42.159 0.74 -42.159 0.671 47.767
19018.333 0.672 47.729 0.74 -42.197 0.74 -42.197 0.672 47.729
19043.292 0.672 47.691 0.74 -42.235 0.74 -42.235 0.672 47.691
19068.25 0.673 47.653 0.739 -42.273 0.739 -42.273 0.673 47.653
19093.208 0.673 47.616 0.739 -42.311 0.739 -42.311 0.673 47.616
19118.167 0.674 47.578 0.738 -42.348 0.738 -42.348 0.674 47.578
19143.125 0.674 47.541 0.738 -42.386 0.738 -42.386 0.674 47.541
19168.083 0.675 47.503 0.737 -42.423 0.737 -42.423 0.675 47.503
19193.042 0.675 47.466 0.737 -42.461 0.737 -42.461 0.675 47.466
19218 0.676 47.428 0.736 -42.499 0.736 -42.499 0.676 47.428
19242.958 0.676 47.391 0.736 -42.536 0.736 -42.536 0.676 47.391
19267.917 0.677 47.354 0.736 -42.573 0.736 -42.573 0.677 47.354
19292.875 0.677 47.316 0.735 -42.611 0.735 -42.611 0.677 47.316
19317.833 0.677 47.279 0.735 -42.648 0.735 -42.648 0.677 47.279
19342.792 0.678 47.242 0.734 -42.685 0.734 -42.685 0.678 47.242
19367.75 0.678 47.205 0.734 -42.723 0.734 -42.723 0.678 47.205
19392.708 0.679 47.168 0.733 -42.76 0.733 -42.76 0.679 47.168
19417.667 0.679 47.131 0.733 -42.797 0.733 -42.797 0.679 47.131
19442.625 0.68 47.094 0.732 -42.834 0.732 -42.834 0.68 47.094
19467.583 0.68 47.057 0.732 -42.871 0.732 -42.871 0.68 47.057
19492.542 0.681 47.02 0.732 -42.908 0.732 -42.908 0.681 47.02
19517.5 0.681 46.983 0.731 -42.945 0.731 -42.945 0.681 46.983
19542.458 0.682 46.946 0.731 -42.982 0.731 -42.982 0.682 46.946
19567.417 0.682 46.909 0.73 -43.019 0.73 -43.019 0.682 46.909
19592.375 0.683 46.873 0.73 -43.056 0.73 -43.056 0.683 46.873
19617.333 0.683 46.836 0.729 -43.092 0.729 -43.092 0.683 46.836
19642.292 0.684 46.799 0.729 -43.129 0.729 -43.129 0.684 46.799
19667.25 0.684 46.763 0.729 -43.166 0.729 -43.166 0.684 46.763
19692.208 0.685 46.726 0.728 -43.202 0.728 -43.202 0.685 46.726
19717.167 0.685 46.69 0.728 -43.239 0.728 -43.239 0.685 46.69
19742.125 0.686 46.653 0.727 -43.276 0.727 -43.276 0.686 46.653
19767.083 0.686 46.617 0.727 -43.312 0.727 -43.312 0.686 46.617
19792.042 0.686 46.58 0.726 -43.349 0.726 -43.349 0.686 46.58
19817 0.687 46.544 0.726 -43.385 0.726 -43.385 0.687 46.544
19841.958 0.687 46.508 0.725 -43.421 0.725 -43.421 0.687 46.508
19866.917 0.688 46.471 0.725 -43.458 0.725 -43.458 0.688 46.471
19891.875 0.688 46.435 0.725 -43.494 0.725 -43.494 0.688 46.435
19916.833 0.689 46.399 0.724 -43.53 0.724 -43.53 0.689 46.399
19941.792 0.689 46.363 0.724 -43.567 0.724 -43.567 0.689 46.363
19966.75 0.69 46.327 0.723 -43.603 0.723 -43.603 0.69 46.327
19991.708 0.69 46.291 0.723 -43.639 0.723 -43.639 0.69 46.291
20016.667 0.691 46.255 0.722 -43.675 0.722 -43.675 0.691 46.255
20041.625 0.691 46.219 0.722 -43.711 0.722 -43.711 0.691 46.219
20066.583 0.691 46.183 0.722 -43.747 0.722 -43.747 0.691 46.183
20091.542 0.692 46.147 0.721 -43.783 0.721 -43.783 0.692 46.147
20116.5 0.692 46.111 0.721 -43.819 0.721 -43.819 0.692 46.111
20141.458 0.693 46.076 0.72 -43.855 0.72 -43.855 0.693 46.076
20166.417 0.693 46.04 0.72 -43.89 0.72 -43.89 0.693 46.04
20191.375 0.694 46.004 0.719 -43.926 0.719 -43.926 0.694 46.004
20216.333 0.694 45.969 0.719 -43.962 0.719 -43.962 0.694 45.969
20241.292 0.695 45.933 0.719 -43.998 0.719 -43.998 0.695 45.933
20266.25 0.695 45.897 0.718 -44.033 0.718 -44.033 0.695 45.897
20291.208 0.696 45.862 0.718 -44.069 0.718 -44.069 0.696 45.862
20316.167 0.696 45.826 0.717 -44.104 0.717 -44.104 0.696 45.826
20341.125 0.696 45.791 0.717 -44.14 0.717 -44.14 0.696 45.791
20366.083 0.697 45.756 0.716 -44.175 0.716 -44.175 0.697 45.756
20391.042 0.697 45.72 0.716 -44.211 0.716 -44.211 0.697 45.72
20416 0.698 45.685 0.716 -44.246 0.716 -44.246 0.698 45.685
20440.958 0.698 45.65 0.715 -44.282 0.715 -44.282 0.698 45.65
20465.917 0.699 45.615 0.715 -44.317 0.715 -44.317 0.699 45.615
20490.875 0.699 45.579 0.714 -44.352 0.714 -44.352 0.699 45.579
20515.833 0.7 45.544 0.714 -44.387 0.714 -44.387 0.7 45.544
20540.792 0.7 45.509 0.713 -44.422 0.713 -44.422 0.7 45.509
20565.75 0.7 45.474 0.713 -44.458 0.713 -44.458 0.7 45.474
20590.708 0.701 45.439 0.713 -44.493 0.713 -44.493 0.701 45.439
20615.667 0.701 45.404 0.712 -44.528 0.712 -44.528 0.701 45.404
20640.625 0.702 45.369 0.712 -44.563 0.712 -44.563 0.702 45.369
20665.583 0.702 45.334 0.711 -44.598 0.711 -44.598 0.702 45.334
20690.542 0.703 45.3 0.711 -44.633 0.711 -44.633 0.703 45.3
20715.5 0.703 45.265 0.71 -44.667 0.71 -44.667 0.703 45.265
20740.458 0.703 45.23 0.71 -44.702 0.71 -44.702 0.703 45.23
20765.417 0.704 45.195 0.71 -44.737 0.71 -44.737 0.704 45.195
20790.375 0.704 45.161 0.709 -44.772 0.709 -44.772 0.704 45.161
20815.333 0.705 45.126 0.709 -44.806 0.709 -44.806 0.705 45.126
20840.292 0.705 45.091 0.708 -44.841 0.708 -44.841 0.705 45.091
20865.25 0.706 45.057 0.708 -44.876 0.708 -44.876 0.706 45.057
20890.208 0.706 45.022 0.707 -44.91 0.707 -44.91 0.706 45.022
20915.167 0.706 44.988 0.707 -44.945 0.707 -44.945 0.706 44.988
20940.125 0.707 44.954 0.707 -44.979 0.707 -44.979 0.707 44.954
20965.083 0.707 44.919 0.706 -45.014 0.706 -45.014 0.707 44.919
20990.042 0.708 44.885 0.706 -45.048 0.706 -45.048 0.708 44.885
21015 0.708 44.851 0.705 -45.083 0.705 -45.083 0.708 44.851
21039.958 0.709 44.816 0.705 -45.117 0.705 -45.117 0.709 44.816
21064.917 0.709 44.782 0.704 -45.151 0.704 -45.151 0.709 44.782
21089.875 0.709 44.748 0.704 -45.185 0.704 -45.185 0.709 44.748
21114.833 0.71 44.714 0.704 -45.22 0.704 -45.22 0.71 44.714
21139.792 0.71 44.68 0.703 -45.254 0.703 -45.254 0.71 44.68
21164.75 0.711 44.646 0.703 -45.288 0.703 -45.288 0.711 44.646
21189.708 0.711 44.612 0.702 -45.322 0.702 -45.322 0.711 44.612
21214.667 0.711 44.578 0.702 -45.356 0.702 -45.356 0.711 44.578
21239.625 0.712 44.544 0.701 -45.39 0.701 -45.39 0.712 44.544
21264.583 0.712 44.51 0.701 -45.424 0.701 -45.424 0.712 44.51
21289.542 0.713 44.476 0.701 -45.458 0.701 -45.458 0.713 44.476
21314.5 0.713 44.442 0.7 -45.492 0.7 -45.492 0.713 44.442
21339.458 0.714 44.409 0.7 -45.526 0.7 -45.526 0.714 44.409
21364.417 0.714 44.375 0.699 -45.559 0.699 -45.559 0.714 44.375
21389.375 0.714 44.341 0.699 -45.593 0.699 -45.593 0.714 44.341
21414.333 0.715 44.308 0.699 -45.627 0.699 -45.627 0.715 44.308
21439.292 0.715 44.274 0.698 -45.66 0.698 -45.66 0.715 44.274
21464.25 0.716 44.241 0.698 -45.694 0.698 -45.694 0.716 44.241
21489.208 0.716 44.207 0.697 -45.728 0.697 -45.728 0.716 44.207
21514.167 0.716 44.174 0.697 -45.761 0.697 -45.761 0.716 44.174
21539.125 0.717 44.14 0.696 -45.795 0.696 -45.795 0.717 44.14
21564.083 0.717 44.107 0.696 -45.828 0.696 -45.828 0.717 44.107
21589.042 0.718 44.073 0.696 -45.862 0.696 -45.862 0.718 44.073
21614 0.718 44.04 0.695 -45.895 0.695 -45.895 0.718 44.04
21638.958 0.718 44.007 0.695 -45.928 0.695 -45.928 0.718 44.007
21663.917 0.719 43.974 0.694 -45.962 0.694 -45.962 0.719 43.974
21688.875 0.719 43.94 0.694 -45.995 0.694 -45.995 0.719 43.94
21713.833 0.72 43.907 0.693 -46.028 0.693 -46.028 0.72 43.907
21738.792 0.72 43.874 0.693 -46.061 0.693 -46.061 0.72 43.874
21763.75 0.72 43.841 0.693 -46.094 0.693 -46.094 0.72 43.841
21788.708 0.721 43.808 0.692 -46.127 0.692 -46.127 0.721 43.808
21813.667 0.721 43.775 0.692 -46.161 0.692 -46.161 0.721 43.775
21838.625 0.722 43.742 0.691 -46.194 0.691 -46.194 0.722 43.742
21863.583 0.722 43.709 0.691 -46.227 0.691 -46.227 0.722 43.709
21888.542 0.722 43.676 0.691 -46.259 0.691 -46.259 0.722 43.676
21913.5 0.723 43.644 0.69 -46.292 0.69 -46.292 0.723 43.644
21938.458 0.723 43.611 0.69 -46.325 0.69 -46.325 0.723 43.611
21963.417 0.724 43.578 0.689 -46.358 0.689 -46.358 0.724 43.578
21988.375 0.724 43.545 0.689 -46.391 0.689 -46.391 0.724 43.545
22013.333 0.724 43.513 0.689 -46.424 0.689 -46.424 0.724 43.513
22038.292 0.725 43.48 0.688 -46.456 0.688 -46.456 0.725 43.48
22063.25 0.725 43.447 0.688 -46.489 0.688 -46.489 0.725 43.447
22088.208 0.726 43.415 0.687 -46.522 0.687 -46.522 0.726 43.415
22113.167 0.726 43.382 0.687 -46.554 0.687 -46.554 0.726 43.382
22138.125 0.726 43.35 0.686 -46.587 0.686 -46.587 0.726 43.35
22163.083 0.727 43.318 0.686 -46.619 0.686 -46.619 0.727 43.318
22188.042 0.727 43.285 0.686 -46.652 0.686 -46.652 0.727 43.285
22213 0.728 43.253 0.685 -46.684 0.685 -46.684 0.728 43.253
22237.958 0.728 43.22 0.685 -46.716 0.685 -46.716 0.728 43.22
22262.917 0.728 43.188 0.684 -46.749 0.684 -46.749 0.728 43.188
22287.875 0.729 43.156 0.684 -46.781 0.684 -46.781 0.729 43.156
22312.833 0.729 43.124 0.684 -46.813 0.684 -46.813 0.729 43.124
22337.792 0.73 43.092 0.683 -46.846 0.683 -46.846 0.73 43.092
22362.75 0.73 43.059 0.683 -46.878 0.683 -46.878 0.73 43.059
22387.708 0.73 43.027 0.682 -46.91 0.682 -46.91 0.73 43.027
22412.667 0.731 42.995 0.682 -46.942 0.682 -46.942 0.731 42.995
22437.625 0.731 42.963 0.682 -46.974 0.682 -46.974 0.731 42.963
22462.583 0.731 42.931 0.681 -47.006 0.681 -47.006 0.731 42.931
22487.542 0.732 42.899 0.681 -47.038 0.681 -47.038 0.732 42.899
22512.5 0.732 42.868 0.68 -47.07 0.68 -47.07 0.732 42.868
22537.458 0.733 42.836 0.68 -47.102 0.68 -47.102 0.733 42.836
22562.417 0.733 42.804 0.679 -47.134 0.679 -47.134 0.733 42.804
22587.375 0.733 42.772 0.679 -47.166 0.679 -47.166 0.733 42.772
22612.333 0.734 42.74 0.679 -47.198 0.679 -47.198 0.734 42.74
22637.292 0.734 42.709 0.678 -47.229 0.678 -47.229 0.734 42.709
22662.25 0.734 42.677 0.678 -47.261 0.678 -47.261 0.734 42.677
22687.208 0.735 42.645 0.677 -47.293 0.677 -47.293 0.735 42.645
22712.167 0.735 42.614 0.677 -47.324 0.677 -47.324 0.735 42.614
22737.125 0.736 42.582 0.677 -47.356 0.677 -47.356 0.736 42.582
22762.083 0.736 42.551 0.676 -47.388 0.676 -47.388 0.736 42.551
22787.042 0.736 42.519 0.676 -47.419 0.676 -47.419 0.736 42.519
22812 0.737 42.488 0.675 -47.451 0.675 -47.451 0.737 42.488
22836.958 0.737 42.457 0.675 -47.482 0.675 -47.482 0.737 42.457
22861.917 0.737 42.425 0.675 -47.513 0.675 -47.513 0.737 42.425
22886.875 0.738 42.394 0.674 -47.545 0.674 -47.545 0.738 42.394
22911.833 0.738 42.363 0.674 -47.576 0.674 -47.576 0.738 42.363
22936.792 0.739 42.331 0.673 -47.607 0.673 -47.607 0.739 42.331
22961.75 0.739 42.3 0.673 -47.639 0.673 -47.639 0.739 42.3
22986.708 0.739 42.269 0.673 -47.67 0.673 -47.67 0.739 42.269
23011.667 0.74 42.238 0.672 -47.701 0.672 -47.701 0.74 42.238
23036.625 0.74 42.207 0.672 -47.732 0.672 -47.732 0.74 42.207
23061.583 0.74 42.176 0.671 -47.763 0.671 -47.763 0.74 42.176
23086.542 0.741 42.145 0.671 -47.795 0.671 -47.795 0.741 42.145
23111.5 0.741 42.114 0.671 -47.826 0.671 -47.826 0.741 42.114
23136.458 0.741 42.083 0.67 -47.857 0.67 -47.857 0.741 42.083
23161.417 0.742 42.052 0.67 -47.888 0.67 -47.888 0.742 42.052
23186.375 0.742 42.021 0.669 -47.919 0.669 -47.919 0.742 42.021
23211.333 0.743 41.99 0.669 -47.949 0.669 -47.949 0.743 41.99
23236.292 0.743 41.959 0.669 -47.98 0.669 -47.98 0.743 41.959
23261.25 0.743 41.929 0.668 -48.011 0.668 -48.011 0.743 41.929
23286.208 0.744 41.898 0.668 -48.042 0.668 -48.042 0.744 41.898
23311.167 0.744 41.867 0.667 -48.073 0.667 -48.073 0.744 41.867
23336.125 0.744 41.837 0.667 -48.103 0.667 -48.103 0.744 41.837
23361.083 0.745 41.806 0.667 -48.134 0.667 -48.134 0.745 41.806
23386.042 0.745 41.775 0.666 -48.165 0.666 -48.165 0.745 41.775
23411 0.745 41.745 0.666 -48.195 0.666 -48.195 0.745 41.745
23435.958 0.746 41.714 0.665 -48.226 0.665 -48.226 0.746 41.714
23460.917 0.746 41.684 0.665 -48.256 0.665 -48.256 0.746 41.684
23485.875 0.746 41.653 0.665 -48.287 0.665 -48.287 0.746 41.653
23510.833 0.747 41.623 0.664 -48.317 0.664 -48.317 0.747 41.623
23535.792 0.747 41.593 0.664 -48.348 0.664 -48.348 0.747 41.593
23560.75 0.748 41.562 0.663 -48.378 0.663 -48.378 0.748 41.562
23585.708 0.748 41.532 0.663 -48.408 0.663 -48.408 0.748 41.532
23610.667 0.748 41.502 0.663 -48.439 0.663 -48.439 0.748 41.502
23635.625 0.749 41.472 0.662 -48.469 0.662 -48.469 0.749 41.472
23660.583 0.749 41.441 0.662 -48.499 0.662 -48.499 0.749 41.441
23685.542 0.749 41.411 0.661 -48.529 0.661 -48.529 0.749 41.411
23710.5 0.75 41.381 0.661 -48.56 0.661 -48.56 0.75 41.381
23735.458 0.75 41.351 0.661 -48.59 0.661 -48.59 0.75 41.351
23760.417 0.75 41.321 0.66 -48.62 0.66 -48.62 0.75 41.321
23785.375 0.751 41.291 0.66 -48.65 0.66 -48.65 0.751 41.291
23810.333 0.751 41.261 0.659 -48.68 0.659 -48.68 0.751 41.261
23835.292 0.751 41.231 0.659 -48.71 0.659 -48.71 0.751 41.231
23860.25 0.752 41.201 0.659 -48.74 0.659 -48.74 0.752 41.201
23885.208 0.752 41.172 0.658 -48.77 0.658 -48.77 0.752 41.172
23910.167 0.752 41.142 0.658 -48.8 0.658 -48.8 0.752 41.142
23935.125 0.753 41.112 0.658 -48.829 0.658 -48.829 0.753 41.112
23960.083 0.753 41.082 0.657 -48.859 0.657 -48.859 0.753 41.082
23985.042 0.753 41.053 0.657 -48.889 0.657 -48.889 0.753 41.053
24010 0.754 41.023 0.656 -48.919 0.656 -48.919 0.754 41.023
24034.958 0.754 40.993 0.656 -48.948 0.656 -48.948 0.754 40.993
24059.917 0.754 40.964 0.656 -48.978 0.656 -48.978 0.754 40.964
24084.875 0.755 40.934 0.655 -49.008 0.655 -49.008 0.755 40.934
24109.833 0.755 40.905 0.655 -49.037 0.655 -49.037 0.755 40.905
24134.792 0.755 40.875 0.654 -49.067 0.654 -49.067 0.755 40.875
24159.75 0.756 40.846 0.654 -49.096 0.654 -49.096 0.756 40.846
24184.708 0.756 40.816 0.654 -49.126 0.654 -49.126 0.756 40.816
24209.667 0.756 40.787 0.653 -49.155 0.653 -49.155 0.756 40.787
24234.625 0.757 40.757 0.653 -49.185 0.653 -49.185 0.757 40.757
24259.583 0.757 40.728 0.652 -49.214 0.652 -49.214 0.757 40.728
24284.542 0.757 40.699 0.652 -49.243 0.652 -49.243 0.757 40.699
24309.5 0.758 40.67 0.652 -49.273 0.652 -49.273 0.758 40.67
24334.458 0.758 40.64 0.651 -49.302 0.651 -49.302 0.758 40.64
24359.417 0.758 40.611 0.651 -49.331 0.651 -49.331 0.758 40.611
24384.375 0.759 40.582 0.651 -49.36 0.651 -49.36 0.759 40.582
24409.333 0.759 40.553 0.65 -49.39 0.65 -49.39 0.759 40.553
24434.292 0.759 40.524 0.65 -49.419 0.65 -49.419 0.759 40.524
24459.25 0.76 40.495 0.649 -49.448 0.649 -49.448 0.76 40.495
24484.208 0.76 40.466 0.649 -49.477 0.649 -49.477 0.76 40.466
24509.167 0.76 40.437 0.649 -49.506 0.649 -49.506 0.76 40.437
24534.125 0.761 40.408 0.648 -49.535 0.648 -49.535 0.761 40.408
24559.083 0.761 40.379 0.648 -49.564 0.648 -49.564 0.761 40.379
24584.042 0.761 40.35 0.647 -49.593 0.647 -49.593 0.761 40.35
24609 0.762 40.321 0.647 -49.622 0.647 -49.622 0.762 40.321
24633.958 0.762 40.292 0.647 -49.651 0.647 -49.651 0.762 40.292
24658.917 0.762 40.264 0.646 -49.679 0.646 -49.679 0.762 40.264
24683.875 0.763 40.235 0.646 -49.708 0.646 -49.708 0.763 40.235
24708.833 0.763 40.206 0.646 -49.737 0.646 -49.737 0.763 40.206
24733.792 0.763 40.178 0.645 -49.766 0.645 -49.766 0.763 40.178
24758.75 0.764 40.149 0.645 -49.794 0.645 -49.794 0.764 40.149
24783.708 0.764 40.12 0.644 -49.823 0.644 -49.823 0.764 40.12
24808.667 0.764 40.092 0.644 -49.852 0.644 -49.852 0.764 40.092
24833.625 0.765 40.063 0.644 -49.88 0.644 -49.88 0.765 40.063
24858.583 0.765 40.035 0.643 -49.909 0.643 -49.909 0.765 40.035
24883.542 0.765 40.006 0.643 -49.937 0.643 -49.937 0.765 40.006
24908.5 0.766 39.978 0.642 -49.966 0.642 -49.966 0.766 39.978
24933.458 0.766 39.95 0.642 -49.994 0.642 -49.994 0.766 39.95
24958.417 0.766 39.921 0.642 -50.023 0.642 -50.023 0.766 39.921
24983.375 0.767 39.893 0.641 -50.051 0.641 -50.051 0.767 39.893
25008.333 0.767 39.865 0.641 -50.079 0.641 -50.079 0.767 39.865
25033.292 0.767 39.836 0.641 -50.108 0.641 -50.108 0.767 39.836
25058.25 0.768 39.808 0.64 -50.136 0.64 -50.136 0.768 39.808
25083.208 0.768 39.78 0.64 -50.164 0.64 -50.164 0.768 39.78
25108.167 0.768 39.752 0.639 -50.192 0.639 -50.192 0.768 39.752
25133.125 0.769 39.724 0.639 -50.221 0.639 -50.221 0.769 39.724
25158.083 0.769 39.696 0.639 -50.249 0.639 -50.249 0.769 39.696
25183.042 0.769 39.667 0.638 -50.277 0.638 -50.277 0.769 39.667
25208 0.769 39.639 0.638 -50.305 0.638 -50.305 0.769 39.639
25232.958 0.77 39.611 0.638 -50.333 0.638 -50.333 0.77 39.611
25257.917 0.77 39.584 0.637 -50.361 0.637 -50.361 0.77 39.584
25282.875 0.77 39.556 0.637 -50.389 0.637 -50.389 0.77 39.556
25307.833 0.771 39.528 0.636 -50.417 0.636 -50.417 0.771 39.528
25332.792 0.771 39.5 0.636 -50.445 0.636 -50.445 0.771 39.5
25357.75 0.771 39.472 0.636 -50.473 0.636 -50.473 0.771 39.472
25382.708 0.772 39.444 0.635 -50.501 0.635 -50.501 0.772 39.444
25407.667 0.772 39.416 0.635 -50.528 0.635 -50.528 0.772 39.416
25432.625 0.772 39.389 0.635 -50.556 0.635 -50.556 0.772 39.389
25457.583 0.773 39.361 0.634 -50.584 0.634 -50.584 0.773 39.361
25482.542 0.773 39.333 0.634 -50.612 0.634 -50.612 0.773 39.333
25507.5 0.773 39.306 0.633 -50.639 0.633 -50.639 0.773 39.306
25532.458 0.773 39.278 0.633 -50.667 0.633 -50.667 0.773 39.278
25557.417 0.774 39.251 0.633 -50.695 0.633 -50.695 0.774 39.251
25582.375 0.774 39.223 0.632 -50.722 0.632 -50.722 0.774 39.223
25607.333 0.774 39.196 0.632 -50.75 0.632 -50.75 0.774 39.196
25632.292 0.775 39.168 0.632 -50.777 0.632 -50.777 0.775 39.168
25657.25 0.775 39.141 0.631 -50.805 0.631 -50.805 0.775 39.141
25682.208 0.775 39.113 0.631 -50.832 0.631 -50.832 0.775 39.113
25707.167 0.776 39.086 0.63 -50.86 0.63 -50.86 0.776 39.086
25732.125 0.776 39.059 0.63 -50.887 0.63 -50.887 0.776 39.059
25757.083 0.776 39.031 0.63 -50.914 0.63 -50.914 0.776 39.031
25782.042 0.777 39.004 0.629 -50.942 0.629 -50.942 0.777 39.004
25807 0.777 38.977 0.629 -50.969 0.629 -50.969 0.777 38.977
25831.958 0.777 38.95 0.629 -50.996 0.629 -50.996 0.777 38.95
25856.917 0.777 38.922 0.628 -51.023 0.628 -51.023 0.777 38.922
25881.875 0.778 38.895 0.628 -51.051 0.628 -51.051 0.778 38.895
25906.833 0.778 38.868 0.628 -51.078 0.628 -51.078 0.778 38.868
25931.792 0.778 38.841 0.627 -51.105 0.627 -51.105 0.778 38.841
25956.75 0.779 38.814 0.627 -51.132 0.627 -51.132 0.779 38.814
25981.708 0.779 38.787 0.626 -51.159 0.626 -51.159 0.779 38.787
26006.667 0.779 38.76 0.626 -51.186 0.626 -51.186 0.779 38.76
26031.625 0.779 38.733 0.626 -51.213 0.626 -51.213 0.779 38.733
26056.583 0.78 38.706 0.625 -51.24 0.625 -51.24 0.78 38.706
26081.542 0.78 38.679 0.625 -51.267 0.625 -51.267 0.78 38.679
26106.5 0.78 38.652 0.625 -51.294 0.625 -51.294 0.78 38.652
26131.458 0.781 38.626 0.624 -51.321 0.624 -51.321 0.781 38.626
26156.417 0.781 38.599 0.624 -51.348 0.624 -51.348 0.781 38.599
26181.375 0.781 38.572 0.623 -51.374 0.623 -51.374 0.781 38.572
26206.333 0.782 38.545 0.623 -51.401 0.623 -51.401 0.782 38.545
26231.292 0.782 38.519 0.623 -51.428 0.623 -51.428 0.782 38.519
26256.25 0.782 38.492 0.622 -51.455 0.622 -51.455 0.782 38.492
26281.208 0.782 38.465 0.622 -51.481 0.622 -51.481 0.782 38.465
26306.167 0.783 38.439 0.622 -51.508 0.622 -51.508 0.783 38.439
26331.125 0.783 38.412 0.621 -51.535 0.621 -51.535 0.783 38.412
26356.083 0.783 38.386 0.621 -51.561 0.621 -51.561 0.783 38.386
26381.042 0.784 38.359 0.621 -51.588 0.621 -51.588 0.784 38.359
26406 0.784 38.333 0.62 -51.614 0.62 -51.614 0.784 38.333
26430.958 0.784 38.306 0.62 -51.641 0.62 -51.641 0.784 38.306
26455.917 0.784 38.28 0.62 -51.667 0.62 -51.667 0.784 38.28
26480.875 0.785 38.253 0.619 -51.694 0.619 -51.694 0.785 38.253
26505.833 0.785 38.227 0.619 -51.72 0.619 -51.72 0.785 38.227
26530.792 0.785 38.201 0.618 -51.747 0.618 -51.747 0.785 38.201
26555.75 0.786 38.174 0.618 -51.773 0.618 -51.773 0.786 38.174
26580.708 0.786 38.148 0.618 -51.799 0.618 -51.799 0.786 38.148
26605.667 0.786 38.122 0.617 -51.825 0.617 -51.825 0.786 38.122
26630.625 0.786 38.096 0.617 -51.852 0.617 -51.852 0.786 38.096
26655.583 0.787 38.069 0.617 -51.878 0.617 -51.878 0.787 38.069
26680.542 0.787 38.043 0.616 -51.904 0.616 -51.904 0.787 38.043
26705.5 0.787 38.017 0.616 -51.93 0.616 -51.93 0.787 38.017
26730.458 0.788 37.991 0.616 -51.956 0.616 -51.956 0.788 37.991
26755.417 0.788 37.965 0.615 -51.983 0.615 -51.983 0.788 37.965
26780.375 0.788 37.939 0.615 -52.009 0.615 -52.009 0.788 37.939
26805.333 0.788 37.913 0.614 -52.035 0.614 -52.035 0.788 37.913
26830.292 0.789 37.887 0.614 -52.061 0.614 -52.061 0.789 37.887
26855.25 0.789 37.861 0.614 -52.087 0.614 -52.087 0.789 37.861
26880.208 0.789 37.835 0.613 -52.113 0.613 -52.113 0.789 37.835
26905.167 0.789 37.809 0.613 -52.139 0.613 -52.139 0.789 37.809
26930.125 0.79 37.784 0.613 -52.164 0.613 -52.164 0.79 37.784
26955.083 0.79 37.758 0.612 -52.19 0.612 -52.19 0.79 37.758
26980.042 0.79 37.732 0.612 -52.216 0.612 -52.216 0.79 37.732
27005 0.791 37.706 0.612 -52.242 0.612 -52.242 0.791 37.706
27029.958 0.791 37.68 0.611 -52.268 0.611 -52.268 0.791 37.68
27054.917 0.791 37.655 0.611 -52.293 0.611 -52.293 0.791 37.655
27079.875 0.791 37.629 0.611 -52.319 0.611 -52.319 0.791 37.629
27104.833 0.792 37.604 0.61 -52.345 0.61 -52.345 0.792 37.604
27129.792 0.792 37.578 0.61 -52.37 0.61 -52.37 0.792 37.578
27154.75 0.792 37.552 0.609 -52.396 0.609 -52.396 0.792 37.552
27179.708 0.793 37.527 0.609 -52.422 0.609 -52.422 0.793 37.527
27204.667 0.793 37.501 0.609 -52.447 0.609 -52.447 0.793 37.501
27229.625 0.793 37.476 0.608 -52.473 0.608 -52.473 0.793 37.476
27254.583 0.793 37.45 0.608 -52.498 0.608 -52.498 0.793 37.45
27279.542 0.794 37.425 0.608 -52.524 0.608 -52.524 0.794 37.425
27304.5 0.794 37.4 0.607 -52.549 0.607 -52.549 0.794 37.4
27329.458 0.794 37.374 0.607 -52.575 0.607 -52.575 0.794 37.374
27354.417 0.794 37.349 0.607 -52.6 0.607 -52.6 0.794 37.349
27379.375 0.795 37.324 0.606 -52.625 0.606 -52.625 0.795 37.324
27404.333 0.795 37.298 0.606 -52.651 0.606 -52.651 0.795 37.298
27429.292 0.795 37.273 0.606 -52.676 0.606 -52.676 0.795 37.273
27454.25 0.795 37.248 0.605 -52.701 0.605 -52.701 0.795 37.248
27479.208 0.796 37.223 0.605 -52.726 0.605 -52.726 0.796 37.223
27504.167 0.796 37.197 0.605 -52.752 0.605 -52.752 0.796 37.197
27529.125 0.796 37.172 0.604 -52.777 0.604 -52.777 0.796 37.172
27554.083 0.797 37.147 0.604 -52.802 0.604 -52.802 0.797 37.147
27579.042 0.797 37.122 0.604 -52.827 0.604 -52.827 0.797 37.122
27604 0.797 37.097 0.603 -52.852 0.603 -52.852 0.797 37.097
27628.958 0.797 37.072 0.603 -52.877 0.603 -52.877 0.797 37.072
27653.917 0.798 37.047 0.602 -52.902 0.602 -52.902 0.798 37.047
27678.875 0.798 37.022 0.602 -52.927 0.602 -52.927 0.798 37.022
27703.833 0.798 36.997 0.602 -52.952 0.602 -52.952 0.798 36.997
27728.792 0.798 36.972 0.601 -52.977 0.601 -52.977 0.798 36.972
27753.75 0.799 36.948 0.601 -53.002 0.601 -53.002 0.799 36.948
27778.708 0.799 36.923 0.601 -53.027 0.601 -53.027 0.799 36.923
27803.667 0.799 36.898 0.6 -53.052 0.6 -53.052 0.799 36.898
27828.625 0.799 36.873 0.6 -53.077 0.6 -53.077 0.799 36.873
27853.583 0.8 36.848 0.6 -53.101 0.6 -53.101 0.8 36.848
27878.542 0.8 36.824 0.599 -53.126 0.599 -53.126 0.8 36.824
27903.5 0.8 36.799 0.599 -53.151 0.599 -53.151 0.8 36.799
27928.458 0.8 36.774 0.599 -53.176 0.599 -53.176 0.8 36.774
27953.417 0.801 36.75 0.598 -53.2 0.598 -53.2 0.801 36.75
27978.375 0.801 36.725 0.598 -53.225 0.598 -53.225 0.801 36.725
28003.333 0.801 36.7 0.598 -53.25 0.598 -53.25 0.801 36.7
28028.292 0.802 36.676 0.597 -53.274 0.597 -53.274 0.802 36.676
28053.25 0.802 36.651 0.597 -53.299 0.597 -53.299 0.802 36.651
28078.208 0.802 36.627 0.597 -53.323 0.597 -53.323 0.802 36.627
28103.167 0.802 36.602 0.596 -53.348 0.596 -53.348 0.802 36.602
28128.125 0.803 36.578 0.596 -53.372 0.596 -53.372 0.803 36.578
28153.083 0.803 36.554 0.596 -53.397 0.596 -53.397 0.803 36.554
28178.042 0.803 36.529 0.595 -53.421 0.595 -53.421 0.803 36.529
28203 0.803 36.505 0.595 -53.445 0.595 -53.445 0.803 36.505
28227.958 0.804 36.48 0.595 -53.47 0.595 -53.47 0.804 36.48
28252.917 0.804 36.456 0.594 -53.494 0.594 -53.494 0.804 36.456
28277.875 0.804 36.432 0.594 -53.519 0.594 -53.519 0.804 36.432
28302.833 0.804 36.408 0.594 -53.543 0.594 -53.543 0.804 36.408
28327.792 0.805 36.383 0.593 -53.567 0.593 -53.567 0.805 36.383
28352.75 0.805 36.359 0.593 -53.591 0.593 -53.591 0.805 36.359
28377.708 0.805 36.335 0.593 -53.615 0.593 -53.615 0.805 36.335
28402.667 0.805 36.311 0.592 -53.64 0.592 -53.64 0.805 36.311
28427.625 0.806 36.287 0.592 -53.664 0.592 -53.664 0.806 36.287
28452.583 0.806 36.263 0.591 -53.688 0.591 -53.688 0.806 36.263
28477.542 0.806 36.239 0.591 -53.712 0.591 -53.712 0.806 36.239
28502.5 0.806 36.215 0.591 -53.736 0.591 -53.736 0.806 36.215
28527.458 0.807 36.191 0.59 -53.76 0.59 -53.76 0.807 36.191
28552.417 0.807 36.167 0.59 -53.784 0.59 -53.784 0.807 36.167
28577.375 0.807 36.143 0.59 -53.808 0.59 -53.808 0.807 36.143
28602.333 0.807 36.119 0.589 -53.832 0.589 -53.832 0.807 36.119
28627.292 0.808 36.095 0.589 -53.856 0.589 -53.856 0.808 36.095
28652.25 0.808 36.071 0.589 -53.88 0.589 -53.88 0.808 36.071
28677.208 0.808 36.047 0.588 -53.904 0.588 -53.904 0.808 36.047
28702.167 0.808 36.024 0.588 -53.928 0.588 -53.928 0.808 36.024
28727.125 0.809 36 0.588 -53.951 0.588 -53.951 0.809 36
28752.083 0.809 35.976 0.587 -53.975 0.587 -53.975 0.809 35.976
28777.042 0.809 35.952 0.587 -53.999 0.587 -53.999 0.809 35.952
28802 0.809 35.929 0.587 -54.023 0.587 -54.023 0.809 35.929
28826.958 0.809 35.905 0.586 -54.046 0.586 -54.046 0.809 35.905
28851.917 0.81 35.881 0.586 -54.07 0.586 -54.07 0.81 35.881
28876.875 0.81 35.858 0.586 -54.094 0.586 -54.094 0.81 35.858
28901.833 0.81 35.834 0.585 -54.117 0.585 -54.117 0.81 35.834
28926.792 0.81 35.811 0.585 -54.141 0.585 -54.141 0.81 35.811
28951.75 0.811 35.787 0.585 -54.165 0.585 -54.165 0.811 35.787
28976.708 0.811 35.764 0.584 -54.188 0.584 -54.188 0.811 35.764
29001.667 0.811 35.74 0.584 -54.212 0.584 -54.212 0.811 35.74
29026.625 0.811 35.717 0.584 -54.235 0.584 -54.235 0.811 35.717
29051.583 0.812 35.693 0.583 -54.259 0.583 -54.259 0.812 35.693
29076.542 0.812 35.67 0.583 -54.282 0.583 -54.282 0.812 35.67
29101.5 0.812 35.646 0.583 -54.305 0.583 -54.305 0.812 35.646
29126.458 0.812 35.623 0.582 -54.329 0.582 -54.329 0.812 35.623
29151.417 0.813 35.6 0.582 -54.352 0.582 -54.352 0.813 35.6
29176.375 0.813 35.576 0.582 -54.376 0.582 -54.376 0.813 35.576
29201.333 0.813 35.553 0.581 -54.399 0.581 -54.399 0.813 35.553
29226.292 0.813 35.53 0.581 -54.422 0.581 -54.422 0.813 35.53
29251.25 0.814 35.507 0.581 -54.445 0.581 -54.445 0.814 35.507
29276.208 0.814 35.484 0.58 -54.469 0.58 -54.469 0.814 35.484
29301.167 0.814 35.46 0.58 -54.492 0.58 -54.492 0.814 35.46
29326.125 0.814 35.437 0.58 -54.515 0.58 -54.515 0.814 35.437
29351.083 0.815 35.414 0.579 -54.538 0.579 -54.538 0.815 35.414
29376.042 0.815 35.391 0.579 -54.561 0.579 -54.561 0.815 35.391
29401 0.815 35.368 0.579 -54.584 0.579 -54.584 0.815 35.368
29425.958 0.815 35.345 0.578 -54.607 0.578 -54.607 0.815 35.345
29450.917 0.815 35.322 0.578 -54.63 0.578 -54.63 0.815 35.322
29475.875 0.816 35.299 0.578 -54.653 0.578 -54.653 0.816 35.299
29500.833 0.816 35.276 0.578 -54.676 0.578 -54.676 0.816 35.276
29525.792 0.816 35.253 0.577 -54.699 0.577 -54.699 0.816 35.253
29550.75 0.816 35.23 0.577 -54.722 0.577 -54.722 0.816 35.23
29575.708 0.817 35.207 0.577 -54.745 0.577 -54.745 0.817 35.207
29600.667 0.817 35.185 0.576 -54.768 0.576 -54.768 0.817 35.185
29625.625 0.817 35.162 0.576 -54.791 0.576 -54.791 0.817 35.162
29650.583 0.817 35.139 0.576 -54.814 0.576 -54.814 0.817 35.139
29675.542 0.818 35.116 0.575 -54.837 0.575 -54.837 0.818 35.116
29700.5 0.818 35.093 0.575 -54.859 0.575 -54.859 0.818 35.093
29725.458 0.818 35.071 0.575 -54.882 0.575 -54.882 0.818 35.071
29750.417 0.818 35.048 0.574 -54.905 0.574 -54.905 0.818 35.048
29775.375 0.818 35.025 0.574 -54.928 0.574 -54.928 0.818 35.025
29800.333 0.819 35.003 0.574 -54.95 0.574 -54.95 0.819 35.003
29825.292 0.819 34.98 0.573 -54.973 0.573 -54.973 0.819 34.98
29850.25 0.819 34.957 0.573 -54.996 0.573 -54.996 0.819 34.957
29875.208 0.819 34.935 0.573 -55.018 0.573 -55.018 0.819 34.935
29900.167 0.82 34.912 0.572 -55.041 0.572 -55.041 0.82 34.912
29925.125 0.82 34.89 0.572 -55.063 0.572 -55.063 0.82 34.89
29950.083 0.82 34.867 0.572 -55.086 0.572 -55.086 0.82 34.867
29975.042 0.82 34.845 0.571 -55.108 0.571 -55.108 0.82 34.845
30000 0.82 34.822 0.571 -55.131 0.571 -55.131 0.82 34.822
