!	AVX Thin Film Operation 	Date: April 2014		
!	Description: Accu-P® Series, Thin Film  SMD RF Capacitor
!	Part Number: 06031J0R2ZBSTR					
!								
# MHZ S MA R 50

50 1 -0.36 6.283e-3 89.638 6.283e-3 89.638 1 -0.36
74.958 1 -0.54 9.419e-3 89.458 9.419e-3 89.458 1 -0.54
99.917 1 -0.719 0.013 89.277 0.013 89.277 1 -0.719
124.875 1 -0.899 0.016 89.097 0.016 89.097 1 -0.899
149.833 1 -1.079 0.019 88.916 0.019 88.916 1 -1.079
174.792 1 -1.259 0.022 88.735 0.022 88.735 1 -1.259
199.75 1 -1.438 0.025 88.555 0.025 88.555 1 -1.438
224.708 1 -1.618 0.028 88.374 0.028 88.374 1 -1.618
249.667 1 -1.798 0.031 88.194 0.031 88.194 1 -1.798
274.625 0.999 -1.977 0.035 88.013 0.035 88.013 0.999 -1.977
299.583 0.999 -2.157 0.038 87.833 0.038 87.833 0.999 -2.157
324.542 0.999 -2.337 0.041 87.652 0.041 87.652 0.999 -2.337
349.5 0.999 -2.517 0.044 87.471 0.044 87.471 0.999 -2.517
374.458 0.999 -2.696 0.047 87.291 0.047 87.291 0.999 -2.696
399.417 0.999 -2.876 0.05 87.11 0.05 87.11 0.999 -2.876
424.375 0.999 -3.056 0.053 86.93 0.053 86.93 0.999 -3.056
449.333 0.998 -3.236 0.056 86.749 0.056 86.749 0.998 -3.236
474.292 0.998 -3.415 0.06 86.568 0.06 86.568 0.998 -3.415
499.25 0.998 -3.595 0.063 86.388 0.063 86.388 0.998 -3.595
524.208 0.998 -3.775 0.066 86.207 0.066 86.207 0.998 -3.775
549.167 0.998 -3.955 0.069 86.026 0.069 86.026 0.998 -3.955
574.125 0.997 -4.135 0.072 85.846 0.072 85.846 0.997 -4.135
599.083 0.997 -4.315 0.075 85.665 0.075 85.665 0.997 -4.315
624.042 0.997 -4.494 0.078 85.484 0.078 85.484 0.997 -4.494
649 0.997 -4.674 0.081 85.303 0.081 85.303 0.997 -4.674
673.958 0.996 -4.854 0.085 85.123 0.085 85.123 0.996 -4.854
698.917 0.996 -5.034 0.088 84.942 0.088 84.942 0.996 -5.034
723.875 0.996 -5.214 0.091 84.761 0.091 84.761 0.996 -5.214
748.833 0.996 -5.394 0.094 84.58 0.094 84.58 0.996 -5.394
773.792 0.995 -5.574 0.097 84.4 0.097 84.4 0.995 -5.574
798.75 0.995 -5.754 0.1 84.219 0.1 84.219 0.995 -5.754
823.708 0.995 -5.934 0.103 84.038 0.103 84.038 0.995 -5.934
848.667 0.994 -6.114 0.107 83.857 0.107 83.857 0.994 -6.114
873.625 0.994 -6.294 0.11 83.676 0.11 83.676 0.994 -6.294
898.583 0.994 -6.474 0.113 83.495 0.113 83.495 0.994 -6.474
923.542 0.993 -6.654 0.116 83.315 0.116 83.315 0.993 -6.654
948.5 0.993 -6.834 0.119 83.134 0.119 83.134 0.993 -6.834
973.458 0.992 -7.014 0.122 82.953 0.122 82.953 0.992 -7.014
998.417 0.992 -7.194 0.125 82.772 0.125 82.772 0.992 -7.194
1023.375 0.992 -7.374 0.128 82.591 0.128 82.591 0.992 -7.374
1048.333 0.991 -7.554 0.131 82.41 0.131 82.41 0.991 -7.554
1073.292 0.991 -7.734 0.135 82.229 0.135 82.229 0.991 -7.734
1098.25 0.99 -7.914 0.138 82.048 0.138 82.048 0.99 -7.914
1123.208 0.99 -8.095 0.141 81.867 0.141 81.867 0.99 -8.095
1148.167 0.989 -8.275 0.144 81.686 0.144 81.686 0.989 -8.275
1173.125 0.989 -8.455 0.147 81.505 0.147 81.505 0.989 -8.455
1198.083 0.989 -8.635 0.15 81.323 0.15 81.323 0.989 -8.635
1223.042 0.988 -8.816 0.153 81.142 0.153 81.142 0.988 -8.816
1248 0.988 -8.996 0.156 80.961 0.156 80.961 0.988 -8.996
1272.958 0.987 -9.176 0.159 80.78 0.159 80.78 0.987 -9.176
1297.917 0.987 -9.357 0.163 80.599 0.163 80.599 0.987 -9.357
1322.875 0.986 -9.537 0.166 80.417 0.166 80.417 0.986 -9.537
1347.833 0.986 -9.717 0.169 80.236 0.169 80.236 0.986 -9.717
1372.792 0.985 -9.898 0.172 80.055 0.172 80.055 0.985 -9.898
1397.75 0.984 -10.078 0.175 79.874 0.175 79.874 0.984 -10.078
1422.708 0.984 -10.259 0.178 79.692 0.178 79.692 0.984 -10.259
1447.667 0.983 -10.439 0.181 79.511 0.181 79.511 0.983 -10.439
1472.625 0.983 -10.62 0.184 79.329 0.184 79.329 0.983 -10.62
1497.583 0.982 -10.8 0.187 79.148 0.187 79.148 0.982 -10.8
1522.542 0.982 -10.981 0.19 78.966 0.19 78.966 0.982 -10.981
1547.5 0.981 -11.161 0.194 78.785 0.194 78.785 0.981 -11.161
1572.458 0.98 -11.342 0.197 78.603 0.197 78.603 0.98 -11.342
1597.417 0.98 -11.523 0.2 78.422 0.2 78.422 0.98 -11.523
1622.375 0.979 -11.703 0.203 78.24 0.203 78.24 0.979 -11.703
1647.333 0.978 -11.884 0.206 78.059 0.206 78.059 0.978 -11.884
1672.292 0.978 -12.065 0.209 77.877 0.209 77.877 0.978 -12.065
1697.25 0.977 -12.246 0.212 77.695 0.212 77.695 0.977 -12.246
1722.208 0.976 -12.426 0.215 77.514 0.215 77.514 0.976 -12.426
1747.167 0.976 -12.607 0.218 77.332 0.218 77.332 0.976 -12.607
1772.125 0.975 -12.788 0.221 77.15 0.221 77.15 0.975 -12.788
1797.083 0.974 -12.969 0.224 76.968 0.224 76.968 0.974 -12.969
1822.042 0.974 -13.15 0.228 76.787 0.228 76.787 0.974 -13.15
1847 0.973 -13.331 0.231 76.605 0.231 76.605 0.973 -13.331
1871.958 0.972 -13.512 0.234 76.423 0.234 76.423 0.972 -13.512
1896.917 0.971 -13.693 0.237 76.241 0.237 76.241 0.971 -13.693
1921.875 0.971 -13.874 0.24 76.059 0.24 76.059 0.971 -13.874
1946.833 0.97 -14.055 0.243 75.877 0.243 75.877 0.97 -14.055
1971.792 0.969 -14.236 0.246 75.695 0.246 75.695 0.969 -14.236
1996.75 0.968 -14.417 0.249 75.513 0.249 75.513 0.968 -14.417
2021.708 0.967 -14.599 0.252 75.331 0.252 75.331 0.967 -14.599
2046.667 0.967 -14.78 0.255 75.148 0.255 75.148 0.967 -14.78
2071.625 0.966 -14.961 0.258 74.966 0.258 74.966 0.966 -14.961
2096.583 0.965 -15.142 0.261 74.784 0.261 74.784 0.965 -15.142
2121.542 0.964 -15.324 0.264 74.602 0.264 74.602 0.964 -15.324
2146.5 0.963 -15.505 0.267 74.42 0.267 74.42 0.963 -15.505
2171.458 0.962 -15.686 0.27 74.237 0.27 74.237 0.962 -15.686
2196.417 0.962 -15.868 0.273 74.055 0.273 74.055 0.962 -15.868
2221.375 0.961 -16.049 0.276 73.872 0.276 73.872 0.961 -16.049
2246.333 0.96 -16.231 0.28 73.69 0.28 73.69 0.96 -16.231
2271.292 0.959 -16.412 0.283 73.508 0.283 73.508 0.959 -16.412
2296.25 0.958 -16.594 0.286 73.325 0.286 73.325 0.958 -16.594
2321.208 0.957 -16.776 0.289 73.142 0.289 73.142 0.957 -16.776
2346.167 0.956 -16.957 0.292 72.96 0.292 72.96 0.956 -16.957
2371.125 0.955 -17.139 0.295 72.777 0.295 72.777 0.955 -17.139
2396.083 0.954 -17.321 0.298 72.595 0.298 72.595 0.954 -17.321
2421.042 0.953 -17.502 0.301 72.412 0.301 72.412 0.953 -17.502
2446 0.952 -17.684 0.304 72.229 0.304 72.229 0.952 -17.684
2470.958 0.951 -17.866 0.307 72.046 0.307 72.046 0.951 -17.866
2495.917 0.95 -18.048 0.31 71.863 0.31 71.863 0.95 -18.048
2520.875 0.949 -18.23 0.313 71.681 0.313 71.681 0.949 -18.23
2545.833 0.948 -18.412 0.316 71.498 0.316 71.498 0.948 -18.412
2570.792 0.947 -18.594 0.319 71.315 0.319 71.315 0.947 -18.594
2595.75 0.946 -18.776 0.322 71.132 0.322 71.132 0.946 -18.776
2620.708 0.945 -18.958 0.325 70.949 0.325 70.949 0.945 -18.958
2645.667 0.944 -19.14 0.328 70.766 0.328 70.766 0.944 -19.14
2670.625 0.943 -19.322 0.331 70.583 0.331 70.583 0.943 -19.322
2695.583 0.942 -19.504 0.334 70.399 0.334 70.399 0.942 -19.504
2720.542 0.941 -19.686 0.337 70.216 0.337 70.216 0.941 -19.686
2745.5 0.94 -19.869 0.34 70.033 0.34 70.033 0.94 -19.869
2770.458 0.939 -20.051 0.343 69.85 0.343 69.85 0.939 -20.051
2795.417 0.938 -20.233 0.346 69.666 0.346 69.666 0.938 -20.233
2820.375 0.937 -20.416 0.349 69.483 0.349 69.483 0.937 -20.416
2845.333 0.935 -20.598 0.352 69.3 0.352 69.3 0.935 -20.598
2870.292 0.934 -20.781 0.355 69.116 0.355 69.116 0.934 -20.781
2895.25 0.933 -20.963 0.358 68.933 0.358 68.933 0.933 -20.963
2920.208 0.932 -21.146 0.361 68.749 0.361 68.749 0.932 -21.146
2945.167 0.931 -21.328 0.364 68.566 0.364 68.566 0.931 -21.328
2970.125 0.93 -21.511 0.367 68.382 0.367 68.382 0.93 -21.511
2995.083 0.928 -21.693 0.37 68.198 0.37 68.198 0.928 -21.693
3020.042 0.927 -21.876 0.373 68.015 0.373 68.015 0.927 -21.876
3045 0.926 -22.059 0.376 67.831 0.376 67.831 0.926 -22.059
3069.958 0.925 -22.241 0.379 67.647 0.379 67.647 0.925 -22.241
3094.917 0.924 -22.424 0.381 67.464 0.381 67.464 0.924 -22.424
3119.875 0.922 -22.607 0.384 67.28 0.384 67.28 0.922 -22.607
3144.833 0.921 -22.79 0.387 67.096 0.387 67.096 0.921 -22.79
3169.792 0.92 -22.973 0.39 66.912 0.39 66.912 0.92 -22.973
3194.75 0.919 -23.156 0.393 66.728 0.393 66.728 0.919 -23.156
3219.708 0.917 -23.339 0.396 66.544 0.396 66.544 0.917 -23.339
3244.667 0.916 -23.522 0.399 66.36 0.399 66.36 0.916 -23.522
3269.625 0.915 -23.705 0.402 66.176 0.402 66.176 0.915 -23.705
3294.583 0.913 -23.888 0.405 65.992 0.405 65.992 0.913 -23.888
3319.542 0.912 -24.071 0.408 65.807 0.408 65.807 0.912 -24.071
3344.5 0.911 -24.254 0.411 65.623 0.411 65.623 0.911 -24.254
3369.458 0.91 -24.437 0.414 65.439 0.414 65.439 0.91 -24.437
3394.417 0.908 -24.621 0.417 65.255 0.417 65.255 0.908 -24.621
3419.375 0.907 -24.804 0.42 65.07 0.42 65.07 0.907 -24.804
3444.333 0.905 -24.987 0.422 64.886 0.422 64.886 0.905 -24.987
3469.292 0.904 -25.171 0.425 64.702 0.425 64.702 0.904 -25.171
3494.25 0.903 -25.354 0.428 64.517 0.428 64.517 0.903 -25.354
3519.208 0.901 -25.537 0.431 64.333 0.431 64.333 0.901 -25.537
3544.167 0.9 -25.721 0.434 64.148 0.434 64.148 0.9 -25.721
3569.125 0.899 -25.904 0.437 63.964 0.437 63.964 0.899 -25.904
3594.083 0.897 -26.088 0.44 63.779 0.44 63.779 0.897 -26.088
3619.042 0.896 -26.271 0.443 63.594 0.443 63.594 0.896 -26.271
3644 0.894 -26.455 0.445 63.41 0.445 63.41 0.894 -26.455
3668.958 0.893 -26.639 0.448 63.225 0.448 63.225 0.893 -26.639
3693.917 0.891 -26.822 0.451 63.04 0.451 63.04 0.891 -26.822
3718.875 0.89 -27.006 0.454 62.855 0.454 62.855 0.89 -27.006
3743.833 0.888 -27.19 0.457 62.671 0.457 62.671 0.888 -27.19
3768.792 0.887 -27.373 0.46 62.486 0.46 62.486 0.887 -27.373
3793.75 0.885 -27.557 0.463 62.301 0.463 62.301 0.885 -27.557
3818.708 0.884 -27.741 0.465 62.116 0.465 62.116 0.884 -27.741
3843.667 0.882 -27.925 0.468 61.931 0.468 61.931 0.882 -27.925
3868.625 0.881 -28.109 0.471 61.746 0.471 61.746 0.881 -28.109
3893.583 0.879 -28.293 0.474 61.561 0.474 61.561 0.879 -28.293
3918.542 0.878 -28.477 0.477 61.376 0.477 61.376 0.878 -28.477
3943.5 0.876 -28.661 0.48 61.191 0.48 61.191 0.876 -28.661
3968.458 0.875 -28.845 0.482 61.005 0.482 61.005 0.875 -28.845
3993.417 0.873 -29.029 0.485 60.82 0.485 60.82 0.873 -29.029
4018.375 0.872 -29.213 0.488 60.635 0.488 60.635 0.872 -29.213
4043.333 0.87 -29.397 0.491 60.45 0.491 60.45 0.87 -29.397
4068.292 0.868 -29.581 0.494 60.264 0.494 60.264 0.868 -29.581
4093.25 0.867 -29.765 0.496 60.079 0.496 60.079 0.867 -29.765
4118.208 0.865 -29.949 0.499 59.894 0.499 59.894 0.865 -29.949
4143.167 0.863 -30.134 0.502 59.708 0.502 59.708 0.863 -30.134
4168.125 0.862 -30.318 0.505 59.523 0.505 59.523 0.862 -30.318
4193.083 0.86 -30.502 0.508 59.337 0.508 59.337 0.86 -30.502
4218.042 0.859 -30.687 0.51 59.152 0.51 59.152 0.859 -30.687
4243 0.857 -30.871 0.513 58.966 0.513 58.966 0.857 -30.871
4267.958 0.855 -31.055 0.516 58.781 0.516 58.781 0.855 -31.055
4292.917 0.854 -31.24 0.519 58.595 0.519 58.595 0.854 -31.24
4317.875 0.852 -31.424 0.521 58.41 0.521 58.41 0.852 -31.424
4342.833 0.85 -31.608 0.524 58.224 0.524 58.224 0.85 -31.608
4367.792 0.848 -31.793 0.527 58.038 0.527 58.038 0.848 -31.793
4392.75 0.847 -31.977 0.53 57.853 0.53 57.853 0.847 -31.977
4417.708 0.845 -32.162 0.532 57.667 0.532 57.667 0.845 -32.162
4442.667 0.843 -32.346 0.535 57.481 0.535 57.481 0.843 -32.346
4467.625 0.841 -32.531 0.538 57.296 0.538 57.296 0.841 -32.531
4492.583 0.84 -32.715 0.54 57.11 0.54 57.11 0.84 -32.715
4517.542 0.838 -32.9 0.543 56.924 0.543 56.924 0.838 -32.9
4542.5 0.836 -33.085 0.546 56.738 0.546 56.738 0.836 -33.085
4567.458 0.834 -33.269 0.549 56.552 0.549 56.552 0.834 -33.269
4592.417 0.833 -33.454 0.551 56.366 0.551 56.366 0.833 -33.454
4617.375 0.831 -33.638 0.554 56.18 0.554 56.18 0.831 -33.638
4642.333 0.829 -33.823 0.557 55.994 0.557 55.994 0.829 -33.823
4667.292 0.827 -34.008 0.559 55.808 0.559 55.808 0.827 -34.008
4692.25 0.825 -34.192 0.562 55.623 0.562 55.623 0.825 -34.192
4717.208 0.824 -34.377 0.565 55.437 0.565 55.437 0.824 -34.377
4742.167 0.822 -34.562 0.567 55.25 0.567 55.25 0.822 -34.562
4767.125 0.82 -34.747 0.57 55.064 0.57 55.064 0.82 -34.747
4792.083 0.818 -34.931 0.573 54.878 0.573 54.878 0.818 -34.931
4817.042 0.816 -35.116 0.575 54.692 0.575 54.692 0.816 -35.116
4842 0.814 -35.301 0.578 54.506 0.578 54.506 0.814 -35.301
4866.958 0.812 -35.486 0.581 54.32 0.581 54.32 0.812 -35.486
4891.917 0.81 -35.67 0.583 54.134 0.583 54.134 0.81 -35.67
4916.875 0.808 -35.855 0.586 53.948 0.586 53.948 0.808 -35.855
4941.833 0.807 -36.04 0.588 53.762 0.588 53.762 0.807 -36.04
4966.792 0.805 -36.225 0.591 53.576 0.591 53.576 0.805 -36.225
4991.75 0.803 -36.41 0.594 53.389 0.594 53.389 0.803 -36.41
5016.708 0.801 -36.595 0.596 53.203 0.596 53.203 0.801 -36.595
5041.667 0.799 -36.779 0.599 53.017 0.599 53.017 0.799 -36.779
5066.625 0.797 -36.964 0.601 52.831 0.601 52.831 0.797 -36.964
5091.583 0.795 -37.149 0.604 52.645 0.604 52.645 0.795 -37.149
5116.542 0.793 -37.334 0.606 52.458 0.606 52.458 0.793 -37.334
5141.5 0.791 -37.519 0.609 52.272 0.609 52.272 0.791 -37.519
5166.458 0.789 -37.704 0.612 52.086 0.612 52.086 0.789 -37.704
5191.417 0.787 -37.888 0.614 51.9 0.614 51.9 0.787 -37.888
5216.375 0.785 -38.073 0.617 51.713 0.617 51.713 0.785 -38.073
5241.333 0.783 -38.258 0.619 51.527 0.619 51.527 0.783 -38.258
5266.292 0.781 -38.443 0.622 51.341 0.622 51.341 0.781 -38.443
5291.25 0.779 -38.628 0.624 51.155 0.624 51.155 0.779 -38.628
5316.208 0.777 -38.813 0.627 50.968 0.627 50.968 0.777 -38.813
5341.167 0.775 -38.997 0.629 50.782 0.629 50.782 0.775 -38.997
5366.125 0.773 -39.182 0.632 50.596 0.632 50.596 0.773 -39.182
5391.083 0.771 -39.367 0.634 50.409 0.634 50.409 0.771 -39.367
5416.042 0.769 -39.552 0.637 50.223 0.637 50.223 0.769 -39.552
5441 0.766 -39.737 0.639 50.037 0.639 50.037 0.766 -39.737
5465.958 0.764 -39.921 0.642 49.851 0.642 49.851 0.764 -39.921
5490.917 0.762 -40.106 0.644 49.664 0.644 49.664 0.762 -40.106
5515.875 0.76 -40.291 0.647 49.478 0.647 49.478 0.76 -40.291
5540.833 0.758 -40.476 0.649 49.292 0.649 49.292 0.758 -40.476
5565.792 0.756 -40.66 0.652 49.106 0.652 49.106 0.756 -40.66
5590.75 0.754 -40.845 0.654 48.919 0.654 48.919 0.754 -40.845
5615.708 0.752 -41.03 0.656 48.733 0.656 48.733 0.752 -41.03
5640.667 0.75 -41.214 0.659 48.547 0.659 48.547 0.75 -41.214
5665.625 0.747 -41.399 0.661 48.361 0.661 48.361 0.747 -41.399
5690.583 0.745 -41.584 0.664 48.174 0.664 48.174 0.745 -41.584
5715.542 0.743 -41.768 0.666 47.988 0.666 47.988 0.743 -41.768
5740.5 0.741 -41.953 0.669 47.802 0.669 47.802 0.741 -41.953
5765.458 0.739 -42.137 0.671 47.616 0.671 47.616 0.739 -42.137
5790.417 0.736 -42.322 0.673 47.43 0.673 47.43 0.736 -42.322
5815.375 0.734 -42.506 0.676 47.244 0.676 47.244 0.734 -42.506
5840.333 0.732 -42.691 0.678 47.058 0.678 47.058 0.732 -42.691
5865.292 0.73 -42.875 0.68 46.871 0.68 46.871 0.73 -42.875
5890.25 0.728 -43.06 0.683 46.685 0.683 46.685 0.728 -43.06
5915.208 0.725 -43.244 0.685 46.499 0.685 46.499 0.725 -43.244
5940.167 0.723 -43.428 0.687 46.313 0.687 46.313 0.723 -43.428
5965.125 0.721 -43.613 0.69 46.127 0.69 46.127 0.721 -43.613
5990.083 0.719 -43.797 0.692 45.941 0.692 45.941 0.719 -43.797
6015.042 0.716 -43.981 0.694 45.755 0.694 45.755 0.716 -43.981
6040 0.714 -44.166 0.697 45.569 0.697 45.569 0.714 -44.166
6064.958 0.712 -44.35 0.699 45.383 0.699 45.383 0.712 -44.35
6089.917 0.71 -44.534 0.701 45.198 0.701 45.198 0.71 -44.534
6114.875 0.707 -44.718 0.704 45.012 0.704 45.012 0.707 -44.718
6139.833 0.705 -44.902 0.706 44.826 0.706 44.826 0.705 -44.902
6164.792 0.703 -45.086 0.708 44.64 0.708 44.64 0.703 -45.086
6189.75 0.7 -45.27 0.71 44.454 0.71 44.454 0.7 -45.27
6214.708 0.698 -45.454 0.713 44.269 0.713 44.269 0.698 -45.454
6239.667 0.696 -45.638 0.715 44.083 0.715 44.083 0.696 -45.638
6264.625 0.693 -45.822 0.717 43.897 0.717 43.897 0.693 -45.822
6289.583 0.691 -46.006 0.719 43.712 0.719 43.712 0.691 -46.006
6314.542 0.689 -46.189 0.722 43.526 0.722 43.526 0.689 -46.189
6339.5 0.686 -46.373 0.724 43.34 0.724 43.34 0.686 -46.373
6364.458 0.684 -46.557 0.726 43.155 0.726 43.155 0.684 -46.557
6389.417 0.682 -46.74 0.728 42.969 0.728 42.969 0.682 -46.74
6414.375 0.679 -46.924 0.73 42.784 0.73 42.784 0.679 -46.924
6439.333 0.677 -47.107 0.733 42.599 0.733 42.599 0.677 -47.107
6464.292 0.674 -47.291 0.735 42.413 0.735 42.413 0.674 -47.291
6489.25 0.672 -47.474 0.737 42.228 0.737 42.228 0.672 -47.474
6514.208 0.67 -47.658 0.739 42.043 0.739 42.043 0.67 -47.658
6539.167 0.667 -47.841 0.741 41.857 0.741 41.857 0.667 -47.841
6564.125 0.665 -48.024 0.743 41.672 0.743 41.672 0.665 -48.024
6589.083 0.662 -48.207 0.746 41.487 0.746 41.487 0.662 -48.207
6614.042 0.66 -48.39 0.748 41.302 0.748 41.302 0.66 -48.39
6639 0.658 -48.573 0.75 41.117 0.75 41.117 0.658 -48.573
6663.958 0.655 -48.756 0.752 40.932 0.752 40.932 0.655 -48.756
6688.917 0.653 -48.939 0.754 40.747 0.754 40.747 0.653 -48.939
6713.875 0.65 -49.122 0.756 40.562 0.756 40.562 0.65 -49.122
6738.833 0.648 -49.304 0.758 40.378 0.758 40.378 0.648 -49.304
6763.792 0.645 -49.487 0.76 40.193 0.76 40.193 0.645 -49.487
6788.75 0.643 -49.67 0.762 40.008 0.762 40.008 0.643 -49.67
6813.708 0.64 -49.852 0.764 39.824 0.764 39.824 0.64 -49.852
6838.667 0.638 -50.034 0.766 39.639 0.766 39.639 0.638 -50.034
6863.625 0.635 -50.217 0.768 39.455 0.768 39.455 0.635 -50.217
6888.583 0.633 -50.399 0.771 39.27 0.771 39.27 0.633 -50.399
6913.542 0.63 -50.581 0.773 39.086 0.773 39.086 0.63 -50.581
6938.5 0.628 -50.763 0.775 38.902 0.775 38.902 0.628 -50.763
6963.458 0.625 -50.945 0.777 38.717 0.777 38.717 0.625 -50.945
6988.417 0.623 -51.127 0.779 38.533 0.779 38.533 0.623 -51.127
7013.375 0.62 -51.309 0.781 38.349 0.781 38.349 0.62 -51.309
7038.333 0.618 -51.491 0.783 38.165 0.783 38.165 0.618 -51.491
7063.292 0.615 -51.672 0.784 37.981 0.784 37.981 0.615 -51.672
7088.25 0.613 -51.854 0.786 37.798 0.786 37.798 0.613 -51.854
7113.208 0.61 -52.035 0.788 37.614 0.788 37.614 0.61 -52.035
7138.167 0.608 -52.217 0.79 37.43 0.79 37.43 0.608 -52.217
7163.125 0.605 -52.398 0.792 37.247 0.792 37.247 0.605 -52.398
7188.083 0.603 -52.579 0.794 37.063 0.794 37.063 0.603 -52.579
7213.042 0.6 -52.76 0.796 36.88 0.796 36.88 0.6 -52.76
7238 0.598 -52.941 0.798 36.696 0.798 36.696 0.598 -52.941
7262.958 0.595 -53.122 0.8 36.513 0.8 36.513 0.595 -53.122
7287.917 0.592 -53.303 0.802 36.33 0.802 36.33 0.592 -53.303
7312.875 0.59 -53.483 0.804 36.147 0.804 36.147 0.59 -53.483
7337.833 0.587 -53.664 0.806 35.964 0.806 35.964 0.587 -53.664
7362.792 0.585 -53.844 0.807 35.781 0.807 35.781 0.585 -53.844
7387.75 0.582 -54.024 0.809 35.598 0.809 35.598 0.582 -54.024
7412.708 0.58 -54.205 0.811 35.415 0.811 35.415 0.58 -54.205
7437.667 0.577 -54.385 0.813 35.232 0.813 35.232 0.577 -54.385
7462.625 0.574 -54.565 0.815 35.05 0.815 35.05 0.574 -54.565
7487.583 0.572 -54.745 0.817 34.867 0.817 34.867 0.572 -54.745
7512.542 0.569 -54.924 0.818 34.685 0.818 34.685 0.569 -54.924
7537.5 0.566 -55.104 0.82 34.503 0.82 34.503 0.566 -55.104
7562.458 0.564 -55.283 0.822 34.321 0.822 34.321 0.564 -55.283
7587.417 0.561 -55.463 0.824 34.139 0.824 34.139 0.561 -55.463
7612.375 0.559 -55.642 0.826 33.957 0.826 33.957 0.559 -55.642
7637.333 0.556 -55.821 0.827 33.775 0.827 33.775 0.556 -55.821
7662.292 0.553 -56 0.829 33.593 0.829 33.593 0.553 -56
7687.25 0.551 -56.179 0.831 33.411 0.831 33.411 0.551 -56.179
7712.208 0.548 -56.357 0.833 33.23 0.833 33.23 0.548 -56.357
7737.167 0.545 -56.536 0.834 33.048 0.834 33.048 0.545 -56.536
7762.125 0.543 -56.714 0.836 32.867 0.836 32.867 0.543 -56.714
7787.083 0.54 -56.893 0.838 32.686 0.838 32.686 0.54 -56.893
7812.042 0.537 -57.071 0.839 32.505 0.839 32.505 0.537 -57.071
7837 0.535 -57.249 0.841 32.324 0.841 32.324 0.535 -57.249
7861.958 0.532 -57.427 0.843 32.143 0.843 32.143 0.532 -57.427
7886.917 0.529 -57.604 0.844 31.962 0.844 31.962 0.529 -57.604
7911.875 0.527 -57.782 0.846 31.782 0.846 31.782 0.527 -57.782
7936.833 0.524 -57.959 0.848 31.601 0.848 31.601 0.524 -57.959
7961.792 0.521 -58.137 0.849 31.421 0.849 31.421 0.521 -58.137
7986.75 0.519 -58.314 0.851 31.24 0.851 31.24 0.519 -58.314
8011.708 0.516 -58.491 0.853 31.06 0.853 31.06 0.516 -58.491
8036.667 0.513 -58.668 0.854 30.88 0.854 30.88 0.513 -58.668
8061.625 0.511 -58.844 0.856 30.7 0.856 30.7 0.511 -58.844
8086.583 0.508 -59.021 0.857 30.521 0.857 30.521 0.508 -59.021
8111.542 0.505 -59.197 0.859 30.341 0.859 30.341 0.505 -59.197
8136.5 0.502 -59.373 0.861 30.162 0.861 30.162 0.502 -59.373
8161.458 0.5 -59.549 0.862 29.982 0.862 29.982 0.5 -59.549
8186.417 0.497 -59.725 0.864 29.803 0.864 29.803 0.497 -59.725
8211.375 0.494 -59.901 0.865 29.624 0.865 29.624 0.494 -59.901
8236.333 0.492 -60.076 0.867 29.445 0.867 29.445 0.492 -60.076
8261.292 0.489 -60.251 0.868 29.266 0.868 29.266 0.489 -60.251
8286.25 0.486 -60.427 0.87 29.087 0.87 29.087 0.486 -60.427
8311.208 0.483 -60.602 0.871 28.909 0.871 28.909 0.483 -60.602
8336.167 0.481 -60.776 0.873 28.73 0.873 28.73 0.481 -60.776
8361.125 0.478 -60.951 0.874 28.552 0.874 28.552 0.478 -60.951
8386.083 0.475 -61.125 0.876 28.374 0.876 28.374 0.475 -61.125
8411.042 0.473 -61.3 0.877 28.196 0.877 28.196 0.473 -61.3
8436 0.47 -61.474 0.879 28.018 0.879 28.018 0.47 -61.474
8460.958 0.467 -61.648 0.88 27.841 0.88 27.841 0.467 -61.648
8485.917 0.464 -61.821 0.882 27.663 0.882 27.663 0.464 -61.821
8510.875 0.462 -61.995 0.883 27.486 0.883 27.486 0.462 -61.995
8535.833 0.459 -62.168 0.884 27.308 0.884 27.308 0.459 -62.168
8560.792 0.456 -62.341 0.886 27.131 0.886 27.131 0.456 -62.341
8585.75 0.453 -62.514 0.887 26.954 0.887 26.954 0.453 -62.514
8610.708 0.451 -62.687 0.889 26.778 0.889 26.778 0.451 -62.687
8635.667 0.448 -62.859 0.89 26.601 0.89 26.601 0.448 -62.859
8660.625 0.445 -63.031 0.891 26.424 0.891 26.424 0.445 -63.031
8685.583 0.442 -63.204 0.893 26.248 0.893 26.248 0.442 -63.204
8710.542 0.44 -63.375 0.894 26.072 0.894 26.072 0.44 -63.375
8735.5 0.437 -63.547 0.895 25.896 0.895 25.896 0.437 -63.547
8760.458 0.434 -63.719 0.897 25.72 0.897 25.72 0.434 -63.719
8785.417 0.431 -63.89 0.898 25.545 0.898 25.545 0.431 -63.89
8810.375 0.428 -64.061 0.899 25.369 0.899 25.369 0.428 -64.061
8835.333 0.426 -64.232 0.901 25.194 0.901 25.194 0.426 -64.232
8860.292 0.423 -64.402 0.902 25.019 0.902 25.019 0.423 -64.402
8885.25 0.42 -64.573 0.903 24.844 0.903 24.844 0.42 -64.573
8910.208 0.417 -64.743 0.904 24.669 0.904 24.669 0.417 -64.743
8935.167 0.415 -64.913 0.906 24.494 0.906 24.494 0.415 -64.913
8960.125 0.412 -65.082 0.907 24.32 0.907 24.32 0.412 -65.082
8985.083 0.409 -65.252 0.908 24.145 0.908 24.145 0.409 -65.252
9010.042 0.406 -65.421 0.909 23.971 0.909 23.971 0.406 -65.421
9035 0.404 -65.59 0.911 23.797 0.911 23.797 0.404 -65.59
9059.958 0.401 -65.759 0.912 23.623 0.912 23.623 0.401 -65.759
9084.917 0.398 -65.927 0.913 23.45 0.913 23.45 0.398 -65.927
9109.875 0.395 -66.095 0.914 23.276 0.914 23.276 0.395 -66.095
9134.833 0.392 -66.263 0.915 23.103 0.915 23.103 0.392 -66.263
9159.792 0.39 -66.431 0.917 22.93 0.917 22.93 0.39 -66.431
9184.75 0.387 -66.598 0.918 22.757 0.918 22.757 0.387 -66.598
9209.708 0.384 -66.766 0.919 22.584 0.919 22.584 0.384 -66.766
9234.667 0.381 -66.933 0.92 22.412 0.92 22.412 0.381 -66.933
9259.625 0.379 -67.099 0.921 22.239 0.921 22.239 0.379 -67.099
9284.583 0.376 -67.266 0.922 22.067 0.922 22.067 0.376 -67.266
9309.542 0.373 -67.432 0.923 21.895 0.923 21.895 0.373 -67.432
9334.5 0.37 -67.598 0.925 21.724 0.925 21.724 0.37 -67.598
9359.458 0.367 -67.763 0.926 21.552 0.926 21.552 0.367 -67.763
9384.417 0.365 -67.929 0.927 21.381 0.927 21.381 0.365 -67.929
9409.375 0.362 -68.094 0.928 21.209 0.928 21.209 0.362 -68.094
9434.333 0.359 -68.259 0.929 21.038 0.929 21.038 0.359 -68.259
9459.292 0.356 -68.423 0.93 20.868 0.93 20.868 0.356 -68.423
9484.25 0.353 -68.587 0.931 20.697 0.931 20.697 0.353 -68.587
9509.208 0.351 -68.751 0.932 20.527 0.932 20.527 0.351 -68.751
9534.167 0.348 -68.915 0.933 20.356 0.933 20.356 0.348 -68.915
9559.125 0.345 -69.078 0.934 20.186 0.934 20.186 0.345 -69.078
9584.083 0.342 -69.241 0.935 20.016 0.935 20.016 0.342 -69.241
9609.042 0.34 -69.404 0.936 19.847 0.936 19.847 0.34 -69.404
9634 0.337 -69.567 0.937 19.677 0.937 19.677 0.337 -69.567
9658.958 0.334 -69.729 0.938 19.508 0.938 19.508 0.334 -69.729
9683.917 0.331 -69.89 0.939 19.339 0.939 19.339 0.331 -69.89
9708.875 0.328 -70.052 0.94 19.17 0.94 19.17 0.328 -70.052
9733.833 0.326 -70.213 0.941 19.002 0.941 19.002 0.326 -70.213
9758.792 0.323 -70.374 0.942 18.833 0.942 18.833 0.323 -70.374
9783.75 0.32 -70.534 0.943 18.665 0.943 18.665 0.32 -70.534
9808.708 0.317 -70.695 0.944 18.497 0.944 18.497 0.317 -70.695
9833.667 0.315 -70.854 0.945 18.329 0.945 18.329 0.315 -70.854
9858.625 0.312 -71.014 0.946 18.162 0.946 18.162 0.312 -71.014
9883.583 0.309 -71.173 0.947 17.995 0.947 17.995 0.309 -71.173
9908.542 0.306 -71.332 0.947 17.827 0.947 17.827 0.306 -71.332
9933.5 0.303 -71.49 0.948 17.66 0.948 17.66 0.303 -71.49
9958.458 0.301 -71.648 0.949 17.494 0.949 17.494 0.301 -71.648
9983.417 0.298 -71.806 0.95 17.327 0.95 17.327 0.298 -71.806
10008.375 0.295 -71.964 0.951 17.161 0.951 17.161 0.295 -71.964
10033.333 0.292 -72.121 0.952 16.995 0.952 16.995 0.292 -72.121
10058.292 0.29 -72.277 0.953 16.829 0.953 16.829 0.29 -72.277
10083.25 0.287 -72.433 0.953 16.663 0.953 16.663 0.287 -72.433
10108.208 0.284 -72.589 0.954 16.498 0.954 16.498 0.284 -72.589
10133.167 0.281 -72.745 0.955 16.333 0.955 16.333 0.281 -72.745
10158.125 0.278 -72.9 0.956 16.168 0.956 16.168 0.278 -72.9
10183.083 0.276 -73.054 0.957 16.003 0.957 16.003 0.276 -73.054
10208.042 0.273 -73.208 0.957 15.839 0.957 15.839 0.273 -73.208
10233 0.27 -73.362 0.958 15.674 0.958 15.674 0.27 -73.362
10257.958 0.267 -73.516 0.959 15.51 0.959 15.51 0.267 -73.516
10282.917 0.265 -73.668 0.96 15.346 0.96 15.346 0.265 -73.668
10307.875 0.262 -73.821 0.961 15.183 0.961 15.183 0.262 -73.821
10332.833 0.259 -73.973 0.961 15.019 0.961 15.019 0.259 -73.973
10357.792 0.256 -74.125 0.962 14.856 0.962 14.856 0.256 -74.125
10382.75 0.254 -74.276 0.963 14.693 0.963 14.693 0.254 -74.276
10407.708 0.251 -74.426 0.963 14.531 0.963 14.531 0.251 -74.426
10432.667 0.248 -74.576 0.964 14.368 0.964 14.368 0.248 -74.576
10457.625 0.245 -74.726 0.965 14.206 0.965 14.206 0.245 -74.726
10482.583 0.243 -74.875 0.966 14.044 0.966 14.044 0.243 -74.875
10507.542 0.24 -75.024 0.966 13.882 0.966 13.882 0.24 -75.024
10532.5 0.237 -75.172 0.967 13.721 0.967 13.721 0.237 -75.172
10557.458 0.234 -75.32 0.968 13.559 0.968 13.559 0.234 -75.32
10582.417 0.232 -75.467 0.968 13.398 0.968 13.398 0.232 -75.467
10607.375 0.229 -75.613 0.969 13.237 0.969 13.237 0.229 -75.613
10632.333 0.226 -75.759 0.969 13.077 0.969 13.077 0.226 -75.759
10657.292 0.224 -75.905 0.97 12.916 0.97 12.916 0.224 -75.905
10682.25 0.221 -76.05 0.971 12.756 0.971 12.756 0.221 -76.05
10707.208 0.218 -76.194 0.971 12.596 0.971 12.596 0.218 -76.194
10732.167 0.215 -76.337 0.972 12.437 0.972 12.437 0.215 -76.337
10757.125 0.213 -76.48 0.973 12.277 0.973 12.277 0.213 -76.48
10782.083 0.21 -76.623 0.973 12.118 0.973 12.118 0.21 -76.623
10807.042 0.207 -76.764 0.974 11.959 0.974 11.959 0.207 -76.764
10832 0.205 -76.905 0.974 11.801 0.974 11.801 0.205 -76.905
10856.958 0.202 -77.046 0.975 11.642 0.975 11.642 0.202 -77.046
10881.917 0.199 -77.185 0.975 11.484 0.975 11.484 0.199 -77.185
10906.875 0.196 -77.324 0.976 11.326 0.976 11.326 0.196 -77.324
10931.833 0.194 -77.462 0.976 11.168 0.976 11.168 0.194 -77.462
10956.792 0.191 -77.6 0.977 11.011 0.977 11.011 0.191 -77.6
10981.75 0.188 -77.736 0.977 10.854 0.977 10.854 0.188 -77.736
11006.708 0.186 -77.872 0.978 10.697 0.978 10.697 0.186 -77.872
11031.667 0.183 -78.007 0.978 10.54 0.978 10.54 0.183 -78.007
11056.625 0.18 -78.141 0.979 10.384 0.979 10.384 0.18 -78.141
11081.583 0.178 -78.274 0.979 10.227 0.979 10.227 0.178 -78.274
11106.542 0.175 -78.407 0.98 10.071 0.98 10.071 0.175 -78.407
11131.5 0.172 -78.538 0.98 9.916 0.98 9.916 0.172 -78.538
11156.458 0.17 -78.668 0.981 9.76 0.981 9.76 0.17 -78.668
11181.417 0.167 -78.798 0.981 9.605 0.981 9.605 0.167 -78.798
11206.375 0.164 -78.926 0.982 9.45 0.982 9.45 0.164 -78.926
11231.333 0.162 -79.053 0.982 9.295 0.982 9.295 0.162 -79.053
11256.292 0.159 -79.179 0.983 9.141 0.983 9.141 0.159 -79.179
11281.25 0.156 -79.304 0.983 8.987 0.983 8.987 0.156 -79.304
11306.208 0.154 -79.428 0.983 8.833 0.983 8.833 0.154 -79.428
11331.167 0.151 -79.55 0.984 8.679 0.984 8.679 0.151 -79.55
11356.125 0.148 -79.672 0.984 8.525 0.984 8.525 0.148 -79.672
11381.083 0.146 -79.791 0.985 8.372 0.985 8.372 0.146 -79.791
11406.042 0.143 -79.91 0.985 8.219 0.985 8.219 0.143 -79.91
11431 0.14 -80.026 0.985 8.067 0.985 8.067 0.14 -80.026
11455.958 0.138 -80.142 0.986 7.914 0.986 7.914 0.138 -80.142
11480.917 0.135 -80.255 0.986 7.762 0.986 7.762 0.135 -80.255
11505.875 0.133 -80.367 0.987 7.61 0.987 7.61 0.133 -80.367
11530.833 0.13 -80.477 0.987 7.458 0.987 7.458 0.13 -80.477
11555.792 0.127 -80.585 0.987 7.307 0.987 7.307 0.127 -80.585
11580.75 0.125 -80.692 0.988 7.156 0.988 7.156 0.125 -80.692
11605.708 0.122 -80.796 0.988 7.005 0.988 7.005 0.122 -80.796
11630.667 0.119 -80.898 0.988 6.854 0.988 6.854 0.119 -80.898
11655.625 0.117 -80.997 0.988 6.704 0.988 6.704 0.117 -80.997
11680.583 0.114 -81.094 0.989 6.554 0.989 6.554 0.114 -81.094
11705.542 0.112 -81.188 0.989 6.404 0.989 6.404 0.112 -81.188
11730.5 0.109 -81.28 0.989 6.254 0.989 6.254 0.109 -81.28
11755.458 0.106 -81.369 0.99 6.105 0.99 6.105 0.106 -81.369
11780.417 0.104 -81.454 0.99 5.956 0.99 5.956 0.104 -81.454
11805.375 0.101 -81.536 0.99 5.807 0.99 5.807 0.101 -81.536
11830.333 0.099 -81.615 0.99 5.659 0.99 5.659 0.099 -81.615
11855.292 0.096 -81.689 0.991 5.51 0.991 5.51 0.096 -81.689
11880.25 0.094 -81.76 0.991 5.362 0.991 5.362 0.094 -81.76
11905.208 0.091 -81.826 0.991 5.215 0.991 5.215 0.091 -81.826
11930.167 0.088 -81.887 0.991 5.067 0.991 5.067 0.088 -81.887
11955.125 0.086 -81.942 0.992 4.92 0.992 4.92 0.086 -81.942
11980.083 0.083 -81.992 0.992 4.773 0.992 4.773 0.083 -81.992
12005.042 0.081 -82.036 0.992 4.626 0.992 4.626 0.081 -82.036
12030 0.078 -82.073 0.992 4.48 0.992 4.48 0.078 -82.073
12054.958 0.076 -82.103 0.992 4.334 0.992 4.334 0.076 -82.103
12079.917 0.073 -82.125 0.993 4.188 0.993 4.188 0.073 -82.125
12104.875 0.071 -82.137 0.993 4.042 0.993 4.042 0.071 -82.137
12129.833 0.068 -82.14 0.993 3.897 0.993 3.897 0.068 -82.14
12154.792 0.066 -82.132 0.993 3.752 0.993 3.752 0.066 -82.132
12179.75 0.063 -82.112 0.993 3.607 0.993 3.607 0.063 -82.112
12204.708 0.061 -82.078 0.993 3.462 0.993 3.462 0.061 -82.078
12229.667 0.058 -82.029 0.994 3.318 0.994 3.318 0.058 -82.029
12254.625 0.056 -81.962 0.994 3.174 0.994 3.174 0.056 -81.962
12279.583 0.053 -81.876 0.994 3.03 0.994 3.03 0.053 -81.876
12304.542 0.051 -81.767 0.994 2.886 0.994 2.886 0.051 -81.767
12329.5 0.048 -81.632 0.994 2.743 0.994 2.743 0.048 -81.632
12354.458 0.046 -81.467 0.994 2.6 0.994 2.6 0.046 -81.467
12379.417 0.043 -81.268 0.994 2.457 0.994 2.457 0.043 -81.268
12404.375 0.041 -81.027 0.994 2.315 0.994 2.315 0.041 -81.027
12429.333 0.038 -80.737 0.995 2.173 0.995 2.173 0.038 -80.737
12454.292 0.036 -80.389 0.995 2.031 0.995 2.031 0.036 -80.389
12479.25 0.033 -79.969 0.995 1.889 0.995 1.889 0.033 -79.969
12504.208 0.031 -79.462 0.995 1.748 0.995 1.748 0.031 -79.462
12529.167 0.028 -78.844 0.995 1.607 0.995 1.607 0.028 -78.844
12554.125 0.026 -78.086 0.995 1.466 0.995 1.466 0.026 -78.086
12579.083 0.024 -77.146 0.995 1.325 0.995 1.325 0.024 -77.146
12604.042 0.021 -75.964 0.995 1.185 0.995 1.185 0.021 -75.964
12629 0.019 -74.45 0.995 1.045 0.995 1.045 0.019 -74.45
12653.958 0.016 -72.465 0.995 0.905 0.995 0.905 0.016 -72.465
12678.917 0.014 -69.785 0.995 0.766 0.995 0.766 0.014 -69.785
12703.875 0.012 -66.028 0.995 0.626 0.995 0.626 0.012 -66.028
12728.833 9.728e-3 -60.496 0.995 0.487 0.995 0.487 9.728e-3 -60.496
12753.792 7.701e-3 -51.863 0.995 0.349 0.995 0.349 7.701e-3 -51.863
12778.75 5.978e-3 -37.662 0.995 0.21 0.995 0.21 5.978e-3 -37.662
12803.708 4.884e-3 -14.859 0.995 0.072 0.995 0.072 4.884e-3 -14.859
12828.667 4.857e-3 13.613 0.995 -0.066 0.995 -0.066 4.857e-3 13.613
12853.625 5.905e-3 36.756 0.995 -0.203 0.995 -0.203 5.905e-3 36.756
12878.583 7.593e-3 51.233 0.995 -0.341 0.995 -0.341 7.593e-3 51.233
12903.542 9.583e-3 60.023 0.995 -0.478 0.995 -0.478 9.583e-3 60.023
12928.5 0.012 65.645 0.995 -0.615 0.995 -0.615 0.012 65.645
12953.458 0.014 69.457 0.995 -0.751 0.995 -0.751 0.014 69.457
12978.417 0.016 72.172 0.995 -0.888 0.995 -0.888 0.016 72.172
13003.375 0.018 74.182 0.995 -1.024 0.995 -1.024 0.018 74.182
13028.333 0.021 75.715 0.995 -1.159 0.995 -1.159 0.021 75.715
13053.292 0.023 76.913 0.995 -1.295 0.995 -1.295 0.023 76.913
13078.25 0.025 77.866 0.995 -1.43 0.995 -1.43 0.025 77.866
13103.208 0.028 78.636 0.995 -1.565 0.995 -1.565 0.028 78.636
13128.167 0.03 79.264 0.995 -1.7 0.995 -1.7 0.03 79.264
13153.125 0.032 79.783 0.995 -1.834 0.995 -1.834 0.032 79.783
13178.083 0.035 80.213 0.995 -1.968 0.995 -1.968 0.035 80.213
13203.042 0.037 80.572 0.995 -2.102 0.995 -2.102 0.037 80.572
13228 0.039 80.872 0.995 -2.236 0.995 -2.236 0.039 80.872
13252.958 0.042 81.124 0.994 -2.369 0.994 -2.369 0.042 81.124
13277.917 0.044 81.334 0.994 -2.502 0.994 -2.502 0.044 81.334
13302.875 0.046 81.511 0.994 -2.635 0.994 -2.635 0.046 81.511
13327.833 0.049 81.657 0.994 -2.767 0.994 -2.767 0.049 81.657
13352.792 0.051 81.778 0.994 -2.9 0.994 -2.9 0.051 81.778
13377.75 0.053 81.877 0.994 -3.032 0.994 -3.032 0.053 81.877
13402.708 0.055 81.956 0.994 -3.163 0.994 -3.163 0.055 81.956
13427.667 0.058 82.019 0.994 -3.295 0.994 -3.295 0.058 82.019
13452.625 0.06 82.067 0.994 -3.426 0.994 -3.426 0.06 82.067
13477.583 0.062 82.102 0.993 -3.557 0.993 -3.557 0.062 82.102
13502.542 0.064 82.125 0.993 -3.688 0.993 -3.688 0.064 82.125
13527.5 0.067 82.137 0.993 -3.818 0.993 -3.818 0.067 82.137
13552.458 0.069 82.141 0.993 -3.948 0.993 -3.948 0.069 82.141
13577.417 0.071 82.135 0.993 -4.078 0.993 -4.078 0.071 82.135
13602.375 0.074 82.122 0.993 -4.208 0.993 -4.208 0.074 82.122
13627.333 0.076 82.103 0.992 -4.337 0.992 -4.337 0.076 82.103
13652.292 0.078 82.077 0.992 -4.466 0.992 -4.466 0.078 82.077
13677.25 0.08 82.045 0.992 -4.595 0.992 -4.595 0.08 82.045
13702.208 0.082 82.008 0.992 -4.723 0.992 -4.723 0.082 82.008
13727.167 0.085 81.966 0.992 -4.852 0.992 -4.852 0.085 81.966
13752.125 0.087 81.92 0.992 -4.98 0.992 -4.98 0.087 81.92
13777.083 0.089 81.87 0.991 -5.107 0.991 -5.107 0.089 81.87
13802.042 0.091 81.817 0.991 -5.235 0.991 -5.235 0.091 81.817
13827 0.094 81.76 0.991 -5.362 0.991 -5.362 0.094 81.76
13851.958 0.096 81.7 0.991 -5.489 0.991 -5.489 0.096 81.7
13876.917 0.098 81.637 0.991 -5.616 0.991 -5.616 0.098 81.637
13901.875 0.1 81.571 0.99 -5.742 0.99 -5.742 0.1 81.571
13926.833 0.102 81.503 0.99 -5.868 0.99 -5.868 0.102 81.503
13951.792 0.105 81.433 0.99 -5.994 0.99 -5.994 0.105 81.433
13976.75 0.107 81.36 0.99 -6.12 0.99 -6.12 0.107 81.36
14001.708 0.109 81.286 0.989 -6.245 0.989 -6.245 0.109 81.286
14026.667 0.111 81.21 0.989 -6.37 0.989 -6.37 0.111 81.21
14051.625 0.113 81.132 0.989 -6.495 0.989 -6.495 0.113 81.132
14076.583 0.115 81.052 0.989 -6.619 0.989 -6.619 0.115 81.052
14101.542 0.118 80.971 0.988 -6.744 0.988 -6.744 0.118 80.971
14126.5 0.12 80.889 0.988 -6.868 0.988 -6.868 0.12 80.889
14151.458 0.122 80.805 0.988 -6.992 0.988 -6.992 0.122 80.805
14176.417 0.124 80.72 0.988 -7.115 0.988 -7.115 0.124 80.72
14201.375 0.126 80.634 0.987 -7.238 0.987 -7.238 0.126 80.634
14226.333 0.128 80.547 0.987 -7.361 0.987 -7.361 0.128 80.547
14251.292 0.13 80.459 0.987 -7.484 0.987 -7.484 0.13 80.459
14276.25 0.132 80.37 0.987 -7.607 0.987 -7.607 0.132 80.37
14301.208 0.135 80.28 0.986 -7.729 0.986 -7.729 0.135 80.28
14326.167 0.137 80.189 0.986 -7.851 0.986 -7.851 0.137 80.189
14351.125 0.139 80.098 0.986 -7.972 0.986 -7.972 0.139 80.098
14376.083 0.141 80.006 0.985 -8.094 0.985 -8.094 0.141 80.006
14401.042 0.143 79.913 0.985 -8.215 0.985 -8.215 0.143 79.913
14426 0.145 79.82 0.985 -8.336 0.985 -8.336 0.145 79.82
14450.958 0.147 79.726 0.984 -8.457 0.984 -8.457 0.147 79.726
14475.917 0.149 79.631 0.984 -8.577 0.984 -8.577 0.149 79.631
14500.875 0.151 79.536 0.984 -8.697 0.984 -8.697 0.151 79.536
14525.833 0.153 79.441 0.984 -8.817 0.984 -8.817 0.153 79.441
14550.792 0.155 79.345 0.983 -8.937 0.983 -8.937 0.155 79.345
14575.75 0.157 79.248 0.983 -9.056 0.983 -9.056 0.157 79.248
14600.708 0.16 79.152 0.983 -9.175 0.983 -9.175 0.16 79.152
14625.667 0.162 79.054 0.982 -9.294 0.982 -9.294 0.162 79.054
14650.625 0.164 78.957 0.982 -9.412 0.982 -9.412 0.164 78.957
14675.583 0.166 78.859 0.982 -9.531 0.982 -9.531 0.166 78.859
14700.542 0.168 78.761 0.981 -9.649 0.981 -9.649 0.168 78.761
14725.5 0.17 78.663 0.981 -9.767 0.981 -9.767 0.17 78.663
14750.458 0.172 78.564 0.981 -9.884 0.981 -9.884 0.172 78.564
14775.417 0.174 78.466 0.98 -10.002 0.98 -10.002 0.174 78.466
14800.375 0.176 78.367 0.98 -10.119 0.98 -10.119 0.176 78.367
14825.333 0.178 78.268 0.979 -10.235 0.979 -10.235 0.178 78.268
14850.292 0.18 78.168 0.979 -10.352 0.979 -10.352 0.18 78.168
14875.25 0.182 78.069 0.979 -10.468 0.979 -10.468 0.182 78.069
14900.208 0.184 77.969 0.978 -10.584 0.978 -10.584 0.184 77.969
14925.167 0.186 77.869 0.978 -10.7 0.978 -10.7 0.186 77.869
14950.125 0.188 77.769 0.978 -10.816 0.978 -10.816 0.188 77.769
14975.083 0.19 77.669 0.977 -10.931 0.977 -10.931 0.19 77.669
15000.042 0.192 77.569 0.977 -11.046 0.977 -11.046 0.192 77.569
15025 0.194 77.469 0.976 -11.161 0.976 -11.161 0.194 77.469
15049.958 0.196 77.369 0.976 -11.275 0.976 -11.275 0.196 77.369
15074.917 0.198 77.269 0.976 -11.389 0.976 -11.389 0.198 77.269
15099.875 0.199 77.168 0.975 -11.504 0.975 -11.504 0.199 77.168
15124.833 0.201 77.068 0.975 -11.617 0.975 -11.617 0.201 77.068
15149.792 0.203 76.967 0.974 -11.731 0.974 -11.731 0.203 76.967
15174.75 0.205 76.867 0.974 -11.844 0.974 -11.844 0.205 76.867
15199.708 0.207 76.766 0.974 -11.957 0.974 -11.957 0.207 76.766
15224.667 0.209 76.666 0.973 -12.07 0.973 -12.07 0.209 76.666
15249.625 0.211 76.565 0.973 -12.182 0.973 -12.182 0.211 76.565
15274.583 0.213 76.465 0.972 -12.295 0.972 -12.295 0.213 76.465
15299.542 0.215 76.364 0.972 -12.407 0.972 -12.407 0.215 76.364
15324.5 0.217 76.264 0.972 -12.519 0.972 -12.519 0.217 76.264
15349.458 0.219 76.163 0.971 -12.63 0.971 -12.63 0.219 76.163
15374.417 0.221 76.063 0.971 -12.741 0.971 -12.741 0.221 76.063
15399.375 0.222 75.963 0.97 -12.852 0.97 -12.852 0.222 75.963
15424.333 0.224 75.862 0.97 -12.963 0.97 -12.963 0.224 75.862
15449.292 0.226 75.762 0.969 -13.074 0.969 -13.074 0.226 75.762
15474.25 0.228 75.662 0.969 -13.184 0.969 -13.184 0.228 75.662
15499.208 0.23 75.562 0.969 -13.294 0.969 -13.294 0.23 75.562
15524.167 0.232 75.462 0.968 -13.404 0.968 -13.404 0.232 75.462
15549.125 0.234 75.361 0.968 -13.514 0.968 -13.514 0.234 75.361
15574.083 0.236 75.261 0.967 -13.623 0.967 -13.623 0.236 75.261
15599.042 0.237 75.162 0.967 -13.732 0.967 -13.732 0.237 75.162
15624 0.239 75.062 0.966 -13.841 0.966 -13.841 0.239 75.062
15648.958 0.241 74.962 0.966 -13.95 0.966 -13.95 0.241 74.962
15673.917 0.243 74.862 0.965 -14.058 0.965 -14.058 0.243 74.862
15698.875 0.245 74.763 0.965 -14.166 0.965 -14.166 0.245 74.763
15723.833 0.247 74.663 0.965 -14.274 0.965 -14.274 0.247 74.663
15748.792 0.248 74.564 0.964 -14.382 0.964 -14.382 0.248 74.564
15773.75 0.25 74.465 0.964 -14.489 0.964 -14.489 0.25 74.465
15798.708 0.252 74.366 0.963 -14.596 0.963 -14.596 0.252 74.366
15823.667 0.254 74.266 0.963 -14.703 0.963 -14.703 0.254 74.266
15848.625 0.256 74.168 0.962 -14.81 0.962 -14.81 0.256 74.168
15873.583 0.257 74.069 0.962 -14.916 0.962 -14.916 0.257 74.069
15898.542 0.259 73.97 0.961 -15.023 0.961 -15.023 0.259 73.97
15923.5 0.261 73.871 0.961 -15.129 0.961 -15.129 0.261 73.871
15948.458 0.263 73.773 0.96 -15.234 0.96 -15.234 0.263 73.773
15973.417 0.265 73.675 0.96 -15.34 0.96 -15.34 0.265 73.675
15998.375 0.266 73.576 0.959 -15.445 0.959 -15.445 0.266 73.576
16023.333 0.268 73.478 0.959 -15.55 0.959 -15.55 0.268 73.478
16048.292 0.27 73.38 0.958 -15.655 0.958 -15.655 0.27 73.38
16073.25 0.272 73.282 0.958 -15.76 0.958 -15.76 0.272 73.282
16098.208 0.273 73.185 0.957 -15.864 0.957 -15.864 0.273 73.185
16123.167 0.275 73.087 0.957 -15.968 0.957 -15.968 0.275 73.087
16148.125 0.277 72.99 0.956 -16.072 0.956 -16.072 0.277 72.99
16173.083 0.279 72.892 0.956 -16.176 0.956 -16.176 0.279 72.892
16198.042 0.28 72.795 0.955 -16.279 0.955 -16.279 0.28 72.795
16223 0.282 72.698 0.955 -16.382 0.955 -16.382 0.282 72.698
16247.958 0.284 72.601 0.954 -16.485 0.954 -16.485 0.284 72.601
16272.917 0.286 72.504 0.954 -16.588 0.954 -16.588 0.286 72.504
16297.875 0.287 72.408 0.953 -16.69 0.953 -16.69 0.287 72.408
16322.833 0.289 72.311 0.953 -16.793 0.953 -16.793 0.289 72.311
16347.792 0.291 72.215 0.952 -16.895 0.952 -16.895 0.291 72.215
16372.75 0.292 72.119 0.952 -16.997 0.952 -16.997 0.292 72.119
16397.708 0.294 72.023 0.951 -17.098 0.951 -17.098 0.294 72.023
16422.667 0.296 71.927 0.951 -17.2 0.951 -17.2 0.296 71.927
16447.625 0.297 71.831 0.95 -17.301 0.95 -17.301 0.297 71.831
16472.583 0.299 71.736 0.95 -17.402 0.95 -17.402 0.299 71.736
16497.542 0.301 71.64 0.949 -17.502 0.949 -17.502 0.301 71.64
16522.5 0.302 71.545 0.949 -17.603 0.949 -17.603 0.302 71.545
16547.458 0.304 71.45 0.948 -17.703 0.948 -17.703 0.304 71.45
16572.417 0.306 71.355 0.948 -17.803 0.948 -17.803 0.306 71.355
16597.375 0.307 71.26 0.947 -17.903 0.947 -17.903 0.307 71.26
16622.333 0.309 71.166 0.947 -18.002 0.947 -18.002 0.309 71.166
16647.292 0.311 71.071 0.946 -18.102 0.946 -18.102 0.311 71.071
16672.25 0.312 70.977 0.945 -18.201 0.945 -18.201 0.312 70.977
16697.208 0.314 70.883 0.945 -18.3 0.945 -18.3 0.314 70.883
16722.167 0.316 70.789 0.944 -18.398 0.944 -18.398 0.316 70.789
16747.125 0.317 70.695 0.944 -18.497 0.944 -18.497 0.317 70.695
16772.083 0.319 70.602 0.943 -18.595 0.943 -18.595 0.319 70.602
16797.042 0.321 70.508 0.943 -18.693 0.943 -18.693 0.321 70.508
16822 0.322 70.415 0.942 -18.791 0.942 -18.791 0.322 70.415
16846.958 0.324 70.322 0.942 -18.888 0.942 -18.888 0.324 70.322
16871.917 0.325 70.229 0.941 -18.986 0.941 -18.986 0.325 70.229
16896.875 0.327 70.136 0.941 -19.083 0.941 -19.083 0.327 70.136
16921.833 0.329 70.043 0.94 -19.18 0.94 -19.18 0.329 70.043
16946.792 0.33 69.951 0.939 -19.276 0.939 -19.276 0.33 69.951
16971.75 0.332 69.858 0.939 -19.373 0.939 -19.373 0.332 69.858
16996.708 0.333 69.766 0.938 -19.469 0.938 -19.469 0.333 69.766
17021.667 0.335 69.674 0.938 -19.565 0.938 -19.565 0.335 69.674
17046.625 0.336 69.583 0.937 -19.661 0.937 -19.661 0.336 69.583
17071.583 0.338 69.491 0.937 -19.756 0.937 -19.756 0.338 69.491
17096.542 0.34 69.399 0.936 -19.852 0.936 -19.852 0.34 69.399
17121.5 0.341 69.308 0.936 -19.947 0.936 -19.947 0.341 69.308
17146.458 0.343 69.217 0.935 -20.042 0.935 -20.042 0.343 69.217
17171.417 0.344 69.126 0.934 -20.137 0.934 -20.137 0.344 69.126
17196.375 0.346 69.035 0.934 -20.231 0.934 -20.231 0.346 69.035
17221.333 0.347 68.945 0.933 -20.325 0.933 -20.325 0.347 68.945
17246.292 0.349 68.854 0.933 -20.42 0.933 -20.42 0.349 68.854
17271.25 0.35 68.764 0.932 -20.513 0.932 -20.513 0.35 68.764
17296.208 0.352 68.674 0.932 -20.607 0.932 -20.607 0.352 68.674
17321.167 0.354 68.584 0.931 -20.701 0.931 -20.701 0.354 68.584
17346.125 0.355 68.494 0.93 -20.794 0.93 -20.794 0.355 68.494
17371.083 0.357 68.405 0.93 -20.887 0.93 -20.887 0.357 68.405
17396.042 0.358 68.315 0.929 -20.98 0.929 -20.98 0.358 68.315
17421 0.36 68.226 0.929 -21.072 0.929 -21.072 0.36 68.226
17445.958 0.361 68.137 0.928 -21.165 0.928 -21.165 0.361 68.137
17470.917 0.363 68.048 0.928 -21.257 0.928 -21.257 0.363 68.048
17495.875 0.364 67.959 0.927 -21.349 0.927 -21.349 0.364 67.959
17520.833 0.366 67.871 0.926 -21.441 0.926 -21.441 0.366 67.871
17545.792 0.367 67.782 0.926 -21.532 0.926 -21.532 0.367 67.782
17570.75 0.369 67.694 0.925 -21.624 0.925 -21.624 0.369 67.694
17595.708 0.37 67.606 0.925 -21.715 0.925 -21.715 0.37 67.606
17620.667 0.371 67.518 0.924 -21.806 0.924 -21.806 0.371 67.518
17645.625 0.373 67.431 0.923 -21.897 0.923 -21.897 0.373 67.431
17670.583 0.374 67.343 0.923 -21.987 0.923 -21.987 0.374 67.343
17695.542 0.376 67.256 0.922 -22.078 0.922 -22.078 0.376 67.256
17720.5 0.377 67.169 0.922 -22.168 0.922 -22.168 0.377 67.169
17745.458 0.379 67.082 0.921 -22.258 0.921 -22.258 0.379 67.082
17770.417 0.38 66.995 0.921 -22.348 0.921 -22.348 0.38 66.995
17795.375 0.382 66.908 0.92 -22.437 0.92 -22.437 0.382 66.908
17820.333 0.383 66.822 0.919 -22.527 0.919 -22.527 0.383 66.822
17845.292 0.385 66.735 0.919 -22.616 0.919 -22.616 0.385 66.735
17870.25 0.386 66.649 0.918 -22.705 0.918 -22.705 0.386 66.649
17895.208 0.387 66.563 0.918 -22.793 0.918 -22.793 0.387 66.563
17920.167 0.389 66.477 0.917 -22.882 0.917 -22.882 0.389 66.477
17945.125 0.39 66.392 0.916 -22.97 0.916 -22.97 0.39 66.392
17970.083 0.392 66.306 0.916 -23.058 0.916 -23.058 0.392 66.306
17995.042 0.393 66.221 0.915 -23.146 0.915 -23.146 0.393 66.221
18020 0.395 66.136 0.915 -23.234 0.915 -23.234 0.395 66.136
18044.958 0.396 66.051 0.914 -23.322 0.914 -23.322 0.396 66.051
18069.917 0.397 65.966 0.913 -23.409 0.913 -23.409 0.397 65.966
18094.875 0.399 65.882 0.913 -23.496 0.913 -23.496 0.399 65.882
18119.833 0.4 65.797 0.912 -23.583 0.912 -23.583 0.4 65.797
18144.792 0.401 65.713 0.912 -23.67 0.912 -23.67 0.401 65.713
18169.75 0.403 65.629 0.911 -23.757 0.911 -23.757 0.403 65.629
18194.708 0.404 65.545 0.91 -23.843 0.91 -23.843 0.404 65.545
18219.667 0.406 65.461 0.91 -23.929 0.91 -23.929 0.406 65.461
18244.625 0.407 65.378 0.909 -24.015 0.909 -24.015 0.407 65.378
18269.583 0.408 65.294 0.909 -24.101 0.909 -24.101 0.408 65.294
18294.542 0.41 65.211 0.908 -24.187 0.908 -24.187 0.41 65.211
18319.5 0.411 65.128 0.907 -24.272 0.907 -24.272 0.411 65.128
18344.458 0.412 65.045 0.907 -24.357 0.907 -24.357 0.412 65.045
18369.417 0.414 64.963 0.906 -24.443 0.906 -24.443 0.414 64.963
18394.375 0.415 64.88 0.905 -24.527 0.905 -24.527 0.415 64.88
18419.333 0.416 64.798 0.905 -24.612 0.905 -24.612 0.416 64.798
18444.292 0.418 64.716 0.904 -24.697 0.904 -24.697 0.418 64.716
18469.25 0.419 64.634 0.904 -24.781 0.904 -24.781 0.419 64.634
18494.208 0.421 64.552 0.903 -24.865 0.903 -24.865 0.421 64.552
18519.167 0.422 64.47 0.902 -24.949 0.902 -24.949 0.422 64.47
18544.125 0.423 64.388 0.902 -25.033 0.902 -25.033 0.423 64.388
18569.083 0.424 64.307 0.901 -25.116 0.901 -25.116 0.424 64.307
18594.042 0.426 64.226 0.901 -25.2 0.901 -25.2 0.426 64.226
18619 0.427 64.145 0.9 -25.283 0.9 -25.283 0.427 64.145
18643.958 0.428 64.064 0.899 -25.366 0.899 -25.366 0.428 64.064
18668.917 0.43 63.983 0.899 -25.448 0.899 -25.448 0.43 63.983
18693.875 0.431 63.903 0.898 -25.531 0.898 -25.531 0.431 63.903
18718.833 0.432 63.823 0.897 -25.614 0.897 -25.614 0.432 63.823
18743.792 0.434 63.742 0.897 -25.696 0.897 -25.696 0.434 63.742
18768.75 0.435 63.662 0.896 -25.778 0.896 -25.778 0.435 63.662
18793.708 0.436 63.582 0.896 -25.86 0.896 -25.86 0.436 63.582
18818.667 0.437 63.503 0.895 -25.941 0.895 -25.941 0.437 63.503
18843.625 0.439 63.423 0.894 -26.023 0.894 -26.023 0.439 63.423
18868.583 0.44 63.344 0.894 -26.104 0.894 -26.104 0.44 63.344
18893.542 0.441 63.265 0.893 -26.185 0.893 -26.185 0.441 63.265
18918.5 0.443 63.186 0.893 -26.266 0.893 -26.266 0.443 63.186
18943.458 0.444 63.107 0.892 -26.347 0.892 -26.347 0.444 63.107
18968.417 0.445 63.028 0.891 -26.428 0.891 -26.428 0.445 63.028
18993.375 0.446 62.95 0.891 -26.508 0.891 -26.508 0.446 62.95
19018.333 0.448 62.871 0.89 -26.589 0.89 -26.589 0.448 62.871
19043.292 0.449 62.793 0.889 -26.669 0.889 -26.669 0.449 62.793
19068.25 0.45 62.715 0.889 -26.749 0.889 -26.749 0.45 62.715
19093.208 0.451 62.637 0.888 -26.828 0.888 -26.828 0.451 62.637
19118.167 0.453 62.559 0.888 -26.908 0.888 -26.908 0.453 62.559
19143.125 0.454 62.482 0.887 -26.987 0.887 -26.987 0.454 62.482
19168.083 0.455 62.404 0.886 -27.066 0.886 -27.066 0.455 62.404
19193.042 0.456 62.327 0.886 -27.145 0.886 -27.145 0.456 62.327
19218 0.457 62.25 0.885 -27.224 0.885 -27.224 0.457 62.25
19242.958 0.459 62.173 0.884 -27.303 0.884 -27.303 0.459 62.173
19267.917 0.46 62.096 0.884 -27.382 0.884 -27.382 0.46 62.096
19292.875 0.461 62.02 0.883 -27.46 0.883 -27.46 0.461 62.02
19317.833 0.462 61.943 0.883 -27.538 0.883 -27.538 0.462 61.943
19342.792 0.464 61.867 0.882 -27.616 0.882 -27.616 0.464 61.867
19367.75 0.465 61.791 0.881 -27.694 0.881 -27.694 0.465 61.791
19392.708 0.466 61.715 0.881 -27.771 0.881 -27.771 0.466 61.715
19417.667 0.467 61.639 0.88 -27.849 0.88 -27.849 0.467 61.639
19442.625 0.468 61.564 0.879 -27.926 0.879 -27.926 0.468 61.564
19467.583 0.47 61.488 0.879 -28.003 0.879 -28.003 0.47 61.488
19492.542 0.471 61.413 0.878 -28.08 0.878 -28.08 0.471 61.413
19517.5 0.472 61.338 0.877 -28.157 0.877 -28.157 0.472 61.338
19542.458 0.473 61.263 0.877 -28.234 0.877 -28.234 0.473 61.263
19567.417 0.474 61.188 0.876 -28.31 0.876 -28.31 0.474 61.188
19592.375 0.475 61.113 0.876 -28.386 0.876 -28.386 0.475 61.113
19617.333 0.477 61.039 0.875 -28.463 0.875 -28.463 0.477 61.039
19642.292 0.478 60.964 0.874 -28.539 0.874 -28.539 0.478 60.964
19667.25 0.479 60.89 0.874 -28.614 0.874 -28.614 0.479 60.89
19692.208 0.48 60.816 0.873 -28.69 0.873 -28.69 0.48 60.816
19717.167 0.481 60.742 0.872 -28.765 0.872 -28.765 0.481 60.742
19742.125 0.482 60.668 0.872 -28.841 0.872 -28.841 0.482 60.668
19767.083 0.484 60.595 0.871 -28.916 0.871 -28.916 0.484 60.595
19792.042 0.485 60.521 0.871 -28.991 0.871 -28.991 0.485 60.521
19817 0.486 60.448 0.87 -29.066 0.87 -29.066 0.486 60.448
19841.958 0.487 60.375 0.869 -29.14 0.869 -29.14 0.487 60.375
19866.917 0.488 60.302 0.869 -29.215 0.869 -29.215 0.488 60.302
19891.875 0.489 60.229 0.868 -29.289 0.868 -29.289 0.489 60.229
19916.833 0.49 60.156 0.867 -29.363 0.867 -29.363 0.49 60.156
19941.792 0.491 60.084 0.867 -29.437 0.867 -29.437 0.491 60.084
19966.75 0.493 60.011 0.866 -29.511 0.866 -29.511 0.493 60.011
19991.708 0.494 59.939 0.866 -29.585 0.866 -29.585 0.494 59.939
20016.667 0.495 59.867 0.865 -29.658 0.865 -29.658 0.495 59.867
20041.625 0.496 59.795 0.864 -29.731 0.864 -29.731 0.496 59.795
20066.583 0.497 59.723 0.864 -29.804 0.864 -29.804 0.497 59.723
20091.542 0.498 59.652 0.863 -29.878 0.863 -29.878 0.498 59.652
20116.5 0.499 59.58 0.862 -29.95 0.862 -29.95 0.499 59.58
20141.458 0.5 59.509 0.862 -30.023 0.862 -30.023 0.5 59.509
20166.417 0.501 59.438 0.861 -30.096 0.861 -30.096 0.501 59.438
20191.375 0.503 59.367 0.86 -30.168 0.86 -30.168 0.503 59.367
20216.333 0.504 59.296 0.86 -30.24 0.86 -30.24 0.504 59.296
20241.292 0.505 59.225 0.859 -30.312 0.859 -30.312 0.505 59.225
20266.25 0.506 59.155 0.859 -30.384 0.859 -30.384 0.506 59.155
20291.208 0.507 59.084 0.858 -30.456 0.858 -30.456 0.507 59.084
20316.167 0.508 59.014 0.857 -30.528 0.857 -30.528 0.508 59.014
20341.125 0.509 58.944 0.857 -30.599 0.857 -30.599 0.509 58.944
20366.083 0.51 58.874 0.856 -30.67 0.856 -30.67 0.51 58.874
20391.042 0.511 58.804 0.855 -30.741 0.855 -30.741 0.511 58.804
20416 0.512 58.734 0.855 -30.812 0.855 -30.812 0.512 58.734
20440.958 0.513 58.665 0.854 -30.883 0.854 -30.883 0.513 58.665
20465.917 0.514 58.595 0.854 -30.954 0.854 -30.954 0.514 58.595
20490.875 0.515 58.526 0.853 -31.024 0.853 -31.024 0.515 58.526
20515.833 0.516 58.457 0.852 -31.095 0.852 -31.095 0.516 58.457
20540.792 0.518 58.388 0.852 -31.165 0.852 -31.165 0.518 58.388
20565.75 0.519 58.319 0.851 -31.235 0.851 -31.235 0.519 58.319
20590.708 0.52 58.25 0.85 -31.305 0.85 -31.305 0.52 58.25
20615.667 0.521 58.182 0.85 -31.375 0.85 -31.375 0.521 58.182
20640.625 0.522 58.114 0.849 -31.444 0.849 -31.444 0.522 58.114
20665.583 0.523 58.045 0.848 -31.514 0.848 -31.514 0.523 58.045
20690.542 0.524 57.977 0.848 -31.583 0.848 -31.583 0.524 57.977
20715.5 0.525 57.909 0.847 -31.652 0.847 -31.652 0.525 57.909
20740.458 0.526 57.841 0.847 -31.721 0.847 -31.721 0.526 57.841
20765.417 0.527 57.774 0.846 -31.79 0.846 -31.79 0.527 57.774
20790.375 0.528 57.706 0.845 -31.859 0.845 -31.859 0.528 57.706
20815.333 0.529 57.639 0.845 -31.927 0.845 -31.927 0.529 57.639
20840.292 0.53 57.571 0.844 -31.996 0.844 -31.996 0.53 57.571
20865.25 0.531 57.504 0.843 -32.064 0.843 -32.064 0.531 57.504
20890.208 0.532 57.437 0.843 -32.132 0.843 -32.132 0.532 57.437
20915.167 0.533 57.37 0.842 -32.2 0.842 -32.2 0.533 57.37
20940.125 0.534 57.304 0.842 -32.268 0.842 -32.268 0.534 57.304
20965.083 0.535 57.237 0.841 -32.336 0.841 -32.336 0.535 57.237
20990.042 0.536 57.171 0.84 -32.403 0.84 -32.403 0.536 57.171
21015 0.537 57.104 0.84 -32.471 0.84 -32.471 0.537 57.104
21039.958 0.538 57.038 0.839 -32.538 0.839 -32.538 0.538 57.038
21064.917 0.539 56.972 0.838 -32.605 0.838 -32.605 0.539 56.972
21089.875 0.54 56.906 0.838 -32.672 0.838 -32.672 0.54 56.906
21114.833 0.541 56.841 0.837 -32.739 0.837 -32.739 0.541 56.841
21139.792 0.542 56.775 0.837 -32.805 0.837 -32.805 0.542 56.775
21164.75 0.543 56.71 0.836 -32.872 0.836 -32.872 0.543 56.71
21189.708 0.544 56.644 0.835 -32.938 0.835 -32.938 0.544 56.644
21214.667 0.545 56.579 0.835 -33.005 0.835 -33.005 0.545 56.579
21239.625 0.546 56.514 0.834 -33.071 0.834 -33.071 0.546 56.514
21264.583 0.547 56.449 0.833 -33.137 0.833 -33.137 0.547 56.449
21289.542 0.548 56.384 0.833 -33.203 0.833 -33.203 0.548 56.384
21314.5 0.549 56.32 0.832 -33.268 0.832 -33.268 0.549 56.32
21339.458 0.55 56.255 0.832 -33.334 0.832 -33.334 0.55 56.255
21364.417 0.55 56.191 0.831 -33.399 0.831 -33.399 0.55 56.191
21389.375 0.551 56.126 0.83 -33.465 0.83 -33.465 0.551 56.126
21414.333 0.552 56.062 0.83 -33.53 0.83 -33.53 0.552 56.062
21439.292 0.553 55.998 0.829 -33.595 0.829 -33.595 0.553 55.998
21464.25 0.554 55.934 0.828 -33.66 0.828 -33.66 0.554 55.934
21489.208 0.555 55.871 0.828 -33.724 0.828 -33.724 0.555 55.871
21514.167 0.556 55.807 0.827 -33.789 0.827 -33.789 0.556 55.807
21539.125 0.557 55.744 0.827 -33.853 0.827 -33.853 0.557 55.744
21564.083 0.558 55.68 0.826 -33.918 0.826 -33.918 0.558 55.68
21589.042 0.559 55.617 0.825 -33.982 0.825 -33.982 0.559 55.617
21614 0.56 55.554 0.825 -34.046 0.825 -34.046 0.56 55.554
21638.958 0.561 55.491 0.824 -34.11 0.824 -34.11 0.561 55.491
21663.917 0.562 55.428 0.823 -34.174 0.823 -34.174 0.562 55.428
21688.875 0.563 55.365 0.823 -34.237 0.823 -34.237 0.563 55.365
21713.833 0.564 55.303 0.822 -34.301 0.822 -34.301 0.564 55.303
21738.792 0.564 55.24 0.822 -34.364 0.822 -34.364 0.564 55.24
21763.75 0.565 55.178 0.821 -34.427 0.821 -34.427 0.565 55.178
21788.708 0.566 55.116 0.82 -34.491 0.82 -34.491 0.566 55.116
21813.667 0.567 55.054 0.82 -34.553 0.82 -34.553 0.567 55.054
21838.625 0.568 54.992 0.819 -34.616 0.819 -34.616 0.568 54.992
21863.583 0.569 54.93 0.818 -34.679 0.818 -34.679 0.569 54.93
21888.542 0.57 54.868 0.818 -34.742 0.818 -34.742 0.57 54.868
21913.5 0.571 54.807 0.817 -34.804 0.817 -34.804 0.571 54.807
21938.458 0.572 54.746 0.817 -34.866 0.817 -34.866 0.572 54.746
21963.417 0.573 54.684 0.816 -34.929 0.816 -34.929 0.573 54.684
21988.375 0.573 54.623 0.815 -34.991 0.815 -34.991 0.573 54.623
22013.333 0.574 54.562 0.815 -35.053 0.815 -35.053 0.574 54.562
22038.292 0.575 54.501 0.814 -35.114 0.814 -35.114 0.575 54.501
22063.25 0.576 54.44 0.814 -35.176 0.814 -35.176 0.576 54.44
22088.208 0.577 54.38 0.813 -35.238 0.813 -35.238 0.577 54.38
22113.167 0.578 54.319 0.812 -35.299 0.812 -35.299 0.578 54.319
22138.125 0.579 54.259 0.812 -35.36 0.812 -35.36 0.579 54.259
22163.083 0.58 54.198 0.811 -35.421 0.811 -35.421 0.58 54.198
22188.042 0.58 54.138 0.81 -35.483 0.81 -35.483 0.58 54.138
22213 0.581 54.078 0.81 -35.543 0.81 -35.543 0.581 54.078
22237.958 0.582 54.018 0.809 -35.604 0.809 -35.604 0.582 54.018
22262.917 0.583 53.958 0.809 -35.665 0.809 -35.665 0.583 53.958
22287.875 0.584 53.899 0.808 -35.725 0.808 -35.725 0.584 53.899
22312.833 0.585 53.839 0.807 -35.786 0.807 -35.786 0.585 53.839
22337.792 0.586 53.78 0.807 -35.846 0.807 -35.846 0.586 53.78
22362.75 0.586 53.72 0.806 -35.906 0.806 -35.906 0.586 53.72
22387.708 0.587 53.661 0.806 -35.966 0.806 -35.966 0.587 53.661
22412.667 0.588 53.602 0.805 -36.026 0.805 -36.026 0.588 53.602
22437.625 0.589 53.543 0.804 -36.086 0.804 -36.086 0.589 53.543
22462.583 0.59 53.484 0.804 -36.146 0.804 -36.146 0.59 53.484
22487.542 0.591 53.425 0.803 -36.205 0.803 -36.205 0.591 53.425
22512.5 0.592 53.367 0.802 -36.265 0.802 -36.265 0.592 53.367
22537.458 0.592 53.308 0.802 -36.324 0.802 -36.324 0.592 53.308
22562.417 0.593 53.25 0.801 -36.383 0.801 -36.383 0.593 53.25
22587.375 0.594 53.192 0.801 -36.442 0.801 -36.442 0.594 53.192
22612.333 0.595 53.134 0.8 -36.501 0.8 -36.501 0.595 53.134
22637.292 0.596 53.076 0.799 -36.56 0.799 -36.56 0.596 53.076
22662.25 0.596 53.018 0.799 -36.618 0.799 -36.618 0.596 53.018
22687.208 0.597 52.96 0.798 -36.677 0.798 -36.677 0.597 52.96
22712.167 0.598 52.902 0.798 -36.735 0.798 -36.735 0.598 52.902
22737.125 0.599 52.845 0.797 -36.794 0.797 -36.794 0.599 52.845
22762.083 0.6 52.787 0.796 -36.852 0.796 -36.852 0.6 52.787
22787.042 0.601 52.73 0.796 -36.91 0.796 -36.91 0.601 52.73
22812 0.601 52.673 0.795 -36.968 0.795 -36.968 0.601 52.673
22836.958 0.602 52.616 0.795 -37.026 0.795 -37.026 0.602 52.616
22861.917 0.603 52.559 0.794 -37.084 0.794 -37.084 0.603 52.559
22886.875 0.604 52.502 0.793 -37.141 0.793 -37.141 0.604 52.502
22911.833 0.605 52.445 0.793 -37.199 0.793 -37.199 0.605 52.445
22936.792 0.605 52.388 0.792 -37.256 0.792 -37.256 0.605 52.388
22961.75 0.606 52.332 0.792 -37.313 0.792 -37.313 0.606 52.332
22986.708 0.607 52.275 0.791 -37.371 0.791 -37.371 0.607 52.275
23011.667 0.608 52.219 0.79 -37.428 0.79 -37.428 0.608 52.219
23036.625 0.609 52.163 0.79 -37.484 0.79 -37.484 0.609 52.163
23061.583 0.609 52.107 0.789 -37.541 0.789 -37.541 0.609 52.107
23086.542 0.61 52.051 0.789 -37.598 0.789 -37.598 0.61 52.051
23111.5 0.611 51.995 0.788 -37.655 0.788 -37.655 0.611 51.995
23136.458 0.612 51.939 0.787 -37.711 0.787 -37.711 0.612 51.939
23161.417 0.612 51.884 0.787 -37.767 0.787 -37.767 0.612 51.884
23186.375 0.613 51.828 0.786 -37.824 0.786 -37.824 0.613 51.828
23211.333 0.614 51.773 0.786 -37.88 0.786 -37.88 0.614 51.773
23236.292 0.615 51.718 0.785 -37.936 0.785 -37.936 0.615 51.718
23261.25 0.616 51.662 0.784 -37.991 0.784 -37.991 0.616 51.662
23286.208 0.616 51.607 0.784 -38.047 0.784 -38.047 0.616 51.607
23311.167 0.617 51.552 0.783 -38.103 0.783 -38.103 0.617 51.552
23336.125 0.618 51.497 0.783 -38.158 0.783 -38.158 0.618 51.497
23361.083 0.619 51.443 0.782 -38.214 0.782 -38.214 0.619 51.443
23386.042 0.619 51.388 0.781 -38.269 0.781 -38.269 0.619 51.388
23411 0.62 51.334 0.781 -38.324 0.781 -38.324 0.62 51.334
23435.958 0.621 51.279 0.78 -38.38 0.78 -38.38 0.621 51.279
23460.917 0.622 51.225 0.78 -38.435 0.78 -38.435 0.622 51.225
23485.875 0.622 51.171 0.779 -38.489 0.779 -38.489 0.622 51.171
23510.833 0.623 51.116 0.778 -38.544 0.778 -38.544 0.623 51.116
23535.792 0.624 51.062 0.778 -38.599 0.778 -38.599 0.624 51.062
23560.75 0.625 51.009 0.777 -38.653 0.777 -38.653 0.625 51.009
23585.708 0.625 50.955 0.777 -38.708 0.777 -38.708 0.625 50.955
23610.667 0.626 50.901 0.776 -38.762 0.776 -38.762 0.626 50.901
23635.625 0.627 50.848 0.775 -38.816 0.775 -38.816 0.627 50.848
23660.583 0.628 50.794 0.775 -38.87 0.775 -38.87 0.628 50.794
23685.542 0.628 50.741 0.774 -38.924 0.774 -38.924 0.628 50.741
23710.5 0.629 50.688 0.774 -38.978 0.774 -38.978 0.629 50.688
23735.458 0.63 50.634 0.773 -39.032 0.773 -39.032 0.63 50.634
23760.417 0.63 50.581 0.773 -39.086 0.773 -39.086 0.63 50.581
23785.375 0.631 50.528 0.772 -39.139 0.772 -39.139 0.631 50.528
23810.333 0.632 50.476 0.771 -39.193 0.771 -39.193 0.632 50.476
23835.292 0.633 50.423 0.771 -39.246 0.771 -39.246 0.633 50.423
23860.25 0.633 50.37 0.77 -39.299 0.77 -39.299 0.633 50.37
23885.208 0.634 50.318 0.77 -39.353 0.77 -39.353 0.634 50.318
23910.167 0.635 50.265 0.769 -39.406 0.769 -39.406 0.635 50.265
23935.125 0.636 50.213 0.768 -39.459 0.768 -39.459 0.636 50.213
23960.083 0.636 50.161 0.768 -39.511 0.768 -39.511 0.636 50.161
23985.042 0.637 50.109 0.767 -39.564 0.767 -39.564 0.637 50.109
24010 0.638 50.057 0.767 -39.617 0.767 -39.617 0.638 50.057
24034.958 0.638 50.005 0.766 -39.669 0.766 -39.669 0.638 50.005
24059.917 0.639 49.953 0.766 -39.722 0.766 -39.722 0.639 49.953
24084.875 0.64 49.901 0.765 -39.774 0.765 -39.774 0.64 49.901
24109.833 0.64 49.85 0.764 -39.826 0.764 -39.826 0.64 49.85
24134.792 0.641 49.798 0.764 -39.878 0.764 -39.878 0.641 49.798
24159.75 0.642 49.747 0.763 -39.93 0.763 -39.93 0.642 49.747
24184.708 0.643 49.695 0.763 -39.982 0.763 -39.982 0.643 49.695
24209.667 0.643 49.644 0.762 -40.034 0.762 -40.034 0.643 49.644
24234.625 0.644 49.593 0.761 -40.086 0.761 -40.086 0.644 49.593
24259.583 0.645 49.542 0.761 -40.137 0.761 -40.137 0.645 49.542
24284.542 0.645 49.491 0.76 -40.189 0.76 -40.189 0.645 49.491
24309.5 0.646 49.44 0.76 -40.24 0.76 -40.24 0.646 49.44
24334.458 0.647 49.39 0.759 -40.292 0.759 -40.292 0.647 49.39
24359.417 0.647 49.339 0.759 -40.343 0.759 -40.343 0.647 49.339
24384.375 0.648 49.288 0.758 -40.394 0.758 -40.394 0.648 49.288
24409.333 0.649 49.238 0.757 -40.445 0.757 -40.445 0.649 49.238
24434.292 0.649 49.188 0.757 -40.496 0.757 -40.496 0.649 49.188
24459.25 0.65 49.137 0.756 -40.546 0.756 -40.546 0.65 49.137
24484.208 0.651 49.087 0.756 -40.597 0.756 -40.597 0.651 49.087
24509.167 0.651 49.037 0.755 -40.648 0.755 -40.648 0.651 49.037
24534.125 0.652 48.987 0.755 -40.698 0.755 -40.698 0.652 48.987
24559.083 0.653 48.938 0.754 -40.749 0.754 -40.749 0.653 48.938
24584.042 0.653 48.888 0.753 -40.799 0.753 -40.799 0.653 48.888
24609 0.654 48.838 0.753 -40.849 0.753 -40.849 0.654 48.838
24633.958 0.655 48.789 0.752 -40.899 0.752 -40.899 0.655 48.789
24658.917 0.655 48.739 0.752 -40.949 0.752 -40.949 0.655 48.739
24683.875 0.656 48.69 0.751 -40.999 0.751 -40.999 0.656 48.69
24708.833 0.657 48.64 0.751 -41.049 0.751 -41.049 0.657 48.64
24733.792 0.657 48.591 0.75 -41.099 0.75 -41.099 0.657 48.591
24758.75 0.658 48.542 0.749 -41.148 0.749 -41.148 0.658 48.542
24783.708 0.659 48.493 0.749 -41.198 0.749 -41.198 0.659 48.493
24808.667 0.659 48.444 0.748 -41.247 0.748 -41.247 0.659 48.444
24833.625 0.66 48.396 0.748 -41.297 0.748 -41.297 0.66 48.396
24858.583 0.661 48.347 0.747 -41.346 0.747 -41.346 0.661 48.347
24883.542 0.661 48.298 0.747 -41.395 0.747 -41.395 0.661 48.298
24908.5 0.662 48.25 0.746 -41.444 0.746 -41.444 0.662 48.25
24933.458 0.663 48.201 0.746 -41.493 0.746 -41.493 0.663 48.201
24958.417 0.663 48.153 0.745 -41.542 0.745 -41.542 0.663 48.153
24983.375 0.664 48.105 0.744 -41.591 0.744 -41.591 0.664 48.105
25008.333 0.664 48.057 0.744 -41.639 0.744 -41.639 0.664 48.057
25033.292 0.665 48.009 0.743 -41.688 0.743 -41.688 0.665 48.009
25058.25 0.666 47.961 0.743 -41.736 0.743 -41.736 0.666 47.961
25083.208 0.666 47.913 0.742 -41.785 0.742 -41.785 0.666 47.913
25108.167 0.667 47.865 0.742 -41.833 0.742 -41.833 0.667 47.865
25133.125 0.668 47.817 0.741 -41.881 0.741 -41.881 0.668 47.817
25158.083 0.668 47.77 0.74 -41.929 0.74 -41.929 0.668 47.77
25183.042 0.669 47.722 0.74 -41.977 0.74 -41.977 0.669 47.722
25208 0.669 47.675 0.739 -42.025 0.739 -42.025 0.669 47.675
25232.958 0.67 47.627 0.739 -42.073 0.739 -42.073 0.67 47.627
25257.917 0.671 47.58 0.738 -42.121 0.738 -42.121 0.671 47.58
25282.875 0.671 47.533 0.738 -42.169 0.738 -42.169 0.671 47.533
25307.833 0.672 47.486 0.737 -42.216 0.737 -42.216 0.672 47.486
25332.792 0.673 47.439 0.737 -42.264 0.737 -42.264 0.673 47.439
25357.75 0.673 47.392 0.736 -42.311 0.736 -42.311 0.673 47.392
25382.708 0.674 47.345 0.735 -42.358 0.735 -42.358 0.674 47.345
25407.667 0.674 47.299 0.735 -42.405 0.735 -42.405 0.674 47.299
25432.625 0.675 47.252 0.734 -42.453 0.734 -42.453 0.675 47.252
25457.583 0.676 47.205 0.734 -42.5 0.734 -42.5 0.676 47.205
25482.542 0.676 47.159 0.733 -42.547 0.733 -42.547 0.676 47.159
25507.5 0.677 47.113 0.733 -42.593 0.733 -42.593 0.677 47.113
25532.458 0.677 47.066 0.732 -42.64 0.732 -42.64 0.677 47.066
25557.417 0.678 47.02 0.732 -42.687 0.732 -42.687 0.678 47.02
25582.375 0.679 46.974 0.731 -42.733 0.731 -42.733 0.679 46.974
25607.333 0.679 46.928 0.731 -42.78 0.731 -42.78 0.679 46.928
25632.292 0.68 46.882 0.73 -42.826 0.73 -42.826 0.68 46.882
25657.25 0.68 46.836 0.729 -42.873 0.729 -42.873 0.68 46.836
25682.208 0.681 46.79 0.729 -42.919 0.729 -42.919 0.681 46.79
25707.167 0.682 46.745 0.728 -42.965 0.728 -42.965 0.682 46.745
25732.125 0.682 46.699 0.728 -43.011 0.728 -43.011 0.682 46.699
25757.083 0.683 46.654 0.727 -43.057 0.727 -43.057 0.683 46.654
25782.042 0.683 46.608 0.727 -43.103 0.727 -43.103 0.683 46.608
25807 0.684 46.563 0.726 -43.149 0.726 -43.149 0.684 46.563
25831.958 0.684 46.518 0.726 -43.194 0.726 -43.194 0.684 46.518
25856.917 0.685 46.472 0.725 -43.24 0.725 -43.24 0.685 46.472
25881.875 0.686 46.427 0.725 -43.286 0.725 -43.286 0.686 46.427
25906.833 0.686 46.382 0.724 -43.331 0.724 -43.331 0.686 46.382
25931.792 0.687 46.338 0.723 -43.376 0.723 -43.376 0.687 46.338
25956.75 0.687 46.293 0.723 -43.422 0.723 -43.422 0.687 46.293
25981.708 0.688 46.248 0.722 -43.467 0.722 -43.467 0.688 46.248
26006.667 0.689 46.203 0.722 -43.512 0.722 -43.512 0.689 46.203
26031.625 0.689 46.159 0.721 -43.557 0.721 -43.557 0.689 46.159
26056.583 0.69 46.114 0.721 -43.602 0.721 -43.602 0.69 46.114
26081.542 0.69 46.07 0.72 -43.647 0.72 -43.647 0.69 46.07
26106.5 0.691 46.025 0.72 -43.692 0.72 -43.692 0.691 46.025
26131.458 0.691 45.981 0.719 -43.736 0.719 -43.736 0.691 45.981
26156.417 0.692 45.937 0.719 -43.781 0.719 -43.781 0.692 45.937
26181.375 0.692 45.893 0.718 -43.825 0.718 -43.825 0.692 45.893
26206.333 0.693 45.849 0.718 -43.87 0.718 -43.87 0.693 45.849
26231.292 0.694 45.805 0.717 -43.914 0.717 -43.914 0.694 45.805
26256.25 0.694 45.761 0.716 -43.958 0.716 -43.958 0.694 45.761
26281.208 0.695 45.717 0.716 -44.003 0.716 -44.003 0.695 45.717
26306.167 0.695 45.674 0.715 -44.047 0.715 -44.047 0.695 45.674
26331.125 0.696 45.63 0.715 -44.091 0.715 -44.091 0.696 45.63
26356.083 0.696 45.587 0.714 -44.135 0.714 -44.135 0.696 45.587
26381.042 0.697 45.543 0.714 -44.179 0.714 -44.179 0.697 45.543
26406 0.697 45.5 0.713 -44.222 0.713 -44.222 0.697 45.5
26430.958 0.698 45.456 0.713 -44.266 0.713 -44.266 0.698 45.456
26455.917 0.699 45.413 0.712 -44.31 0.712 -44.31 0.699 45.413
26480.875 0.699 45.37 0.712 -44.353 0.712 -44.353 0.699 45.37
26505.833 0.7 45.327 0.711 -44.397 0.711 -44.397 0.7 45.327
26530.792 0.7 45.284 0.711 -44.44 0.711 -44.44 0.7 45.284
26555.75 0.701 45.241 0.71 -44.483 0.71 -44.483 0.701 45.241
26580.708 0.701 45.198 0.71 -44.527 0.71 -44.527 0.701 45.198
26605.667 0.702 45.156 0.709 -44.57 0.709 -44.57 0.702 45.156
26630.625 0.702 45.113 0.709 -44.613 0.709 -44.613 0.702 45.113
26655.583 0.703 45.07 0.708 -44.656 0.708 -44.656 0.703 45.07
26680.542 0.703 45.028 0.707 -44.699 0.707 -44.699 0.703 45.028
26705.5 0.704 44.985 0.707 -44.742 0.707 -44.742 0.704 44.985
26730.458 0.704 44.943 0.706 -44.784 0.706 -44.784 0.704 44.943
26755.417 0.705 44.901 0.706 -44.827 0.706 -44.827 0.705 44.901
26780.375 0.706 44.859 0.705 -44.87 0.705 -44.87 0.706 44.859
26805.333 0.706 44.817 0.705 -44.912 0.705 -44.912 0.706 44.817
26830.292 0.707 44.774 0.704 -44.955 0.704 -44.955 0.707 44.774
26855.25 0.707 44.733 0.704 -44.997 0.704 -44.997 0.707 44.733
26880.208 0.708 44.691 0.703 -45.039 0.703 -45.039 0.708 44.691
26905.167 0.708 44.649 0.703 -45.082 0.703 -45.082 0.708 44.649
26930.125 0.709 44.607 0.702 -45.124 0.702 -45.124 0.709 44.607
26955.083 0.709 44.565 0.702 -45.166 0.702 -45.166 0.709 44.565
26980.042 0.71 44.524 0.701 -45.208 0.701 -45.208 0.71 44.524
27005 0.71 44.482 0.701 -45.25 0.701 -45.25 0.71 44.482
27029.958 0.711 44.441 0.7 -45.291 0.7 -45.291 0.711 44.441
27054.917 0.711 44.399 0.7 -45.333 0.7 -45.333 0.711 44.399
27079.875 0.712 44.358 0.699 -45.375 0.699 -45.375 0.712 44.358
27104.833 0.712 44.317 0.699 -45.417 0.699 -45.417 0.712 44.317
27129.792 0.713 44.276 0.698 -45.458 0.698 -45.458 0.713 44.276
27154.75 0.713 44.235 0.698 -45.5 0.698 -45.5 0.713 44.235
27179.708 0.714 44.194 0.697 -45.541 0.697 -45.541 0.714 44.194
27204.667 0.714 44.153 0.697 -45.582 0.697 -45.582 0.714 44.153
27229.625 0.715 44.112 0.696 -45.623 0.696 -45.623 0.715 44.112
27254.583 0.715 44.071 0.696 -45.665 0.696 -45.665 0.715 44.071
27279.542 0.716 44.031 0.695 -45.706 0.695 -45.706 0.716 44.031
27304.5 0.716 43.99 0.695 -45.747 0.695 -45.747 0.716 43.99
27329.458 0.717 43.949 0.694 -45.788 0.694 -45.788 0.717 43.949
27354.417 0.717 43.909 0.694 -45.828 0.694 -45.828 0.717 43.909
27379.375 0.718 43.868 0.693 -45.869 0.693 -45.869 0.718 43.868
27404.333 0.718 43.828 0.693 -45.91 0.693 -45.91 0.718 43.828
27429.292 0.719 43.788 0.692 -45.951 0.692 -45.951 0.719 43.788
27454.25 0.719 43.748 0.691 -45.991 0.691 -45.991 0.719 43.748
27479.208 0.72 43.707 0.691 -46.032 0.691 -46.032 0.72 43.707
27504.167 0.72 43.667 0.69 -46.072 0.69 -46.072 0.72 43.667
27529.125 0.721 43.627 0.69 -46.112 0.69 -46.112 0.721 43.627
27554.083 0.721 43.588 0.689 -46.153 0.689 -46.153 0.721 43.588
27579.042 0.722 43.548 0.689 -46.193 0.689 -46.193 0.722 43.548
27604 0.722 43.508 0.688 -46.233 0.688 -46.233 0.722 43.508
27628.958 0.723 43.468 0.688 -46.273 0.688 -46.273 0.723 43.468
27653.917 0.723 43.429 0.687 -46.313 0.687 -46.313 0.723 43.429
27678.875 0.724 43.389 0.687 -46.353 0.687 -46.353 0.724 43.389
27703.833 0.724 43.349 0.686 -46.393 0.686 -46.393 0.724 43.349
27728.792 0.725 43.31 0.686 -46.433 0.686 -46.433 0.725 43.31
27753.75 0.725 43.271 0.685 -46.472 0.685 -46.472 0.725 43.271
27778.708 0.726 43.231 0.685 -46.512 0.685 -46.512 0.726 43.231
27803.667 0.726 43.192 0.684 -46.552 0.684 -46.552 0.726 43.192
27828.625 0.726 43.153 0.684 -46.591 0.684 -46.591 0.726 43.153
27853.583 0.727 43.114 0.683 -46.631 0.683 -46.631 0.727 43.114
27878.542 0.727 43.075 0.683 -46.67 0.683 -46.67 0.727 43.075
27903.5 0.728 43.036 0.682 -46.709 0.682 -46.709 0.728 43.036
27928.458 0.728 42.997 0.682 -46.748 0.682 -46.748 0.728 42.997
27953.417 0.729 42.958 0.681 -46.788 0.681 -46.788 0.729 42.958
27978.375 0.729 42.92 0.681 -46.827 0.681 -46.827 0.729 42.92
28003.333 0.73 42.881 0.68 -46.866 0.68 -46.866 0.73 42.881
28028.292 0.73 42.842 0.68 -46.905 0.68 -46.905 0.73 42.842
28053.25 0.731 42.804 0.679 -46.944 0.679 -46.944 0.731 42.804
28078.208 0.731 42.765 0.679 -46.982 0.679 -46.982 0.731 42.765
28103.167 0.732 42.727 0.679 -47.021 0.679 -47.021 0.732 42.727
28128.125 0.732 42.689 0.678 -47.06 0.678 -47.06 0.732 42.689
28153.083 0.733 42.65 0.678 -47.098 0.678 -47.098 0.733 42.65
28178.042 0.733 42.612 0.677 -47.137 0.677 -47.137 0.733 42.612
28203 0.733 42.574 0.677 -47.175 0.677 -47.175 0.733 42.574
28227.958 0.734 42.536 0.676 -47.214 0.676 -47.214 0.734 42.536
28252.917 0.734 42.498 0.676 -47.252 0.676 -47.252 0.734 42.498
28277.875 0.735 42.46 0.675 -47.29 0.675 -47.29 0.735 42.46
28302.833 0.735 42.422 0.675 -47.329 0.675 -47.329 0.735 42.422
28327.792 0.736 42.384 0.674 -47.367 0.674 -47.367 0.736 42.384
28352.75 0.736 42.347 0.674 -47.405 0.674 -47.405 0.736 42.347
28377.708 0.737 42.309 0.673 -47.443 0.673 -47.443 0.737 42.309
28402.667 0.737 42.271 0.673 -47.481 0.673 -47.481 0.737 42.271
28427.625 0.738 42.234 0.672 -47.519 0.672 -47.519 0.738 42.234
28452.583 0.738 42.196 0.672 -47.556 0.672 -47.556 0.738 42.196
28477.542 0.738 42.159 0.671 -47.594 0.671 -47.594 0.738 42.159
28502.5 0.739 42.122 0.671 -47.632 0.671 -47.632 0.739 42.122
28527.458 0.739 42.084 0.67 -47.669 0.67 -47.669 0.739 42.084
28552.417 0.74 42.047 0.67 -47.707 0.67 -47.707 0.74 42.047
28577.375 0.74 42.01 0.669 -47.744 0.669 -47.744 0.74 42.01
28602.333 0.741 41.973 0.669 -47.782 0.669 -47.782 0.741 41.973
28627.292 0.741 41.936 0.668 -47.819 0.668 -47.819 0.741 41.936
28652.25 0.741 41.899 0.668 -47.857 0.668 -47.857 0.741 41.899
28677.208 0.742 41.862 0.667 -47.894 0.667 -47.894 0.742 41.862
28702.167 0.742 41.825 0.667 -47.931 0.667 -47.931 0.742 41.825
28727.125 0.743 41.788 0.666 -47.968 0.666 -47.968 0.743 41.788
28752.083 0.743 41.752 0.666 -48.005 0.666 -48.005 0.743 41.752
28777.042 0.744 41.715 0.665 -48.042 0.665 -48.042 0.744 41.715
28802 0.744 41.678 0.665 -48.079 0.665 -48.079 0.744 41.678
28826.958 0.745 41.642 0.664 -48.116 0.664 -48.116 0.745 41.642
28851.917 0.745 41.605 0.664 -48.153 0.664 -48.153 0.745 41.605
28876.875 0.745 41.569 0.664 -48.189 0.664 -48.189 0.745 41.569
28901.833 0.746 41.533 0.663 -48.226 0.663 -48.226 0.746 41.533
28926.792 0.746 41.496 0.663 -48.262 0.663 -48.262 0.746 41.496
28951.75 0.747 41.46 0.662 -48.299 0.662 -48.299 0.747 41.46
28976.708 0.747 41.424 0.662 -48.335 0.662 -48.335 0.747 41.424
29001.667 0.747 41.388 0.661 -48.372 0.661 -48.372 0.747 41.388
29026.625 0.748 41.352 0.661 -48.408 0.661 -48.408 0.748 41.352
29051.583 0.748 41.316 0.66 -48.444 0.66 -48.444 0.748 41.316
29076.542 0.749 41.28 0.66 -48.481 0.66 -48.481 0.749 41.28
29101.5 0.749 41.244 0.659 -48.517 0.659 -48.517 0.749 41.244
29126.458 0.75 41.208 0.659 -48.553 0.659 -48.553 0.75 41.208
29151.417 0.75 41.173 0.658 -48.589 0.658 -48.589 0.75 41.173
29176.375 0.75 41.137 0.658 -48.625 0.658 -48.625 0.75 41.137
29201.333 0.751 41.101 0.657 -48.661 0.657 -48.661 0.751 41.101
29226.292 0.751 41.066 0.657 -48.697 0.657 -48.697 0.751 41.066
29251.25 0.752 41.03 0.656 -48.732 0.656 -48.732 0.752 41.03
29276.208 0.752 40.995 0.656 -48.768 0.656 -48.768 0.752 40.995
29301.167 0.752 40.959 0.656 -48.804 0.656 -48.804 0.752 40.959
29326.125 0.753 40.924 0.655 -48.839 0.655 -48.839 0.753 40.924
29351.083 0.753 40.889 0.655 -48.875 0.655 -48.875 0.753 40.889
29376.042 0.754 40.854 0.654 -48.91 0.654 -48.91 0.754 40.854
29401 0.754 40.819 0.654 -48.946 0.654 -48.946 0.754 40.819
29425.958 0.755 40.784 0.653 -48.981 0.653 -48.981 0.755 40.784
29450.917 0.755 40.749 0.653 -49.017 0.653 -49.017 0.755 40.749
29475.875 0.755 40.714 0.652 -49.052 0.652 -49.052 0.755 40.714
29500.833 0.756 40.679 0.652 -49.087 0.652 -49.087 0.756 40.679
29525.792 0.756 40.644 0.651 -49.122 0.651 -49.122 0.756 40.644
29550.75 0.757 40.609 0.651 -49.157 0.651 -49.157 0.757 40.609
29575.708 0.757 40.574 0.65 -49.192 0.65 -49.192 0.757 40.574
29600.667 0.757 40.54 0.65 -49.227 0.65 -49.227 0.757 40.54
29625.625 0.758 40.505 0.65 -49.262 0.65 -49.262 0.758 40.505
29650.583 0.758 40.471 0.649 -49.297 0.649 -49.297 0.758 40.471
29675.542 0.759 40.436 0.649 -49.332 0.649 -49.332 0.759 40.436
29700.5 0.759 40.402 0.648 -49.366 0.648 -49.366 0.759 40.402
29725.458 0.759 40.367 0.648 -49.401 0.648 -49.401 0.759 40.367
29750.417 0.76 40.333 0.647 -49.436 0.647 -49.436 0.76 40.333
29775.375 0.76 40.299 0.647 -49.47 0.647 -49.47 0.76 40.299
29800.333 0.76 40.264 0.646 -49.505 0.646 -49.505 0.76 40.264
29825.292 0.761 40.23 0.646 -49.539 0.646 -49.539 0.761 40.23
29850.25 0.761 40.196 0.645 -49.573 0.645 -49.573 0.761 40.196
29875.208 0.762 40.162 0.645 -49.608 0.645 -49.608 0.762 40.162
29900.167 0.762 40.128 0.645 -49.642 0.645 -49.642 0.762 40.128
29925.125 0.762 40.094 0.644 -49.676 0.644 -49.676 0.762 40.094
29950.083 0.763 40.06 0.644 -49.71 0.644 -49.71 0.763 40.06
29975.042 0.763 40.027 0.643 -49.744 0.643 -49.744 0.763 40.027
30000 0.764 39.993 0.643 -49.778 0.643 -49.778 0.764 39.993
