!	AVX Thin Film Operation 	Date: April 2014		
!	Description: Accu-P® Series, Thin Film  SMD RF Capacitor
!	Part Number: 06035J8R2BBSTR					
!								
# MHZ S MA R 50

50 0.968 -14.453 0.25 75.528 0.25 75.528 0.968 -14.453
74.958 0.933 -21.14 0.361 68.833 0.361 68.833 0.933 -21.14
99.917 0.888 -27.289 0.458 62.674 0.458 62.674 0.888 -27.289
124.875 0.84 -32.845 0.542 57.11 0.542 57.11 0.84 -32.845
149.833 0.79 -37.802 0.613 52.143 0.613 52.143 0.79 -37.802
174.792 0.74 -42.194 0.672 47.742 0.672 47.742 0.74 -42.194
199.75 0.693 -46.071 0.72 43.856 0.72 43.856 0.693 -46.071
224.708 0.648 -49.492 0.76 40.426 0.76 40.426 0.648 -49.492
249.667 0.607 -52.514 0.793 37.394 0.793 37.394 0.607 -52.514
274.625 0.569 -55.191 0.821 34.708 0.821 34.708 0.569 -55.191
299.583 0.535 -57.571 0.844 32.318 0.844 32.318 0.535 -57.571
324.542 0.503 -59.694 0.863 30.184 0.863 30.184 0.503 -59.694
349.5 0.474 -61.598 0.88 28.271 0.88 28.271 0.474 -61.598
374.458 0.447 -63.312 0.893 26.548 0.893 26.548 0.447 -63.312
399.417 0.422 -64.86 0.905 24.989 0.905 24.989 0.422 -64.86
424.375 0.4 -66.266 0.915 23.572 0.915 23.572 0.4 -66.266
449.333 0.379 -67.547 0.924 22.281 0.924 22.281 0.379 -67.547
474.292 0.36 -68.719 0.932 21.098 0.932 21.098 0.36 -68.719
499.25 0.342 -69.795 0.938 20.011 0.938 20.011 0.342 -69.795
524.208 0.326 -70.787 0.944 19.009 0.944 19.009 0.326 -70.787
549.167 0.31 -71.703 0.949 18.081 0.949 18.081 0.31 -71.703
574.125 0.296 -72.552 0.954 17.22 0.954 17.22 0.296 -72.552
599.083 0.283 -73.342 0.958 16.419 0.958 16.419 0.283 -73.342
624.042 0.27 -74.079 0.962 15.67 0.962 15.67 0.27 -74.079
649 0.258 -74.767 0.965 14.969 0.965 14.969 0.258 -74.767
673.958 0.247 -75.413 0.968 14.311 0.968 14.311 0.247 -75.413
698.917 0.237 -76.019 0.97 13.692 0.97 13.692 0.237 -76.019
723.875 0.227 -76.589 0.973 13.109 0.973 13.109 0.227 -76.589
748.833 0.217 -77.127 0.975 12.557 0.975 12.557 0.217 -77.127
773.792 0.208 -77.635 0.977 12.034 0.977 12.034 0.208 -77.635
798.75 0.2 -78.117 0.979 11.538 0.979 11.538 0.2 -78.117
823.708 0.192 -78.573 0.98 11.067 0.98 11.067 0.192 -78.573
848.667 0.184 -79.007 0.982 10.618 0.982 10.618 0.184 -79.007
873.625 0.177 -79.419 0.983 10.189 0.983 10.189 0.177 -79.419
898.583 0.17 -79.812 0.984 9.78 0.984 9.78 0.17 -79.812
923.542 0.163 -80.186 0.985 9.388 0.985 9.388 0.163 -80.186
948.5 0.157 -80.544 0.986 9.012 0.986 9.012 0.157 -80.544
973.458 0.15 -80.886 0.987 8.652 0.987 8.652 0.15 -80.886
998.417 0.144 -81.212 0.988 8.305 0.988 8.305 0.144 -81.212
1023.375 0.139 -81.526 0.989 7.972 0.989 7.972 0.139 -81.526
1048.333 0.133 -81.825 0.99 7.65 0.99 7.65 0.133 -81.825
1073.292 0.128 -82.113 0.991 7.34 0.991 7.34 0.128 -82.113
1098.25 0.123 -82.389 0.991 7.041 0.991 7.041 0.123 -82.389
1123.208 0.118 -82.654 0.992 6.752 0.992 6.752 0.118 -82.654
1148.167 0.113 -82.908 0.992 6.471 0.992 6.471 0.113 -82.908
1173.125 0.108 -83.152 0.993 6.2 0.993 6.2 0.108 -83.152
1198.083 0.103 -83.386 0.993 5.937 0.993 5.937 0.103 -83.386
1223.042 0.099 -83.611 0.994 5.681 0.994 5.681 0.099 -83.611
1248 0.095 -83.827 0.994 5.433 0.994 5.433 0.095 -83.827
1272.958 0.09 -84.034 0.995 5.191 0.995 5.191 0.09 -84.034
1297.917 0.086 -84.232 0.995 4.956 0.995 4.956 0.086 -84.232
1322.875 0.082 -84.421 0.995 4.728 0.995 4.728 0.082 -84.421
1347.833 0.079 -84.602 0.996 4.505 0.996 4.505 0.079 -84.602
1372.792 0.075 -84.774 0.996 4.287 0.996 4.287 0.075 -84.774
1397.75 0.071 -84.937 0.996 4.075 0.996 4.075 0.071 -84.937
1422.708 0.067 -85.091 0.996 3.867 0.996 3.867 0.067 -85.091
1447.667 0.064 -85.236 0.997 3.665 0.997 3.665 0.064 -85.236
1472.625 0.06 -85.372 0.997 3.466 0.997 3.466 0.06 -85.372
1497.583 0.057 -85.497 0.997 3.272 0.997 3.272 0.057 -85.497
1522.542 0.054 -85.611 0.997 3.082 0.997 3.082 0.054 -85.611
1547.5 0.051 -85.713 0.997 2.896 0.997 2.896 0.051 -85.713
1572.458 0.047 -85.801 0.998 2.714 0.998 2.714 0.047 -85.801
1597.417 0.044 -85.875 0.998 2.535 0.998 2.535 0.044 -85.875
1622.375 0.041 -85.933 0.998 2.359 0.998 2.359 0.041 -85.933
1647.333 0.038 -85.97 0.998 2.186 0.998 2.186 0.038 -85.97
1672.292 0.035 -85.985 0.998 2.017 0.998 2.017 0.035 -85.985
1697.25 0.032 -85.972 0.998 1.851 0.998 1.851 0.032 -85.972
1722.208 0.029 -85.924 0.998 1.687 0.998 1.687 0.029 -85.924
1747.167 0.027 -85.833 0.998 1.526 0.998 1.526 0.027 -85.833
1772.125 0.024 -85.686 0.998 1.367 0.998 1.367 0.024 -85.686
1797.083 0.021 -85.463 0.999 1.211 0.999 1.211 0.021 -85.463
1822.042 0.019 -85.135 0.999 1.058 0.999 1.058 0.019 -85.135
1847 0.016 -84.653 0.999 0.906 0.999 0.906 0.016 -84.653
1871.958 0.013 -83.932 0.999 0.757 0.999 0.757 0.013 -83.932
1896.917 0.011 -82.81 0.999 0.61 0.999 0.61 0.011 -82.81
1921.875 8.212e-3 -80.93 0.999 0.465 0.999 0.465 8.212e-3 -80.93
1946.833 5.755e-3 -77.351 0.999 0.322 0.999 0.322 5.755e-3 -77.351
1971.792 3.388e-3 -68.558 0.999 0.181 0.999 0.181 3.388e-3 -68.558
1996.75 1.426e-3 -30.481 0.999 0.042 0.999 0.042 1.426e-3 -30.481
2021.708 2.08e-3 53.7 0.999 -0.096 0.999 -0.096 2.08e-3 53.7
2046.667 4.234e-3 72.9 0.999 -0.232 0.999 -0.232 4.234e-3 72.9
2071.625 6.515e-3 78.762 0.999 -0.367 0.999 -0.367 6.515e-3 78.762
2096.583 8.802e-3 81.477 0.999 -0.499 0.999 -0.499 8.802e-3 81.477
2121.542 0.011 83.001 0.999 -0.631 0.999 -0.631 0.011 83.001
2146.5 0.013 83.952 0.999 -0.761 0.999 -0.761 0.013 83.952
2171.458 0.016 84.584 0.999 -0.889 0.999 -0.889 0.016 84.584
2196.417 0.018 85.021 0.999 -1.016 0.999 -1.016 0.018 85.021
2221.375 0.02 85.331 0.999 -1.142 0.999 -1.142 0.02 85.331
2246.333 0.022 85.552 0.999 -1.266 0.999 -1.266 0.022 85.552
2271.292 0.024 85.711 0.998 -1.39 0.998 -1.39 0.024 85.711
2296.25 0.026 85.823 0.998 -1.512 0.998 -1.512 0.026 85.823
2321.208 0.029 85.899 0.998 -1.633 0.998 -1.633 0.029 85.899
2346.167 0.031 85.948 0.998 -1.753 0.998 -1.753 0.031 85.948
2371.125 0.033 85.975 0.998 -1.871 0.998 -1.871 0.033 85.975
2396.083 0.035 85.985 0.998 -1.989 0.998 -1.989 0.035 85.985
2421.042 0.037 85.98 0.998 -2.106 0.998 -2.106 0.037 85.98
2446 0.039 85.964 0.998 -2.221 0.998 -2.221 0.039 85.964
2470.958 0.041 85.939 0.998 -2.336 0.998 -2.336 0.041 85.939
2495.917 0.043 85.905 0.998 -2.45 0.998 -2.45 0.043 85.905
2520.875 0.045 85.865 0.998 -2.563 0.998 -2.563 0.045 85.865
2545.833 0.047 85.819 0.998 -2.674 0.998 -2.674 0.047 85.819
2570.792 0.049 85.768 0.998 -2.786 0.998 -2.786 0.049 85.768
2595.75 0.051 85.713 0.997 -2.896 0.997 -2.896 0.051 85.713
2620.708 0.052 85.654 0.997 -3.005 0.997 -3.005 0.052 85.654
2645.667 0.054 85.592 0.997 -3.114 0.997 -3.114 0.054 85.592
2670.625 0.056 85.528 0.997 -3.222 0.997 -3.222 0.056 85.528
2695.583 0.058 85.461 0.997 -3.329 0.997 -3.329 0.058 85.461
2720.542 0.06 85.392 0.997 -3.436 0.997 -3.436 0.06 85.392
2745.5 0.062 85.321 0.997 -3.541 0.997 -3.541 0.062 85.321
2770.458 0.064 85.249 0.997 -3.646 0.997 -3.646 0.064 85.249
2795.417 0.065 85.176 0.997 -3.751 0.997 -3.751 0.065 85.176
2820.375 0.067 85.101 0.997 -3.854 0.997 -3.854 0.067 85.101
2845.333 0.069 85.025 0.996 -3.957 0.996 -3.957 0.069 85.025
2870.292 0.071 84.948 0.996 -4.06 0.996 -4.06 0.071 84.948
2895.25 0.073 84.871 0.996 -4.162 0.996 -4.162 0.073 84.871
2920.208 0.074 84.793 0.996 -4.263 0.996 -4.263 0.074 84.793
2945.167 0.076 84.714 0.996 -4.364 0.996 -4.364 0.076 84.714
2970.125 0.078 84.634 0.996 -4.464 0.996 -4.464 0.078 84.634
2995.083 0.08 84.555 0.996 -4.563 0.996 -4.563 0.08 84.555
3020.042 0.081 84.474 0.995 -4.662 0.995 -4.662 0.081 84.474
3045 0.083 84.394 0.995 -4.761 0.995 -4.761 0.083 84.394
3069.958 0.085 84.313 0.995 -4.859 0.995 -4.859 0.085 84.313
3094.917 0.086 84.232 0.995 -4.956 0.995 -4.956 0.086 84.232
3119.875 0.088 84.151 0.995 -5.053 0.995 -5.053 0.088 84.151
3144.833 0.09 84.069 0.995 -5.15 0.995 -5.15 0.09 84.069
3169.792 0.091 83.988 0.995 -5.246 0.995 -5.246 0.091 83.988
3194.75 0.093 83.906 0.994 -5.341 0.994 -5.341 0.093 83.906
3219.708 0.095 83.824 0.994 -5.436 0.994 -5.436 0.095 83.824
3244.667 0.096 83.742 0.994 -5.531 0.994 -5.531 0.096 83.742
3269.625 0.098 83.66 0.994 -5.625 0.994 -5.625 0.098 83.66
3294.583 0.1 83.578 0.994 -5.719 0.994 -5.719 0.1 83.578
3319.542 0.101 83.496 0.994 -5.813 0.994 -5.813 0.101 83.496
3344.5 0.103 83.414 0.993 -5.906 0.993 -5.906 0.103 83.414
3369.458 0.105 83.332 0.993 -5.998 0.993 -5.998 0.105 83.332
3394.417 0.106 83.25 0.993 -6.09 0.993 -6.09 0.106 83.25
3419.375 0.108 83.168 0.993 -6.182 0.993 -6.182 0.108 83.168
3444.333 0.109 83.086 0.993 -6.274 0.993 -6.274 0.109 83.086
3469.292 0.111 83.004 0.993 -6.365 0.993 -6.365 0.111 83.004
3494.25 0.112 82.922 0.992 -6.456 0.992 -6.456 0.112 82.922
3519.208 0.114 82.841 0.992 -6.546 0.992 -6.546 0.114 82.841
3544.167 0.116 82.759 0.992 -6.636 0.992 -6.636 0.116 82.759
3569.125 0.117 82.677 0.992 -6.726 0.992 -6.726 0.117 82.677
3594.083 0.119 82.596 0.992 -6.815 0.992 -6.815 0.119 82.596
3619.042 0.12 82.515 0.992 -6.904 0.992 -6.904 0.12 82.515
3644 0.122 82.433 0.991 -6.993 0.991 -6.993 0.122 82.433
3668.958 0.123 82.352 0.991 -7.081 0.991 -7.081 0.123 82.352
3693.917 0.125 82.271 0.991 -7.169 0.991 -7.169 0.125 82.271
3718.875 0.126 82.19 0.991 -7.257 0.991 -7.257 0.126 82.19
3743.833 0.128 82.109 0.991 -7.344 0.991 -7.344 0.128 82.109
3768.792 0.129 82.029 0.99 -7.432 0.99 -7.432 0.129 82.029
3793.75 0.131 81.948 0.99 -7.519 0.99 -7.519 0.131 81.948
3818.708 0.132 81.868 0.99 -7.605 0.99 -7.605 0.132 81.868
3843.667 0.134 81.787 0.99 -7.692 0.99 -7.692 0.134 81.787
3868.625 0.135 81.707 0.99 -7.778 0.99 -7.778 0.135 81.707
3893.583 0.137 81.627 0.989 -7.863 0.989 -7.863 0.137 81.627
3918.542 0.138 81.547 0.989 -7.949 0.989 -7.949 0.138 81.547
3943.5 0.14 81.467 0.989 -8.034 0.989 -8.034 0.14 81.467
3968.458 0.141 81.387 0.989 -8.119 0.989 -8.119 0.141 81.387
3993.417 0.143 81.308 0.989 -8.204 0.989 -8.204 0.143 81.308
4018.375 0.144 81.228 0.988 -8.288 0.988 -8.288 0.144 81.228
4043.333 0.146 81.149 0.988 -8.373 0.988 -8.373 0.146 81.149
4068.292 0.147 81.07 0.988 -8.457 0.988 -8.457 0.147 81.07
4093.25 0.149 80.991 0.988 -8.541 0.988 -8.541 0.149 80.991
4118.208 0.15 80.912 0.987 -8.624 0.987 -8.624 0.15 80.912
4143.167 0.151 80.833 0.987 -8.707 0.987 -8.707 0.151 80.833
4168.125 0.153 80.754 0.987 -8.79 0.987 -8.79 0.153 80.754
4193.083 0.154 80.676 0.987 -8.873 0.987 -8.873 0.154 80.676
4218.042 0.156 80.597 0.987 -8.956 0.987 -8.956 0.156 80.597
4243 0.157 80.519 0.986 -9.038 0.986 -9.038 0.157 80.519
4267.958 0.159 80.441 0.986 -9.121 0.986 -9.121 0.159 80.441
4292.917 0.16 80.363 0.986 -9.203 0.986 -9.203 0.16 80.363
4317.875 0.161 80.285 0.986 -9.284 0.986 -9.284 0.161 80.285
4342.833 0.163 80.207 0.985 -9.366 0.985 -9.366 0.163 80.207
4367.792 0.164 80.129 0.985 -9.447 0.985 -9.447 0.164 80.129
4392.75 0.166 80.052 0.985 -9.529 0.985 -9.529 0.166 80.052
4417.708 0.167 79.975 0.985 -9.61 0.985 -9.61 0.167 79.975
4442.667 0.168 79.897 0.985 -9.69 0.985 -9.69 0.168 79.897
4467.625 0.17 79.82 0.984 -9.771 0.984 -9.771 0.17 79.82
4492.583 0.171 79.743 0.984 -9.851 0.984 -9.851 0.171 79.743
4517.542 0.172 79.666 0.984 -9.932 0.984 -9.932 0.172 79.666
4542.5 0.174 79.589 0.984 -10.012 0.984 -10.012 0.174 79.589
4567.458 0.175 79.513 0.983 -10.092 0.983 -10.092 0.175 79.513
4592.417 0.177 79.436 0.983 -10.171 0.983 -10.171 0.177 79.436
4617.375 0.178 79.36 0.983 -10.251 0.983 -10.251 0.178 79.36
4642.333 0.179 79.284 0.983 -10.33 0.983 -10.33 0.179 79.284
4667.292 0.181 79.208 0.982 -10.409 0.982 -10.409 0.181 79.208
4692.25 0.182 79.131 0.982 -10.488 0.982 -10.488 0.182 79.131
4717.208 0.183 79.056 0.982 -10.567 0.982 -10.567 0.183 79.056
4742.167 0.185 78.98 0.982 -10.646 0.982 -10.646 0.185 78.98
4767.125 0.186 78.904 0.981 -10.724 0.981 -10.724 0.186 78.904
4792.083 0.187 78.829 0.981 -10.802 0.981 -10.802 0.187 78.829
4817.042 0.189 78.753 0.981 -10.881 0.981 -10.881 0.189 78.753
4842 0.19 78.678 0.981 -10.959 0.981 -10.959 0.19 78.678
4866.958 0.191 78.603 0.98 -11.036 0.98 -11.036 0.191 78.603
4891.917 0.193 78.527 0.98 -11.114 0.98 -11.114 0.193 78.527
4916.875 0.194 78.453 0.98 -11.192 0.98 -11.192 0.194 78.453
4941.833 0.195 78.378 0.98 -11.269 0.98 -11.269 0.195 78.378
4966.792 0.197 78.303 0.979 -11.346 0.979 -11.346 0.197 78.303
4991.75 0.198 78.228 0.979 -11.423 0.979 -11.423 0.198 78.228
5016.708 0.199 78.154 0.979 -11.5 0.979 -11.5 0.199 78.154
5041.667 0.201 78.079 0.978 -11.577 0.978 -11.577 0.201 78.079
5066.625 0.202 78.005 0.978 -11.654 0.978 -11.654 0.202 78.005
5091.583 0.203 77.931 0.978 -11.73 0.978 -11.73 0.203 77.931
5116.542 0.205 77.857 0.978 -11.806 0.978 -11.806 0.205 77.857
5141.5 0.206 77.783 0.977 -11.883 0.977 -11.883 0.206 77.783
5166.458 0.207 77.709 0.977 -11.959 0.977 -11.959 0.207 77.709
5191.417 0.209 77.635 0.977 -12.035 0.977 -12.035 0.209 77.635
5216.375 0.21 77.561 0.977 -12.11 0.977 -12.11 0.21 77.561
5241.333 0.211 77.488 0.976 -12.186 0.976 -12.186 0.211 77.488
5266.292 0.212 77.415 0.976 -12.262 0.976 -12.262 0.212 77.415
5291.25 0.214 77.341 0.976 -12.337 0.976 -12.337 0.214 77.341
5316.208 0.215 77.268 0.975 -12.412 0.975 -12.412 0.215 77.268
5341.167 0.216 77.195 0.975 -12.487 0.975 -12.487 0.216 77.195
5366.125 0.218 77.122 0.975 -12.562 0.975 -12.562 0.218 77.122
5391.083 0.219 77.049 0.975 -12.637 0.975 -12.637 0.219 77.049
5416.042 0.22 76.976 0.974 -12.712 0.974 -12.712 0.22 76.976
5441 0.221 76.903 0.974 -12.786 0.974 -12.786 0.221 76.903
5465.958 0.223 76.831 0.974 -12.861 0.974 -12.861 0.223 76.831
5490.917 0.224 76.758 0.973 -12.935 0.973 -12.935 0.224 76.758
5515.875 0.225 76.686 0.973 -13.009 0.973 -13.009 0.225 76.686
5540.833 0.226 76.613 0.973 -13.084 0.973 -13.084 0.226 76.613
5565.792 0.228 76.541 0.973 -13.158 0.973 -13.158 0.228 76.541
5590.75 0.229 76.469 0.972 -13.231 0.972 -13.231 0.229 76.469
5615.708 0.23 76.397 0.972 -13.305 0.972 -13.305 0.23 76.397
5640.667 0.231 76.325 0.972 -13.379 0.972 -13.379 0.231 76.325
5665.625 0.233 76.253 0.971 -13.452 0.971 -13.452 0.233 76.253
5690.583 0.234 76.182 0.971 -13.526 0.971 -13.526 0.234 76.182
5715.542 0.235 76.11 0.971 -13.599 0.971 -13.599 0.235 76.11
5740.5 0.236 76.038 0.97 -13.672 0.97 -13.672 0.236 76.038
5765.458 0.238 75.967 0.97 -13.745 0.97 -13.745 0.238 75.967
5790.417 0.239 75.896 0.97 -13.818 0.97 -13.818 0.239 75.896
5815.375 0.24 75.824 0.97 -13.891 0.97 -13.891 0.24 75.824
5840.333 0.241 75.753 0.969 -13.964 0.969 -13.964 0.241 75.753
5865.292 0.243 75.682 0.969 -14.036 0.969 -14.036 0.243 75.682
5890.25 0.244 75.611 0.969 -14.109 0.969 -14.109 0.244 75.611
5915.208 0.245 75.54 0.968 -14.181 0.968 -14.181 0.245 75.54
5940.167 0.246 75.47 0.968 -14.253 0.968 -14.253 0.246 75.47
5965.125 0.247 75.399 0.968 -14.325 0.968 -14.325 0.247 75.399
5990.083 0.249 75.328 0.967 -14.397 0.967 -14.397 0.249 75.328
6015.042 0.25 75.258 0.967 -14.469 0.967 -14.469 0.25 75.258
6040 0.251 75.187 0.967 -14.541 0.967 -14.541 0.251 75.187
6064.958 0.252 75.117 0.966 -14.613 0.966 -14.613 0.252 75.117
6089.917 0.254 75.047 0.966 -14.685 0.966 -14.685 0.254 75.047
6114.875 0.255 74.977 0.966 -14.756 0.966 -14.756 0.255 74.977
6139.833 0.256 74.907 0.966 -14.828 0.966 -14.828 0.256 74.907
6164.792 0.257 74.837 0.965 -14.899 0.965 -14.899 0.257 74.837
6189.75 0.258 74.767 0.965 -14.97 0.965 -14.97 0.258 74.767
6214.708 0.26 74.697 0.965 -15.041 0.965 -15.041 0.26 74.697
6239.667 0.261 74.627 0.964 -15.112 0.964 -15.112 0.261 74.627
6264.625 0.262 74.558 0.964 -15.183 0.964 -15.183 0.262 74.558
6289.583 0.263 74.488 0.964 -15.254 0.964 -15.254 0.263 74.488
6314.542 0.264 74.419 0.963 -15.325 0.963 -15.325 0.264 74.419
6339.5 0.265 74.349 0.963 -15.395 0.963 -15.395 0.265 74.349
6364.458 0.267 74.28 0.963 -15.466 0.963 -15.466 0.267 74.28
6389.417 0.268 74.211 0.962 -15.536 0.962 -15.536 0.268 74.211
6414.375 0.269 74.142 0.962 -15.606 0.962 -15.606 0.269 74.142
6439.333 0.27 74.073 0.962 -15.677 0.962 -15.677 0.27 74.073
6464.292 0.271 74.004 0.961 -15.747 0.961 -15.747 0.271 74.004
6489.25 0.273 73.935 0.961 -15.817 0.961 -15.817 0.273 73.935
6514.208 0.274 73.866 0.961 -15.887 0.961 -15.887 0.274 73.866
6539.167 0.275 73.797 0.96 -15.957 0.96 -15.957 0.275 73.797
6564.125 0.276 73.729 0.96 -16.026 0.96 -16.026 0.276 73.729
6589.083 0.277 73.66 0.96 -16.096 0.96 -16.096 0.277 73.66
6614.042 0.278 73.592 0.959 -16.165 0.959 -16.165 0.278 73.592
6639 0.28 73.523 0.959 -16.235 0.959 -16.235 0.28 73.523
6663.958 0.281 73.455 0.959 -16.304 0.959 -16.304 0.281 73.455
6688.917 0.282 73.387 0.958 -16.374 0.958 -16.374 0.282 73.387
6713.875 0.283 73.319 0.958 -16.443 0.958 -16.443 0.283 73.319
6738.833 0.284 73.251 0.958 -16.512 0.958 -16.512 0.284 73.251
6763.792 0.285 73.183 0.957 -16.581 0.957 -16.581 0.285 73.183
6788.75 0.287 73.115 0.957 -16.65 0.957 -16.65 0.287 73.115
6813.708 0.288 73.047 0.957 -16.719 0.957 -16.719 0.288 73.047
6838.667 0.289 72.979 0.956 -16.787 0.956 -16.787 0.289 72.979
6863.625 0.29 72.912 0.956 -16.856 0.956 -16.856 0.29 72.912
6888.583 0.291 72.844 0.956 -16.924 0.956 -16.924 0.291 72.844
6913.542 0.292 72.777 0.955 -16.993 0.955 -16.993 0.292 72.777
6938.5 0.293 72.709 0.955 -17.061 0.955 -17.061 0.293 72.709
6963.458 0.295 72.642 0.954 -17.13 0.954 -17.13 0.295 72.642
6988.417 0.296 72.575 0.954 -17.198 0.954 -17.198 0.296 72.575
7013.375 0.297 72.508 0.954 -17.266 0.954 -17.266 0.297 72.508
7038.333 0.298 72.44 0.953 -17.334 0.953 -17.334 0.298 72.44
7063.292 0.299 72.373 0.953 -17.402 0.953 -17.402 0.299 72.373
7088.25 0.3 72.307 0.953 -17.47 0.953 -17.47 0.3 72.307
7113.208 0.301 72.24 0.952 -17.538 0.952 -17.538 0.301 72.24
7138.167 0.302 72.173 0.952 -17.605 0.952 -17.605 0.302 72.173
7163.125 0.304 72.106 0.952 -17.673 0.952 -17.673 0.304 72.106
7188.083 0.305 72.04 0.951 -17.74 0.951 -17.74 0.305 72.04
7213.042 0.306 71.973 0.951 -17.808 0.951 -17.808 0.306 71.973
7238 0.307 71.907 0.951 -17.875 0.951 -17.875 0.307 71.907
7262.958 0.308 71.84 0.95 -17.942 0.95 -17.942 0.308 71.84
7287.917 0.309 71.774 0.95 -18.01 0.95 -18.01 0.309 71.774
7312.875 0.31 71.708 0.949 -18.077 0.949 -18.077 0.31 71.708
7337.833 0.311 71.642 0.949 -18.144 0.949 -18.144 0.311 71.642
7362.792 0.313 71.575 0.949 -18.211 0.949 -18.211 0.313 71.575
7387.75 0.314 71.509 0.948 -18.277 0.948 -18.277 0.314 71.509
7412.708 0.315 71.444 0.948 -18.344 0.948 -18.344 0.315 71.444
7437.667 0.316 71.378 0.948 -18.411 0.948 -18.411 0.316 71.378
7462.625 0.317 71.312 0.947 -18.477 0.947 -18.477 0.317 71.312
7487.583 0.318 71.246 0.947 -18.544 0.947 -18.544 0.318 71.246
7512.542 0.319 71.181 0.947 -18.61 0.947 -18.61 0.319 71.181
7537.5 0.32 71.115 0.946 -18.677 0.946 -18.677 0.32 71.115
7562.458 0.321 71.05 0.946 -18.743 0.946 -18.743 0.321 71.05
7587.417 0.322 70.984 0.945 -18.809 0.945 -18.809 0.322 70.984
7612.375 0.324 70.919 0.945 -18.875 0.945 -18.875 0.324 70.919
7637.333 0.325 70.854 0.945 -18.941 0.945 -18.941 0.325 70.854
7662.292 0.326 70.788 0.944 -19.007 0.944 -19.007 0.326 70.788
7687.25 0.327 70.723 0.944 -19.073 0.944 -19.073 0.327 70.723
7712.208 0.328 70.658 0.944 -19.139 0.944 -19.139 0.328 70.658
7737.167 0.329 70.593 0.943 -19.205 0.943 -19.205 0.329 70.593
7762.125 0.33 70.528 0.943 -19.27 0.943 -19.27 0.33 70.528
7787.083 0.331 70.464 0.942 -19.336 0.942 -19.336 0.331 70.464
7812.042 0.332 70.399 0.942 -19.401 0.942 -19.401 0.332 70.399
7837 0.333 70.334 0.942 -19.467 0.942 -19.467 0.333 70.334
7861.958 0.334 70.269 0.941 -19.532 0.941 -19.532 0.334 70.269
7886.917 0.335 70.205 0.941 -19.597 0.941 -19.597 0.335 70.205
7911.875 0.336 70.141 0.941 -19.662 0.941 -19.662 0.336 70.141
7936.833 0.338 70.076 0.94 -19.728 0.94 -19.728 0.338 70.076
7961.792 0.339 70.012 0.94 -19.793 0.94 -19.793 0.339 70.012
7986.75 0.34 69.948 0.939 -19.857 0.939 -19.857 0.34 69.948
8011.708 0.341 69.883 0.939 -19.922 0.939 -19.922 0.341 69.883
8036.667 0.342 69.819 0.939 -19.987 0.939 -19.987 0.342 69.819
8061.625 0.343 69.755 0.938 -20.052 0.938 -20.052 0.343 69.755
8086.583 0.344 69.691 0.938 -20.116 0.938 -20.116 0.344 69.691
8111.542 0.345 69.627 0.937 -20.181 0.937 -20.181 0.345 69.627
8136.5 0.346 69.564 0.937 -20.245 0.937 -20.245 0.346 69.564
8161.458 0.347 69.5 0.937 -20.31 0.937 -20.31 0.347 69.5
8186.417 0.348 69.436 0.936 -20.374 0.936 -20.374 0.348 69.436
8211.375 0.349 69.373 0.936 -20.438 0.936 -20.438 0.349 69.373
8236.333 0.35 69.309 0.936 -20.503 0.936 -20.503 0.35 69.309
8261.292 0.351 69.246 0.935 -20.567 0.935 -20.567 0.351 69.246
8286.25 0.352 69.182 0.935 -20.631 0.935 -20.631 0.352 69.182
8311.208 0.353 69.119 0.934 -20.695 0.934 -20.695 0.353 69.119
8336.167 0.354 69.056 0.934 -20.758 0.934 -20.758 0.354 69.056
8361.125 0.355 68.993 0.934 -20.822 0.934 -20.822 0.355 68.993
8386.083 0.357 68.93 0.933 -20.886 0.933 -20.886 0.357 68.93
8411.042 0.358 68.866 0.933 -20.95 0.933 -20.95 0.358 68.866
8436 0.359 68.804 0.932 -21.013 0.932 -21.013 0.359 68.804
8460.958 0.36 68.741 0.932 -21.077 0.932 -21.077 0.36 68.741
8485.917 0.361 68.678 0.932 -21.14 0.932 -21.14 0.361 68.678
8510.875 0.362 68.615 0.931 -21.203 0.931 -21.203 0.362 68.615
8535.833 0.363 68.552 0.931 -21.267 0.931 -21.267 0.363 68.552
8560.792 0.364 68.49 0.93 -21.33 0.93 -21.33 0.364 68.49
8585.75 0.365 68.427 0.93 -21.393 0.93 -21.393 0.365 68.427
8610.708 0.366 68.365 0.93 -21.456 0.93 -21.456 0.366 68.365
8635.667 0.367 68.302 0.929 -21.519 0.929 -21.519 0.367 68.302
8660.625 0.368 68.24 0.929 -21.582 0.929 -21.582 0.368 68.24
8685.583 0.369 68.178 0.928 -21.645 0.928 -21.645 0.369 68.178
8710.542 0.37 68.116 0.928 -21.708 0.928 -21.708 0.37 68.116
8735.5 0.371 68.053 0.928 -21.77 0.928 -21.77 0.371 68.053
8760.458 0.372 67.991 0.927 -21.833 0.927 -21.833 0.372 67.991
8785.417 0.373 67.929 0.927 -21.895 0.927 -21.895 0.373 67.929
8810.375 0.374 67.867 0.926 -21.958 0.926 -21.958 0.374 67.867
8835.333 0.375 67.806 0.926 -22.02 0.926 -22.02 0.375 67.806
8860.292 0.376 67.744 0.926 -22.083 0.926 -22.083 0.376 67.744
8885.25 0.377 67.682 0.925 -22.145 0.925 -22.145 0.377 67.682
8910.208 0.378 67.62 0.925 -22.207 0.925 -22.207 0.378 67.62
8935.167 0.379 67.559 0.924 -22.269 0.924 -22.269 0.379 67.559
8960.125 0.38 67.497 0.924 -22.331 0.924 -22.331 0.38 67.497
8985.083 0.381 67.436 0.923 -22.393 0.923 -22.393 0.381 67.436
9010.042 0.382 67.375 0.923 -22.455 0.923 -22.455 0.382 67.375
9035 0.383 67.313 0.923 -22.517 0.923 -22.517 0.383 67.313
9059.958 0.384 67.252 0.922 -22.579 0.922 -22.579 0.384 67.252
9084.917 0.385 67.191 0.922 -22.64 0.922 -22.64 0.385 67.191
9109.875 0.386 67.13 0.921 -22.702 0.921 -22.702 0.386 67.13
9134.833 0.387 67.069 0.921 -22.763 0.921 -22.763 0.387 67.069
9159.792 0.388 67.008 0.921 -22.825 0.921 -22.825 0.388 67.008
9184.75 0.389 66.947 0.92 -22.886 0.92 -22.886 0.389 66.947
9209.708 0.39 66.886 0.92 -22.948 0.92 -22.948 0.39 66.886
9234.667 0.391 66.825 0.919 -23.009 0.919 -23.009 0.391 66.825
9259.625 0.392 66.765 0.919 -23.07 0.919 -23.07 0.392 66.765
9284.583 0.393 66.704 0.918 -23.131 0.918 -23.131 0.393 66.704
9309.542 0.394 66.643 0.918 -23.192 0.918 -23.192 0.394 66.643
9334.5 0.395 66.583 0.918 -23.253 0.918 -23.253 0.395 66.583
9359.458 0.396 66.523 0.917 -23.314 0.917 -23.314 0.396 66.523
9384.417 0.397 66.462 0.917 -23.375 0.917 -23.375 0.397 66.462
9409.375 0.398 66.402 0.916 -23.436 0.916 -23.436 0.398 66.402
9434.333 0.399 66.342 0.916 -23.496 0.916 -23.496 0.399 66.342
9459.292 0.4 66.281 0.916 -23.557 0.916 -23.557 0.4 66.281
9484.25 0.401 66.221 0.915 -23.618 0.915 -23.618 0.401 66.221
9509.208 0.402 66.161 0.915 -23.678 0.915 -23.678 0.402 66.161
9534.167 0.403 66.101 0.914 -23.738 0.914 -23.738 0.403 66.101
9559.125 0.404 66.042 0.914 -23.799 0.914 -23.799 0.404 66.042
9584.083 0.404 65.982 0.913 -23.859 0.913 -23.859 0.404 65.982
9609.042 0.405 65.922 0.913 -23.919 0.913 -23.919 0.405 65.922
9634 0.406 65.862 0.913 -23.979 0.913 -23.979 0.406 65.862
9658.958 0.407 65.803 0.912 -24.04 0.912 -24.04 0.407 65.803
9683.917 0.408 65.743 0.912 -24.1 0.912 -24.1 0.408 65.743
9708.875 0.409 65.684 0.911 -24.159 0.911 -24.159 0.409 65.684
9733.833 0.41 65.624 0.911 -24.219 0.911 -24.219 0.41 65.624
9758.792 0.411 65.565 0.91 -24.279 0.91 -24.279 0.411 65.565
9783.75 0.412 65.505 0.91 -24.339 0.91 -24.339 0.412 65.505
9808.708 0.413 65.446 0.91 -24.398 0.91 -24.398 0.413 65.446
9833.667 0.414 65.387 0.909 -24.458 0.909 -24.458 0.414 65.387
9858.625 0.415 65.328 0.909 -24.518 0.909 -24.518 0.415 65.328
9883.583 0.416 65.269 0.908 -24.577 0.908 -24.577 0.416 65.269
9908.542 0.417 65.21 0.908 -24.636 0.908 -24.636 0.417 65.21
9933.5 0.418 65.151 0.907 -24.696 0.907 -24.696 0.418 65.151
9958.458 0.419 65.092 0.907 -24.755 0.907 -24.755 0.419 65.092
9983.417 0.42 65.034 0.907 -24.814 0.907 -24.814 0.42 65.034
10008.375 0.421 64.975 0.906 -24.873 0.906 -24.873 0.421 64.975
10033.333 0.422 64.916 0.906 -24.932 0.906 -24.932 0.422 64.916
10058.292 0.422 64.858 0.905 -24.991 0.905 -24.991 0.422 64.858
10083.25 0.423 64.799 0.905 -25.05 0.905 -25.05 0.423 64.799
10108.208 0.424 64.741 0.904 -25.109 0.904 -25.109 0.424 64.741
10133.167 0.425 64.682 0.904 -25.168 0.904 -25.168 0.425 64.682
10158.125 0.426 64.624 0.904 -25.227 0.904 -25.227 0.426 64.624
10183.083 0.427 64.566 0.903 -25.285 0.903 -25.285 0.427 64.566
10208.042 0.428 64.508 0.903 -25.344 0.903 -25.344 0.428 64.508
10233 0.429 64.449 0.902 -25.402 0.902 -25.402 0.429 64.449
10257.958 0.43 64.391 0.902 -25.461 0.902 -25.461 0.43 64.391
10282.917 0.431 64.333 0.901 -25.519 0.901 -25.519 0.431 64.333
10307.875 0.432 64.276 0.901 -25.577 0.901 -25.577 0.432 64.276
10332.833 0.433 64.218 0.9 -25.636 0.9 -25.636 0.433 64.218
10357.792 0.434 64.16 0.9 -25.694 0.9 -25.694 0.434 64.16
10382.75 0.434 64.102 0.9 -25.752 0.9 -25.752 0.434 64.102
10407.708 0.435 64.044 0.899 -25.81 0.899 -25.81 0.435 64.044
10432.667 0.436 63.987 0.899 -25.868 0.899 -25.868 0.436 63.987
10457.625 0.437 63.929 0.898 -25.926 0.898 -25.926 0.437 63.929
10482.583 0.438 63.872 0.898 -25.984 0.898 -25.984 0.438 63.872
10507.542 0.439 63.814 0.897 -26.041 0.897 -26.041 0.439 63.814
10532.5 0.44 63.757 0.897 -26.099 0.897 -26.099 0.44 63.757
10557.458 0.441 63.7 0.896 -26.157 0.896 -26.157 0.441 63.7
10582.417 0.442 63.643 0.896 -26.214 0.896 -26.214 0.442 63.643
10607.375 0.443 63.586 0.896 -26.272 0.896 -26.272 0.443 63.586
10632.333 0.444 63.528 0.895 -26.329 0.895 -26.329 0.444 63.528
10657.292 0.444 63.471 0.895 -26.387 0.895 -26.387 0.444 63.471
10682.25 0.445 63.414 0.894 -26.444 0.894 -26.444 0.445 63.414
10707.208 0.446 63.358 0.894 -26.501 0.894 -26.501 0.446 63.358
10732.167 0.447 63.301 0.893 -26.558 0.893 -26.558 0.447 63.301
10757.125 0.448 63.244 0.893 -26.615 0.893 -26.615 0.448 63.244
10782.083 0.449 63.187 0.892 -26.672 0.892 -26.672 0.449 63.187
10807.042 0.45 63.131 0.892 -26.729 0.892 -26.729 0.45 63.131
10832 0.451 63.074 0.892 -26.786 0.892 -26.786 0.451 63.074
10856.958 0.452 63.018 0.891 -26.843 0.891 -26.843 0.452 63.018
10881.917 0.452 62.961 0.891 -26.9 0.891 -26.9 0.452 62.961
10906.875 0.453 62.905 0.89 -26.957 0.89 -26.957 0.453 62.905
10931.833 0.454 62.849 0.89 -27.013 0.89 -27.013 0.454 62.849
10956.792 0.455 62.792 0.889 -27.07 0.889 -27.07 0.455 62.792
10981.75 0.456 62.736 0.889 -27.126 0.889 -27.126 0.456 62.736
11006.708 0.457 62.68 0.888 -27.183 0.888 -27.183 0.457 62.68
11031.667 0.458 62.624 0.888 -27.239 0.888 -27.239 0.458 62.624
11056.625 0.459 62.568 0.888 -27.296 0.888 -27.296 0.459 62.568
11081.583 0.459 62.512 0.887 -27.352 0.887 -27.352 0.459 62.512
11106.542 0.46 62.456 0.887 -27.408 0.887 -27.408 0.46 62.456
11131.5 0.461 62.4 0.886 -27.464 0.886 -27.464 0.461 62.4
11156.458 0.462 62.345 0.886 -27.52 0.886 -27.52 0.462 62.345
11181.417 0.463 62.289 0.885 -27.576 0.885 -27.576 0.463 62.289
11206.375 0.464 62.233 0.885 -27.632 0.885 -27.632 0.464 62.233
11231.333 0.465 62.178 0.884 -27.688 0.884 -27.688 0.465 62.178
11256.292 0.466 62.122 0.884 -27.744 0.884 -27.744 0.466 62.122
11281.25 0.466 62.067 0.883 -27.8 0.883 -27.8 0.466 62.067
11306.208 0.467 62.012 0.883 -27.855 0.883 -27.855 0.467 62.012
11331.167 0.468 61.956 0.883 -27.911 0.883 -27.911 0.468 61.956
11356.125 0.469 61.901 0.882 -27.966 0.882 -27.966 0.469 61.901
11381.083 0.47 61.846 0.882 -28.022 0.882 -28.022 0.47 61.846
11406.042 0.471 61.791 0.881 -28.077 0.881 -28.077 0.471 61.791
11431 0.472 61.736 0.881 -28.133 0.881 -28.133 0.472 61.736
11455.958 0.472 61.681 0.88 -28.188 0.88 -28.188 0.472 61.681
11480.917 0.473 61.626 0.88 -28.243 0.88 -28.243 0.473 61.626
11505.875 0.474 61.571 0.879 -28.298 0.879 -28.298 0.474 61.571
11530.833 0.475 61.516 0.879 -28.353 0.879 -28.353 0.475 61.516
11555.792 0.476 61.461 0.878 -28.408 0.878 -28.408 0.476 61.461
11580.75 0.477 61.407 0.878 -28.463 0.878 -28.463 0.477 61.407
11605.708 0.477 61.352 0.878 -28.518 0.878 -28.518 0.477 61.352
11630.667 0.478 61.298 0.877 -28.573 0.877 -28.573 0.478 61.298
11655.625 0.479 61.243 0.877 -28.628 0.877 -28.628 0.479 61.243
11680.583 0.48 61.189 0.876 -28.683 0.876 -28.683 0.48 61.189
11705.542 0.481 61.134 0.876 -28.737 0.876 -28.737 0.481 61.134
11730.5 0.482 61.08 0.875 -28.792 0.875 -28.792 0.482 61.08
11755.458 0.482 61.026 0.875 -28.846 0.875 -28.846 0.482 61.026
11780.417 0.483 60.972 0.874 -28.901 0.874 -28.901 0.483 60.972
11805.375 0.484 60.918 0.874 -28.955 0.874 -28.955 0.484 60.918
11830.333 0.485 60.864 0.873 -29.009 0.873 -29.009 0.485 60.864
11855.292 0.486 60.81 0.873 -29.064 0.873 -29.064 0.486 60.81
11880.25 0.487 60.756 0.873 -29.118 0.873 -29.118 0.487 60.756
11905.208 0.487 60.702 0.872 -29.172 0.872 -29.172 0.487 60.702
11930.167 0.488 60.648 0.872 -29.226 0.872 -29.226 0.488 60.648
11955.125 0.489 60.594 0.871 -29.28 0.871 -29.28 0.489 60.594
11980.083 0.49 60.541 0.871 -29.334 0.871 -29.334 0.49 60.541
12005.042 0.491 60.487 0.87 -29.388 0.87 -29.388 0.491 60.487
12030 0.492 60.433 0.87 -29.442 0.87 -29.442 0.492 60.433
12054.958 0.492 60.38 0.869 -29.496 0.869 -29.496 0.492 60.38
12079.917 0.493 60.326 0.869 -29.549 0.869 -29.549 0.493 60.326
12104.875 0.494 60.273 0.868 -29.603 0.868 -29.603 0.494 60.273
12129.833 0.495 60.22 0.868 -29.656 0.868 -29.656 0.495 60.22
12154.792 0.496 60.167 0.867 -29.71 0.867 -29.71 0.496 60.167
12179.75 0.496 60.113 0.867 -29.763 0.867 -29.763 0.496 60.113
12204.708 0.497 60.06 0.867 -29.817 0.867 -29.817 0.497 60.06
12229.667 0.498 60.007 0.866 -29.87 0.866 -29.87 0.498 60.007
12254.625 0.499 59.954 0.866 -29.923 0.866 -29.923 0.499 59.954
12279.583 0.5 59.901 0.865 -29.977 0.865 -29.977 0.5 59.901
12304.542 0.5 59.848 0.865 -30.03 0.865 -30.03 0.5 59.848
12329.5 0.501 59.796 0.864 -30.083 0.864 -30.083 0.501 59.796
12354.458 0.502 59.743 0.864 -30.136 0.864 -30.136 0.502 59.743
12379.417 0.503 59.69 0.863 -30.189 0.863 -30.189 0.503 59.69
12404.375 0.504 59.638 0.863 -30.242 0.863 -30.242 0.504 59.638
12429.333 0.504 59.585 0.862 -30.294 0.862 -30.294 0.504 59.585
12454.292 0.505 59.533 0.862 -30.347 0.862 -30.347 0.505 59.533
12479.25 0.506 59.48 0.861 -30.4 0.861 -30.4 0.506 59.48
12504.208 0.507 59.428 0.861 -30.453 0.861 -30.453 0.507 59.428
12529.167 0.508 59.375 0.861 -30.505 0.861 -30.505 0.508 59.375
12554.125 0.508 59.323 0.86 -30.558 0.86 -30.558 0.508 59.323
12579.083 0.509 59.271 0.86 -30.61 0.86 -30.61 0.509 59.271
12604.042 0.51 59.219 0.859 -30.662 0.859 -30.662 0.51 59.219
12629 0.511 59.167 0.859 -30.715 0.859 -30.715 0.511 59.167
12653.958 0.512 59.115 0.858 -30.767 0.858 -30.767 0.512 59.115
12678.917 0.512 59.063 0.858 -30.819 0.858 -30.819 0.512 59.063
12703.875 0.513 59.011 0.857 -30.871 0.857 -30.871 0.513 59.011
12728.833 0.514 58.959 0.857 -30.923 0.857 -30.923 0.514 58.959
12753.792 0.515 58.907 0.856 -30.975 0.856 -30.975 0.515 58.907
12778.75 0.515 58.856 0.856 -31.027 0.856 -31.027 0.515 58.856
12803.708 0.516 58.804 0.855 -31.079 0.855 -31.079 0.516 58.804
12828.667 0.517 58.752 0.855 -31.131 0.855 -31.131 0.517 58.752
12853.625 0.518 58.701 0.854 -31.183 0.854 -31.183 0.518 58.701
12878.583 0.519 58.649 0.854 -31.235 0.854 -31.235 0.519 58.649
12903.542 0.519 58.598 0.854 -31.286 0.854 -31.286 0.519 58.598
12928.5 0.52 58.547 0.853 -31.338 0.853 -31.338 0.52 58.547
12953.458 0.521 58.495 0.853 -31.389 0.853 -31.389 0.521 58.495
12978.417 0.522 58.444 0.852 -31.441 0.852 -31.441 0.522 58.444
13003.375 0.522 58.393 0.852 -31.492 0.852 -31.492 0.522 58.393
13028.333 0.523 58.342 0.851 -31.544 0.851 -31.544 0.523 58.342
13053.292 0.524 58.291 0.851 -31.595 0.851 -31.595 0.524 58.291
13078.25 0.525 58.24 0.85 -31.646 0.85 -31.646 0.525 58.24
13103.208 0.525 58.189 0.85 -31.697 0.85 -31.697 0.525 58.189
13128.167 0.526 58.138 0.849 -31.748 0.849 -31.748 0.526 58.138
13153.125 0.527 58.087 0.849 -31.799 0.849 -31.799 0.527 58.087
13178.083 0.528 58.036 0.848 -31.85 0.848 -31.85 0.528 58.036
13203.042 0.528 57.986 0.848 -31.901 0.848 -31.901 0.528 57.986
13228 0.529 57.935 0.847 -31.952 0.847 -31.952 0.529 57.935
13252.958 0.53 57.884 0.847 -32.003 0.847 -32.003 0.53 57.884
13277.917 0.531 57.834 0.847 -32.054 0.847 -32.054 0.531 57.834
13302.875 0.531 57.784 0.846 -32.104 0.846 -32.104 0.531 57.784
13327.833 0.532 57.733 0.846 -32.155 0.846 -32.155 0.532 57.733
13352.792 0.533 57.683 0.845 -32.205 0.845 -32.205 0.533 57.683
13377.75 0.534 57.633 0.845 -32.256 0.845 -32.256 0.534 57.633
13402.708 0.534 57.582 0.844 -32.306 0.844 -32.306 0.534 57.582
13427.667 0.535 57.532 0.844 -32.357 0.844 -32.357 0.535 57.532
13452.625 0.536 57.482 0.843 -32.407 0.843 -32.407 0.536 57.482
13477.583 0.537 57.432 0.843 -32.457 0.843 -32.457 0.537 57.432
13502.542 0.537 57.382 0.842 -32.507 0.842 -32.507 0.537 57.382
13527.5 0.538 57.332 0.842 -32.558 0.842 -32.558 0.538 57.332
13552.458 0.539 57.282 0.841 -32.608 0.841 -32.608 0.539 57.282
13577.417 0.54 57.232 0.841 -32.658 0.841 -32.658 0.54 57.232
13602.375 0.54 57.183 0.84 -32.708 0.84 -32.708 0.54 57.183
13627.333 0.541 57.133 0.84 -32.758 0.84 -32.758 0.541 57.133
13652.292 0.542 57.083 0.839 -32.807 0.839 -32.807 0.542 57.083
13677.25 0.543 57.034 0.839 -32.857 0.839 -32.857 0.543 57.034
13702.208 0.543 56.984 0.839 -32.907 0.839 -32.907 0.543 56.984
13727.167 0.544 56.935 0.838 -32.956 0.838 -32.956 0.544 56.935
13752.125 0.545 56.886 0.838 -33.006 0.838 -33.006 0.545 56.886
13777.083 0.545 56.836 0.837 -33.056 0.837 -33.056 0.545 56.836
13802.042 0.546 56.787 0.837 -33.105 0.837 -33.105 0.546 56.787
13827 0.547 56.738 0.836 -33.154 0.836 -33.154 0.547 56.738
13851.958 0.548 56.689 0.836 -33.204 0.836 -33.204 0.548 56.689
13876.917 0.548 56.639 0.835 -33.253 0.835 -33.253 0.548 56.639
13901.875 0.549 56.59 0.835 -33.302 0.835 -33.302 0.549 56.59
13926.833 0.55 56.541 0.834 -33.352 0.834 -33.352 0.55 56.541
13951.792 0.55 56.493 0.834 -33.401 0.834 -33.401 0.55 56.493
13976.75 0.551 56.444 0.833 -33.45 0.833 -33.45 0.551 56.444
14001.708 0.552 56.395 0.833 -33.499 0.833 -33.499 0.552 56.395
14026.667 0.553 56.346 0.832 -33.548 0.832 -33.548 0.553 56.346
14051.625 0.553 56.297 0.832 -33.597 0.832 -33.597 0.553 56.297
14076.583 0.554 56.249 0.831 -33.645 0.831 -33.645 0.554 56.249
14101.542 0.555 56.2 0.831 -33.694 0.831 -33.694 0.555 56.2
14126.5 0.555 56.152 0.831 -33.743 0.831 -33.743 0.555 56.152
14151.458 0.556 56.103 0.83 -33.792 0.83 -33.792 0.556 56.103
14176.417 0.557 56.055 0.83 -33.84 0.83 -33.84 0.557 56.055
14201.375 0.558 56.007 0.829 -33.889 0.829 -33.889 0.558 56.007
14226.333 0.558 55.958 0.829 -33.937 0.829 -33.937 0.558 55.958
14251.292 0.559 55.91 0.828 -33.986 0.828 -33.986 0.559 55.91
14276.25 0.56 55.862 0.828 -34.034 0.828 -34.034 0.56 55.862
14301.208 0.56 55.814 0.827 -34.082 0.827 -34.082 0.56 55.814
14326.167 0.561 55.766 0.827 -34.13 0.827 -34.13 0.561 55.766
14351.125 0.562 55.718 0.826 -34.179 0.826 -34.179 0.562 55.718
14376.083 0.562 55.67 0.826 -34.227 0.826 -34.227 0.562 55.67
14401.042 0.563 55.622 0.825 -34.275 0.825 -34.275 0.563 55.622
14426 0.564 55.574 0.825 -34.323 0.825 -34.323 0.564 55.574
14450.958 0.565 55.526 0.824 -34.371 0.824 -34.371 0.565 55.526
14475.917 0.565 55.479 0.824 -34.419 0.824 -34.419 0.565 55.479
14500.875 0.566 55.431 0.823 -34.466 0.823 -34.466 0.566 55.431
14525.833 0.567 55.383 0.823 -34.514 0.823 -34.514 0.567 55.383
14550.792 0.567 55.336 0.823 -34.562 0.823 -34.562 0.567 55.336
14575.75 0.568 55.288 0.822 -34.61 0.822 -34.61 0.568 55.288
14600.708 0.569 55.241 0.822 -34.657 0.822 -34.657 0.569 55.241
14625.667 0.569 55.194 0.821 -34.705 0.821 -34.705 0.569 55.194
14650.625 0.57 55.146 0.821 -34.752 0.821 -34.752 0.57 55.146
14675.583 0.571 55.099 0.82 -34.8 0.82 -34.8 0.571 55.099
14700.542 0.571 55.052 0.82 -34.847 0.82 -34.847 0.571 55.052
14725.5 0.572 55.005 0.819 -34.894 0.819 -34.894 0.572 55.005
14750.458 0.573 54.958 0.819 -34.942 0.819 -34.942 0.573 54.958
14775.417 0.573 54.911 0.818 -34.989 0.818 -34.989 0.573 54.911
14800.375 0.574 54.864 0.818 -35.036 0.818 -35.036 0.574 54.864
14825.333 0.575 54.817 0.817 -35.083 0.817 -35.083 0.575 54.817
14850.292 0.575 54.77 0.817 -35.13 0.817 -35.13 0.575 54.77
14875.25 0.576 54.723 0.816 -35.177 0.816 -35.177 0.576 54.723
14900.208 0.577 54.676 0.816 -35.224 0.816 -35.224 0.577 54.676
14925.167 0.577 54.63 0.815 -35.271 0.815 -35.271 0.577 54.63
14950.125 0.578 54.583 0.815 -35.318 0.815 -35.318 0.578 54.583
14975.083 0.579 54.536 0.814 -35.364 0.814 -35.364 0.579 54.536
15000.042 0.579 54.49 0.814 -35.411 0.814 -35.411 0.579 54.49
15025 0.58 54.443 0.814 -35.458 0.814 -35.458 0.58 54.443
15049.958 0.581 54.397 0.813 -35.504 0.813 -35.504 0.581 54.397
15074.917 0.581 54.351 0.813 -35.551 0.813 -35.551 0.581 54.351
15099.875 0.582 54.304 0.812 -35.597 0.812 -35.597 0.582 54.304
15124.833 0.583 54.258 0.812 -35.644 0.812 -35.644 0.583 54.258
15149.792 0.583 54.212 0.811 -35.69 0.811 -35.69 0.583 54.212
15174.75 0.584 54.166 0.811 -35.736 0.811 -35.736 0.584 54.166
15199.708 0.585 54.12 0.81 -35.782 0.81 -35.782 0.585 54.12
15224.667 0.585 54.074 0.81 -35.829 0.81 -35.829 0.585 54.074
15249.625 0.586 54.028 0.809 -35.875 0.809 -35.875 0.586 54.028
15274.583 0.587 53.982 0.809 -35.921 0.809 -35.921 0.587 53.982
15299.542 0.587 53.936 0.808 -35.967 0.808 -35.967 0.587 53.936
15324.5 0.588 53.89 0.808 -36.013 0.808 -36.013 0.588 53.89
15349.458 0.589 53.845 0.807 -36.059 0.807 -36.059 0.589 53.845
15374.417 0.589 53.799 0.807 -36.105 0.807 -36.105 0.589 53.799
15399.375 0.59 53.753 0.806 -36.15 0.806 -36.15 0.59 53.753
15424.333 0.591 53.708 0.806 -36.196 0.806 -36.196 0.591 53.708
15449.292 0.591 53.662 0.806 -36.242 0.806 -36.242 0.591 53.662
15474.25 0.592 53.617 0.805 -36.287 0.805 -36.287 0.592 53.617
15499.208 0.592 53.571 0.805 -36.333 0.805 -36.333 0.592 53.571
15524.167 0.593 53.526 0.804 -36.378 0.804 -36.378 0.593 53.526
15549.125 0.594 53.481 0.804 -36.424 0.804 -36.424 0.594 53.481
15574.083 0.594 53.435 0.803 -36.469 0.803 -36.469 0.594 53.435
15599.042 0.595 53.39 0.803 -36.515 0.803 -36.515 0.595 53.39
15624 0.596 53.345 0.802 -36.56 0.802 -36.56 0.596 53.345
15648.958 0.596 53.3 0.802 -36.605 0.802 -36.605 0.596 53.3
15673.917 0.597 53.255 0.801 -36.65 0.801 -36.65 0.597 53.255
15698.875 0.598 53.21 0.801 -36.695 0.801 -36.695 0.598 53.21
15723.833 0.598 53.165 0.8 -36.74 0.8 -36.74 0.598 53.165
15748.792 0.599 53.12 0.8 -36.785 0.8 -36.785 0.599 53.12
15773.75 0.599 53.076 0.799 -36.83 0.799 -36.83 0.599 53.076
15798.708 0.6 53.031 0.799 -36.875 0.799 -36.875 0.6 53.031
15823.667 0.601 52.986 0.798 -36.92 0.798 -36.92 0.601 52.986
15848.625 0.601 52.941 0.798 -36.965 0.798 -36.965 0.601 52.941
15873.583 0.602 52.897 0.798 -37.01 0.798 -37.01 0.602 52.897
15898.542 0.603 52.852 0.797 -37.054 0.797 -37.054 0.603 52.852
15923.5 0.603 52.808 0.797 -37.099 0.797 -37.099 0.603 52.808
15948.458 0.604 52.763 0.796 -37.144 0.796 -37.144 0.604 52.763
15973.417 0.604 52.719 0.796 -37.188 0.796 -37.188 0.604 52.719
15998.375 0.605 52.675 0.795 -37.233 0.795 -37.233 0.605 52.675
16023.333 0.606 52.631 0.795 -37.277 0.795 -37.277 0.606 52.631
16048.292 0.606 52.586 0.794 -37.321 0.794 -37.321 0.606 52.586
16073.25 0.607 52.542 0.794 -37.366 0.794 -37.366 0.607 52.542
16098.208 0.608 52.498 0.793 -37.41 0.793 -37.41 0.608 52.498
16123.167 0.608 52.454 0.793 -37.454 0.793 -37.454 0.608 52.454
16148.125 0.609 52.41 0.792 -37.498 0.792 -37.498 0.609 52.41
16173.083 0.609 52.366 0.792 -37.542 0.792 -37.542 0.609 52.366
16198.042 0.61 52.322 0.791 -37.586 0.791 -37.586 0.61 52.322
16223 0.611 52.278 0.791 -37.63 0.791 -37.63 0.611 52.278
16247.958 0.611 52.235 0.791 -37.674 0.791 -37.674 0.611 52.235
16272.917 0.612 52.191 0.79 -37.718 0.79 -37.718 0.612 52.191
16297.875 0.612 52.147 0.79 -37.762 0.79 -37.762 0.612 52.147
16322.833 0.613 52.104 0.789 -37.806 0.789 -37.806 0.613 52.104
16347.792 0.614 52.06 0.789 -37.849 0.789 -37.849 0.614 52.06
16372.75 0.614 52.017 0.788 -37.893 0.788 -37.893 0.614 52.017
16397.708 0.615 51.973 0.788 -37.937 0.788 -37.937 0.615 51.973
16422.667 0.615 51.93 0.787 -37.98 0.787 -37.98 0.615 51.93
16447.625 0.616 51.886 0.787 -38.024 0.787 -38.024 0.616 51.886
16472.583 0.617 51.843 0.786 -38.067 0.786 -38.067 0.617 51.843
16497.542 0.617 51.8 0.786 -38.11 0.786 -38.11 0.617 51.8
16522.5 0.618 51.757 0.785 -38.154 0.785 -38.154 0.618 51.757
16547.458 0.618 51.713 0.785 -38.197 0.785 -38.197 0.618 51.713
16572.417 0.619 51.67 0.784 -38.24 0.784 -38.24 0.619 51.67
16597.375 0.62 51.627 0.784 -38.283 0.784 -38.283 0.62 51.627
16622.333 0.62 51.584 0.784 -38.326 0.784 -38.326 0.62 51.584
16647.292 0.621 51.541 0.783 -38.37 0.783 -38.37 0.621 51.541
16672.25 0.621 51.499 0.783 -38.413 0.783 -38.413 0.621 51.499
16697.208 0.622 51.456 0.782 -38.456 0.782 -38.456 0.622 51.456
16722.167 0.622 51.413 0.782 -38.498 0.782 -38.498 0.622 51.413
16747.125 0.623 51.37 0.781 -38.541 0.781 -38.541 0.623 51.37
16772.083 0.624 51.328 0.781 -38.584 0.781 -38.584 0.624 51.328
16797.042 0.624 51.285 0.78 -38.627 0.78 -38.627 0.624 51.285
16822 0.625 51.242 0.78 -38.669 0.78 -38.669 0.625 51.242
16846.958 0.625 51.2 0.779 -38.712 0.779 -38.712 0.625 51.2
16871.917 0.626 51.158 0.779 -38.755 0.779 -38.755 0.626 51.158
16896.875 0.627 51.115 0.778 -38.797 0.778 -38.797 0.627 51.115
16921.833 0.627 51.073 0.778 -38.84 0.778 -38.84 0.627 51.073
16946.792 0.628 51.03 0.777 -38.882 0.777 -38.882 0.628 51.03
16971.75 0.628 50.988 0.777 -38.925 0.777 -38.925 0.628 50.988
16996.708 0.629 50.946 0.777 -38.967 0.777 -38.967 0.629 50.946
17021.667 0.629 50.904 0.776 -39.009 0.776 -39.009 0.629 50.904
17046.625 0.63 50.862 0.776 -39.051 0.776 -39.051 0.63 50.862
17071.583 0.631 50.82 0.775 -39.094 0.775 -39.094 0.631 50.82
17096.542 0.631 50.778 0.775 -39.136 0.775 -39.136 0.631 50.778
17121.5 0.632 50.736 0.774 -39.178 0.774 -39.178 0.632 50.736
17146.458 0.632 50.694 0.774 -39.22 0.774 -39.22 0.632 50.694
17171.417 0.633 50.652 0.773 -39.262 0.773 -39.262 0.633 50.652
17196.375 0.633 50.61 0.773 -39.304 0.773 -39.304 0.633 50.61
17221.333 0.634 50.569 0.772 -39.345 0.772 -39.345 0.634 50.569
17246.292 0.635 50.527 0.772 -39.387 0.772 -39.387 0.635 50.527
17271.25 0.635 50.485 0.771 -39.429 0.771 -39.429 0.635 50.485
17296.208 0.636 50.444 0.771 -39.471 0.771 -39.471 0.636 50.444
17321.167 0.636 50.402 0.771 -39.512 0.771 -39.512 0.636 50.402
17346.125 0.637 50.361 0.77 -39.554 0.77 -39.554 0.637 50.361
17371.083 0.637 50.319 0.77 -39.595 0.77 -39.595 0.637 50.319
17396.042 0.638 50.278 0.769 -39.637 0.769 -39.637 0.638 50.278
17421 0.638 50.237 0.769 -39.678 0.769 -39.678 0.638 50.237
17445.958 0.639 50.195 0.768 -39.72 0.768 -39.72 0.639 50.195
17470.917 0.64 50.154 0.768 -39.761 0.768 -39.761 0.64 50.154
17495.875 0.64 50.113 0.767 -39.802 0.767 -39.802 0.64 50.113
17520.833 0.641 50.072 0.767 -39.844 0.767 -39.844 0.641 50.072
17545.792 0.641 50.031 0.766 -39.885 0.766 -39.885 0.641 50.031
17570.75 0.642 49.99 0.766 -39.926 0.766 -39.926 0.642 49.99
17595.708 0.642 49.949 0.765 -39.967 0.765 -39.967 0.642 49.949
17620.667 0.643 49.908 0.765 -40.008 0.765 -40.008 0.643 49.908
17645.625 0.643 49.867 0.765 -40.049 0.765 -40.049 0.643 49.867
17670.583 0.644 49.826 0.764 -40.09 0.764 -40.09 0.644 49.826
17695.542 0.645 49.785 0.764 -40.131 0.764 -40.131 0.645 49.785
17720.5 0.645 49.745 0.763 -40.172 0.763 -40.172 0.645 49.745
17745.458 0.646 49.704 0.763 -40.213 0.763 -40.213 0.646 49.704
17770.417 0.646 49.664 0.762 -40.253 0.762 -40.253 0.646 49.664
17795.375 0.647 49.623 0.762 -40.294 0.762 -40.294 0.647 49.623
17820.333 0.647 49.582 0.761 -40.335 0.761 -40.335 0.647 49.582
17845.292 0.648 49.542 0.761 -40.375 0.761 -40.375 0.648 49.542
17870.25 0.648 49.502 0.76 -40.416 0.76 -40.416 0.648 49.502
17895.208 0.649 49.461 0.76 -40.456 0.76 -40.456 0.649 49.461
17920.167 0.649 49.421 0.76 -40.497 0.76 -40.497 0.649 49.421
17945.125 0.65 49.381 0.759 -40.537 0.759 -40.537 0.65 49.381
17970.083 0.65 49.34 0.759 -40.577 0.759 -40.577 0.65 49.34
17995.042 0.651 49.3 0.758 -40.618 0.758 -40.618 0.651 49.3
18020 0.652 49.26 0.758 -40.658 0.758 -40.658 0.652 49.26
18044.958 0.652 49.22 0.757 -40.698 0.757 -40.698 0.652 49.22
18069.917 0.653 49.18 0.757 -40.738 0.757 -40.738 0.653 49.18
18094.875 0.653 49.14 0.756 -40.778 0.756 -40.778 0.653 49.14
18119.833 0.654 49.1 0.756 -40.818 0.756 -40.818 0.654 49.1
18144.792 0.654 49.06 0.755 -40.858 0.755 -40.858 0.654 49.06
18169.75 0.655 49.02 0.755 -40.898 0.755 -40.898 0.655 49.02
18194.708 0.655 48.981 0.754 -40.938 0.754 -40.938 0.655 48.981
18219.667 0.656 48.941 0.754 -40.978 0.754 -40.978 0.656 48.941
18244.625 0.656 48.901 0.754 -41.018 0.754 -41.018 0.656 48.901
18269.583 0.657 48.862 0.753 -41.057 0.753 -41.057 0.657 48.862
18294.542 0.657 48.822 0.753 -41.097 0.753 -41.097 0.657 48.822
18319.5 0.658 48.783 0.752 -41.137 0.752 -41.137 0.658 48.783
18344.458 0.658 48.743 0.752 -41.176 0.752 -41.176 0.658 48.743
18369.417 0.659 48.704 0.751 -41.216 0.751 -41.216 0.659 48.704
18394.375 0.659 48.664 0.751 -41.255 0.751 -41.255 0.659 48.664
18419.333 0.66 48.625 0.75 -41.295 0.75 -41.295 0.66 48.625
18444.292 0.66 48.586 0.75 -41.334 0.75 -41.334 0.66 48.586
18469.25 0.661 48.546 0.749 -41.374 0.749 -41.374 0.661 48.546
18494.208 0.661 48.507 0.749 -41.413 0.749 -41.413 0.661 48.507
18519.167 0.662 48.468 0.749 -41.452 0.749 -41.452 0.662 48.468
18544.125 0.663 48.429 0.748 -41.491 0.748 -41.491 0.663 48.429
18569.083 0.663 48.39 0.748 -41.53 0.748 -41.53 0.663 48.39
18594.042 0.664 48.351 0.747 -41.57 0.747 -41.57 0.664 48.351
18619 0.664 48.312 0.747 -41.609 0.747 -41.609 0.664 48.312
18643.958 0.665 48.273 0.746 -41.648 0.746 -41.648 0.665 48.273
18668.917 0.665 48.234 0.746 -41.687 0.746 -41.687 0.665 48.234
18693.875 0.666 48.196 0.745 -41.725 0.745 -41.725 0.666 48.196
18718.833 0.666 48.157 0.745 -41.764 0.745 -41.764 0.666 48.157
18743.792 0.667 48.118 0.745 -41.803 0.745 -41.803 0.667 48.118
18768.75 0.667 48.079 0.744 -41.842 0.744 -41.842 0.667 48.079
18793.708 0.668 48.041 0.744 -41.881 0.744 -41.881 0.668 48.041
18818.667 0.668 48.002 0.743 -41.919 0.743 -41.919 0.668 48.002
18843.625 0.669 47.964 0.743 -41.958 0.743 -41.958 0.669 47.964
18868.583 0.669 47.925 0.742 -41.996 0.742 -41.996 0.669 47.925
18893.542 0.67 47.887 0.742 -42.035 0.742 -42.035 0.67 47.887
18918.5 0.67 47.849 0.741 -42.073 0.741 -42.073 0.67 47.849
18943.458 0.671 47.81 0.741 -42.112 0.741 -42.112 0.671 47.81
18968.417 0.671 47.772 0.74 -42.15 0.74 -42.15 0.671 47.772
18993.375 0.672 47.734 0.74 -42.189 0.74 -42.189 0.672 47.734
19018.333 0.672 47.696 0.74 -42.227 0.74 -42.227 0.672 47.696
19043.292 0.673 47.657 0.739 -42.265 0.739 -42.265 0.673 47.657
19068.25 0.673 47.619 0.739 -42.303 0.739 -42.303 0.673 47.619
19093.208 0.674 47.581 0.738 -42.341 0.738 -42.341 0.674 47.581
19118.167 0.674 47.543 0.738 -42.38 0.738 -42.38 0.674 47.543
19143.125 0.675 47.505 0.737 -42.418 0.737 -42.418 0.675 47.505
19168.083 0.675 47.467 0.737 -42.456 0.737 -42.456 0.675 47.467
19193.042 0.676 47.43 0.736 -42.494 0.736 -42.494 0.676 47.43
19218 0.676 47.392 0.736 -42.531 0.736 -42.531 0.676 47.392
19242.958 0.676 47.354 0.736 -42.569 0.736 -42.569 0.676 47.354
19267.917 0.677 47.316 0.735 -42.607 0.735 -42.607 0.677 47.316
19292.875 0.677 47.279 0.735 -42.645 0.735 -42.645 0.677 47.279
19317.833 0.678 47.241 0.734 -42.683 0.734 -42.683 0.678 47.241
19342.792 0.678 47.203 0.734 -42.72 0.734 -42.72 0.678 47.203
19367.75 0.679 47.166 0.733 -42.758 0.733 -42.758 0.679 47.166
19392.708 0.679 47.128 0.733 -42.795 0.733 -42.795 0.679 47.128
19417.667 0.68 47.091 0.732 -42.833 0.732 -42.833 0.68 47.091
19442.625 0.68 47.054 0.732 -42.87 0.732 -42.87 0.68 47.054
19467.583 0.681 47.016 0.732 -42.908 0.732 -42.908 0.681 47.016
19492.542 0.681 46.979 0.731 -42.945 0.731 -42.945 0.681 46.979
19517.5 0.682 46.942 0.731 -42.983 0.731 -42.983 0.682 46.942
19542.458 0.682 46.905 0.73 -43.02 0.73 -43.02 0.682 46.905
19567.417 0.683 46.867 0.73 -43.057 0.73 -43.057 0.683 46.867
19592.375 0.683 46.83 0.729 -43.094 0.729 -43.094 0.683 46.83
19617.333 0.684 46.793 0.729 -43.132 0.729 -43.132 0.684 46.793
19642.292 0.684 46.756 0.728 -43.169 0.728 -43.169 0.684 46.756
19667.25 0.685 46.719 0.728 -43.206 0.728 -43.206 0.685 46.719
19692.208 0.685 46.682 0.728 -43.243 0.728 -43.243 0.685 46.682
19717.167 0.686 46.645 0.727 -43.28 0.727 -43.28 0.686 46.645
19742.125 0.686 46.609 0.727 -43.317 0.727 -43.317 0.686 46.609
19767.083 0.686 46.572 0.726 -43.354 0.726 -43.354 0.686 46.572
19792.042 0.687 46.535 0.726 -43.39 0.726 -43.39 0.687 46.535
19817 0.687 46.498 0.725 -43.427 0.725 -43.427 0.687 46.498
19841.958 0.688 46.462 0.725 -43.464 0.725 -43.464 0.688 46.462
19866.917 0.688 46.425 0.724 -43.501 0.724 -43.501 0.688 46.425
19891.875 0.689 46.389 0.724 -43.537 0.724 -43.537 0.689 46.389
19916.833 0.689 46.352 0.724 -43.574 0.724 -43.574 0.689 46.352
19941.792 0.69 46.316 0.723 -43.61 0.723 -43.61 0.69 46.316
19966.75 0.69 46.279 0.723 -43.647 0.723 -43.647 0.69 46.279
19991.708 0.691 46.243 0.722 -43.683 0.722 -43.683 0.691 46.243
20016.667 0.691 46.206 0.722 -43.72 0.722 -43.72 0.691 46.206
20041.625 0.692 46.17 0.721 -43.756 0.721 -43.756 0.692 46.17
20066.583 0.692 46.134 0.721 -43.793 0.721 -43.793 0.692 46.134
20091.542 0.693 46.098 0.721 -43.829 0.721 -43.829 0.693 46.098
20116.5 0.693 46.062 0.72 -43.865 0.72 -43.865 0.693 46.062
20141.458 0.693 46.025 0.72 -43.901 0.72 -43.901 0.693 46.025
20166.417 0.694 45.989 0.719 -43.938 0.719 -43.938 0.694 45.989
20191.375 0.694 45.953 0.719 -43.974 0.719 -43.974 0.694 45.953
20216.333 0.695 45.917 0.718 -44.01 0.718 -44.01 0.695 45.917
20241.292 0.695 45.881 0.718 -44.046 0.718 -44.046 0.695 45.881
20266.25 0.696 45.846 0.717 -44.082 0.717 -44.082 0.696 45.846
20291.208 0.696 45.81 0.717 -44.118 0.717 -44.118 0.696 45.81
20316.167 0.697 45.774 0.717 -44.154 0.717 -44.154 0.697 45.774
20341.125 0.697 45.738 0.716 -44.189 0.716 -44.189 0.697 45.738
20366.083 0.697 45.702 0.716 -44.225 0.716 -44.225 0.697 45.702
20391.042 0.698 45.667 0.715 -44.261 0.715 -44.261 0.698 45.667
20416 0.698 45.631 0.715 -44.297 0.715 -44.297 0.698 45.631
20440.958 0.699 45.596 0.714 -44.332 0.714 -44.332 0.699 45.596
20465.917 0.699 45.56 0.714 -44.368 0.714 -44.368 0.699 45.56
20490.875 0.7 45.525 0.714 -44.404 0.714 -44.404 0.7 45.525
20515.833 0.7 45.489 0.713 -44.439 0.713 -44.439 0.7 45.489
20540.792 0.701 45.454 0.713 -44.475 0.713 -44.475 0.701 45.454
20565.75 0.701 45.418 0.712 -44.51 0.712 -44.51 0.701 45.418
20590.708 0.701 45.383 0.712 -44.545 0.712 -44.545 0.701 45.383
20615.667 0.702 45.348 0.711 -44.581 0.711 -44.581 0.702 45.348
20640.625 0.702 45.312 0.711 -44.616 0.711 -44.616 0.702 45.312
20665.583 0.703 45.277 0.711 -44.651 0.711 -44.651 0.703 45.277
20690.542 0.703 45.242 0.71 -44.687 0.71 -44.687 0.703 45.242
20715.5 0.704 45.207 0.71 -44.722 0.71 -44.722 0.704 45.207
20740.458 0.704 45.172 0.709 -44.757 0.709 -44.757 0.704 45.172
20765.417 0.705 45.137 0.709 -44.792 0.709 -44.792 0.705 45.137
20790.375 0.705 45.102 0.708 -44.827 0.708 -44.827 0.705 45.102
20815.333 0.705 45.067 0.708 -44.862 0.708 -44.862 0.705 45.067
20840.292 0.706 45.032 0.708 -44.897 0.708 -44.897 0.706 45.032
20865.25 0.706 44.997 0.707 -44.932 0.707 -44.932 0.706 44.997
20890.208 0.707 44.963 0.707 -44.967 0.707 -44.967 0.707 44.963
20915.167 0.707 44.928 0.706 -45.002 0.706 -45.002 0.707 44.928
20940.125 0.708 44.893 0.706 -45.037 0.706 -45.037 0.708 44.893
20965.083 0.708 44.858 0.705 -45.071 0.705 -45.071 0.708 44.858
20990.042 0.708 44.824 0.705 -45.106 0.705 -45.106 0.708 44.824
21015 0.709 44.789 0.705 -45.141 0.705 -45.141 0.709 44.789
21039.958 0.709 44.755 0.704 -45.175 0.704 -45.175 0.709 44.755
21064.917 0.71 44.72 0.704 -45.21 0.704 -45.21 0.71 44.72
21089.875 0.71 44.686 0.703 -45.244 0.703 -45.244 0.71 44.686
21114.833 0.711 44.651 0.703 -45.279 0.703 -45.279 0.711 44.651
21139.792 0.711 44.617 0.702 -45.313 0.702 -45.313 0.711 44.617
21164.75 0.711 44.583 0.702 -45.348 0.702 -45.348 0.711 44.583
21189.708 0.712 44.548 0.702 -45.382 0.702 -45.382 0.712 44.548
21214.667 0.712 44.514 0.701 -45.417 0.701 -45.417 0.712 44.514
21239.625 0.713 44.48 0.701 -45.451 0.701 -45.451 0.713 44.48
21264.583 0.713 44.446 0.7 -45.485 0.7 -45.485 0.713 44.446
21289.542 0.713 44.412 0.7 -45.519 0.7 -45.519 0.713 44.412
21314.5 0.714 44.377 0.699 -45.553 0.699 -45.553 0.714 44.377
21339.458 0.714 44.343 0.699 -45.588 0.699 -45.588 0.714 44.343
21364.417 0.715 44.309 0.699 -45.622 0.699 -45.622 0.715 44.309
21389.375 0.715 44.276 0.698 -45.656 0.698 -45.656 0.715 44.276
21414.333 0.716 44.242 0.698 -45.69 0.698 -45.69 0.716 44.242
21439.292 0.716 44.208 0.697 -45.724 0.697 -45.724 0.716 44.208
21464.25 0.716 44.174 0.697 -45.757 0.697 -45.757 0.716 44.174
21489.208 0.717 44.14 0.696 -45.791 0.696 -45.791 0.717 44.14
21514.167 0.717 44.106 0.696 -45.825 0.696 -45.825 0.717 44.106
21539.125 0.718 44.073 0.696 -45.859 0.696 -45.859 0.718 44.073
21564.083 0.718 44.039 0.695 -45.893 0.695 -45.893 0.718 44.039
21589.042 0.718 44.005 0.695 -45.926 0.695 -45.926 0.718 44.005
21614 0.719 43.972 0.694 -45.96 0.694 -45.96 0.719 43.972
21638.958 0.719 43.938 0.694 -45.994 0.694 -45.994 0.719 43.938
21663.917 0.72 43.905 0.693 -46.027 0.693 -46.027 0.72 43.905
21688.875 0.72 43.871 0.693 -46.061 0.693 -46.061 0.72 43.871
21713.833 0.72 43.838 0.693 -46.094 0.693 -46.094 0.72 43.838
21738.792 0.721 43.805 0.692 -46.128 0.692 -46.128 0.721 43.805
21763.75 0.721 43.771 0.692 -46.161 0.692 -46.161 0.721 43.771
21788.708 0.722 43.738 0.691 -46.194 0.691 -46.194 0.722 43.738
21813.667 0.722 43.705 0.691 -46.228 0.691 -46.228 0.722 43.705
21838.625 0.722 43.672 0.691 -46.261 0.691 -46.261 0.722 43.672
21863.583 0.723 43.638 0.69 -46.294 0.69 -46.294 0.723 43.638
21888.542 0.723 43.605 0.69 -46.328 0.69 -46.328 0.723 43.605
21913.5 0.724 43.572 0.689 -46.361 0.689 -46.361 0.724 43.572
21938.458 0.724 43.539 0.689 -46.394 0.689 -46.394 0.724 43.539
21963.417 0.724 43.506 0.688 -46.427 0.688 -46.427 0.724 43.506
21988.375 0.725 43.473 0.688 -46.46 0.688 -46.46 0.725 43.473
22013.333 0.725 43.44 0.688 -46.493 0.688 -46.493 0.725 43.44
22038.292 0.726 43.407 0.687 -46.526 0.687 -46.526 0.726 43.407
22063.25 0.726 43.374 0.687 -46.559 0.687 -46.559 0.726 43.374
22088.208 0.726 43.342 0.686 -46.592 0.686 -46.592 0.726 43.342
22113.167 0.727 43.309 0.686 -46.625 0.686 -46.625 0.727 43.309
22138.125 0.727 43.276 0.686 -46.657 0.686 -46.657 0.727 43.276
22163.083 0.728 43.244 0.685 -46.69 0.685 -46.69 0.728 43.244
22188.042 0.728 43.211 0.685 -46.723 0.685 -46.723 0.728 43.211
22213 0.728 43.178 0.684 -46.755 0.684 -46.755 0.728 43.178
22237.958 0.729 43.146 0.684 -46.788 0.684 -46.788 0.729 43.146
22262.917 0.729 43.113 0.683 -46.821 0.683 -46.821 0.729 43.113
22287.875 0.73 43.081 0.683 -46.853 0.683 -46.853 0.73 43.081
22312.833 0.73 43.048 0.683 -46.886 0.683 -46.886 0.73 43.048
22337.792 0.73 43.016 0.682 -46.918 0.682 -46.918 0.73 43.016
22362.75 0.731 42.984 0.682 -46.951 0.682 -46.951 0.731 42.984
22387.708 0.731 42.951 0.681 -46.983 0.681 -46.983 0.731 42.951
22412.667 0.732 42.919 0.681 -47.015 0.681 -47.015 0.732 42.919
22437.625 0.732 42.887 0.681 -47.048 0.681 -47.048 0.732 42.887
22462.583 0.732 42.854 0.68 -47.08 0.68 -47.08 0.732 42.854
22487.542 0.733 42.822 0.68 -47.112 0.68 -47.112 0.733 42.822
22512.5 0.733 42.79 0.679 -47.144 0.679 -47.144 0.733 42.79
22537.458 0.733 42.758 0.679 -47.177 0.679 -47.177 0.733 42.758
22562.417 0.734 42.726 0.678 -47.209 0.678 -47.209 0.734 42.726
22587.375 0.734 42.694 0.678 -47.241 0.678 -47.241 0.734 42.694
22612.333 0.735 42.662 0.678 -47.273 0.678 -47.273 0.735 42.662
22637.292 0.735 42.63 0.677 -47.305 0.677 -47.305 0.735 42.63
22662.25 0.735 42.598 0.677 -47.337 0.677 -47.337 0.735 42.598
22687.208 0.736 42.566 0.676 -47.369 0.676 -47.369 0.736 42.566
22712.167 0.736 42.535 0.676 -47.401 0.676 -47.401 0.736 42.535
22737.125 0.736 42.503 0.676 -47.432 0.676 -47.432 0.736 42.503
22762.083 0.737 42.471 0.675 -47.464 0.675 -47.464 0.737 42.471
22787.042 0.737 42.439 0.675 -47.496 0.675 -47.496 0.737 42.439
22812 0.738 42.408 0.674 -47.528 0.674 -47.528 0.738 42.408
22836.958 0.738 42.376 0.674 -47.559 0.674 -47.559 0.738 42.376
22861.917 0.738 42.345 0.674 -47.591 0.674 -47.591 0.738 42.345
22886.875 0.739 42.313 0.673 -47.623 0.673 -47.623 0.739 42.313
22911.833 0.739 42.282 0.673 -47.654 0.673 -47.654 0.739 42.282
22936.792 0.739 42.25 0.672 -47.686 0.672 -47.686 0.739 42.25
22961.75 0.74 42.219 0.672 -47.717 0.672 -47.717 0.74 42.219
22986.708 0.74 42.187 0.672 -47.749 0.672 -47.749 0.74 42.187
23011.667 0.741 42.156 0.671 -47.78 0.671 -47.78 0.741 42.156
23036.625 0.741 42.125 0.671 -47.812 0.671 -47.812 0.741 42.125
23061.583 0.741 42.093 0.67 -47.843 0.67 -47.843 0.741 42.093
23086.542 0.742 42.062 0.67 -47.874 0.67 -47.874 0.742 42.062
23111.5 0.742 42.031 0.67 -47.905 0.67 -47.905 0.742 42.031
23136.458 0.742 42 0.669 -47.937 0.669 -47.937 0.742 42
23161.417 0.743 41.969 0.669 -47.968 0.669 -47.968 0.743 41.969
23186.375 0.743 41.938 0.668 -47.999 0.668 -47.999 0.743 41.938
23211.333 0.743 41.907 0.668 -48.03 0.668 -48.03 0.743 41.907
23236.292 0.744 41.876 0.668 -48.061 0.668 -48.061 0.744 41.876
23261.25 0.744 41.845 0.667 -48.092 0.667 -48.092 0.744 41.845
23286.208 0.745 41.814 0.667 -48.123 0.667 -48.123 0.745 41.814
23311.167 0.745 41.783 0.666 -48.154 0.666 -48.154 0.745 41.783
23336.125 0.745 41.752 0.666 -48.185 0.666 -48.185 0.745 41.752
23361.083 0.746 41.721 0.666 -48.216 0.666 -48.216 0.746 41.721
23386.042 0.746 41.69 0.665 -48.247 0.665 -48.247 0.746 41.69
23411 0.746 41.66 0.665 -48.278 0.665 -48.278 0.746 41.66
23435.958 0.747 41.629 0.664 -48.308 0.664 -48.308 0.747 41.629
23460.917 0.747 41.598 0.664 -48.339 0.664 -48.339 0.747 41.598
23485.875 0.747 41.568 0.664 -48.37 0.664 -48.37 0.747 41.568
23510.833 0.748 41.537 0.663 -48.401 0.663 -48.401 0.748 41.537
23535.792 0.748 41.506 0.663 -48.431 0.663 -48.431 0.748 41.506
23560.75 0.749 41.476 0.662 -48.462 0.662 -48.462 0.749 41.476
23585.708 0.749 41.445 0.662 -48.492 0.662 -48.492 0.749 41.445
23610.667 0.749 41.415 0.662 -48.523 0.662 -48.523 0.749 41.415
23635.625 0.75 41.385 0.661 -48.553 0.661 -48.553 0.75 41.385
23660.583 0.75 41.354 0.661 -48.584 0.661 -48.584 0.75 41.354
23685.542 0.75 41.324 0.66 -48.614 0.66 -48.614 0.75 41.324
23710.5 0.751 41.294 0.66 -48.644 0.66 -48.644 0.751 41.294
23735.458 0.751 41.263 0.66 -48.675 0.66 -48.675 0.751 41.263
23760.417 0.751 41.233 0.659 -48.705 0.659 -48.705 0.751 41.233
23785.375 0.752 41.203 0.659 -48.735 0.659 -48.735 0.752 41.203
23810.333 0.752 41.173 0.658 -48.766 0.658 -48.766 0.752 41.173
23835.292 0.752 41.143 0.658 -48.796 0.658 -48.796 0.752 41.143
23860.25 0.753 41.113 0.658 -48.826 0.658 -48.826 0.753 41.113
23885.208 0.753 41.083 0.657 -48.856 0.657 -48.856 0.753 41.083
23910.167 0.753 41.053 0.657 -48.886 0.657 -48.886 0.753 41.053
23935.125 0.754 41.023 0.656 -48.916 0.656 -48.916 0.754 41.023
23960.083 0.754 40.993 0.656 -48.946 0.656 -48.946 0.754 40.993
23985.042 0.754 40.963 0.656 -48.976 0.656 -48.976 0.754 40.963
24010 0.755 40.933 0.655 -49.006 0.655 -49.006 0.755 40.933
24034.958 0.755 40.903 0.655 -49.036 0.655 -49.036 0.755 40.903
24059.917 0.755 40.873 0.654 -49.066 0.654 -49.066 0.755 40.873
24084.875 0.756 40.844 0.654 -49.095 0.654 -49.095 0.756 40.844
24109.833 0.756 40.814 0.654 -49.125 0.654 -49.125 0.756 40.814
24134.792 0.756 40.784 0.653 -49.155 0.653 -49.155 0.756 40.784
24159.75 0.757 40.754 0.653 -49.185 0.653 -49.185 0.757 40.754
24184.708 0.757 40.725 0.652 -49.214 0.652 -49.214 0.757 40.725
24209.667 0.757 40.695 0.652 -49.244 0.652 -49.244 0.757 40.695
24234.625 0.758 40.666 0.652 -49.274 0.652 -49.274 0.758 40.666
24259.583 0.758 40.636 0.651 -49.303 0.651 -49.303 0.758 40.636
24284.542 0.759 40.607 0.651 -49.333 0.651 -49.333 0.759 40.607
24309.5 0.759 40.577 0.65 -49.362 0.65 -49.362 0.759 40.577
24334.458 0.759 40.548 0.65 -49.392 0.65 -49.392 0.759 40.548
24359.417 0.76 40.519 0.65 -49.421 0.65 -49.421 0.76 40.519
24384.375 0.76 40.489 0.649 -49.45 0.649 -49.45 0.76 40.489
24409.333 0.76 40.46 0.649 -49.48 0.649 -49.48 0.76 40.46
24434.292 0.761 40.431 0.649 -49.509 0.649 -49.509 0.761 40.431
24459.25 0.761 40.402 0.648 -49.538 0.648 -49.538 0.761 40.402
24484.208 0.761 40.372 0.648 -49.568 0.648 -49.568 0.761 40.372
24509.167 0.762 40.343 0.647 -49.597 0.647 -49.597 0.762 40.343
24534.125 0.762 40.314 0.647 -49.626 0.647 -49.626 0.762 40.314
24559.083 0.762 40.285 0.647 -49.655 0.647 -49.655 0.762 40.285
24584.042 0.762 40.256 0.646 -49.684 0.646 -49.684 0.762 40.256
24609 0.763 40.227 0.646 -49.713 0.646 -49.713 0.763 40.227
24633.958 0.763 40.198 0.645 -49.742 0.645 -49.742 0.763 40.198
24658.917 0.763 40.169 0.645 -49.771 0.645 -49.771 0.763 40.169
24683.875 0.764 40.14 0.645 -49.8 0.645 -49.8 0.764 40.14
24708.833 0.764 40.111 0.644 -49.829 0.644 -49.829 0.764 40.111
24733.792 0.764 40.083 0.644 -49.858 0.644 -49.858 0.764 40.083
24758.75 0.765 40.054 0.644 -49.887 0.644 -49.887 0.765 40.054
24783.708 0.765 40.025 0.643 -49.916 0.643 -49.916 0.765 40.025
24808.667 0.765 39.996 0.643 -49.944 0.643 -49.944 0.765 39.996
24833.625 0.766 39.968 0.642 -49.973 0.642 -49.973 0.766 39.968
24858.583 0.766 39.939 0.642 -50.002 0.642 -50.002 0.766 39.939
24883.542 0.766 39.91 0.642 -50.031 0.642 -50.031 0.766 39.91
24908.5 0.767 39.882 0.641 -50.059 0.641 -50.059 0.767 39.882
24933.458 0.767 39.853 0.641 -50.088 0.641 -50.088 0.767 39.853
24958.417 0.767 39.825 0.64 -50.116 0.64 -50.116 0.767 39.825
24983.375 0.768 39.796 0.64 -50.145 0.64 -50.145 0.768 39.796
25008.333 0.768 39.768 0.64 -50.173 0.64 -50.173 0.768 39.768
25033.292 0.768 39.739 0.639 -50.202 0.639 -50.202 0.768 39.739
25058.25 0.769 39.711 0.639 -50.23 0.639 -50.23 0.769 39.711
25083.208 0.769 39.683 0.639 -50.259 0.639 -50.259 0.769 39.683
25108.167 0.769 39.654 0.638 -50.287 0.638 -50.287 0.769 39.654
25133.125 0.77 39.626 0.638 -50.315 0.638 -50.315 0.77 39.626
25158.083 0.77 39.598 0.637 -50.344 0.637 -50.344 0.77 39.598
25183.042 0.77 39.57 0.637 -50.372 0.637 -50.372 0.77 39.57
25208 0.771 39.541 0.637 -50.4 0.637 -50.4 0.771 39.541
25232.958 0.771 39.513 0.636 -50.428 0.636 -50.428 0.771 39.513
25257.917 0.771 39.485 0.636 -50.457 0.636 -50.457 0.771 39.485
25282.875 0.771 39.457 0.636 -50.485 0.636 -50.485 0.771 39.457
25307.833 0.772 39.429 0.635 -50.513 0.635 -50.513 0.772 39.429
25332.792 0.772 39.401 0.635 -50.541 0.635 -50.541 0.772 39.401
25357.75 0.772 39.373 0.634 -50.569 0.634 -50.569 0.772 39.373
25382.708 0.773 39.345 0.634 -50.597 0.634 -50.597 0.773 39.345
25407.667 0.773 39.317 0.634 -50.625 0.634 -50.625 0.773 39.317
25432.625 0.773 39.289 0.633 -50.653 0.633 -50.653 0.773 39.289
25457.583 0.774 39.262 0.633 -50.681 0.633 -50.681 0.774 39.262
25482.542 0.774 39.234 0.632 -50.709 0.632 -50.709 0.774 39.234
25507.5 0.774 39.206 0.632 -50.736 0.632 -50.736 0.774 39.206
25532.458 0.775 39.178 0.632 -50.764 0.632 -50.764 0.775 39.178
25557.417 0.775 39.151 0.631 -50.792 0.631 -50.792 0.775 39.151
25582.375 0.775 39.123 0.631 -50.82 0.631 -50.82 0.775 39.123
25607.333 0.775 39.095 0.631 -50.847 0.631 -50.847 0.775 39.095
25632.292 0.776 39.068 0.63 -50.875 0.63 -50.875 0.776 39.068
25657.25 0.776 39.04 0.63 -50.903 0.63 -50.903 0.776 39.04
25682.208 0.776 39.012 0.629 -50.93 0.629 -50.93 0.776 39.012
25707.167 0.777 38.985 0.629 -50.958 0.629 -50.958 0.777 38.985
25732.125 0.777 38.958 0.629 -50.985 0.629 -50.985 0.777 38.958
25757.083 0.777 38.93 0.628 -51.013 0.628 -51.013 0.777 38.93
25782.042 0.778 38.903 0.628 -51.04 0.628 -51.04 0.778 38.903
25807 0.778 38.875 0.628 -51.068 0.628 -51.068 0.778 38.875
25831.958 0.778 38.848 0.627 -51.095 0.627 -51.095 0.778 38.848
25856.917 0.778 38.821 0.627 -51.123 0.627 -51.123 0.778 38.821
25881.875 0.779 38.793 0.627 -51.15 0.627 -51.15 0.779 38.793
25906.833 0.779 38.766 0.626 -51.177 0.626 -51.177 0.779 38.766
25931.792 0.779 38.739 0.626 -51.204 0.626 -51.204 0.779 38.739
25956.75 0.78 38.712 0.625 -51.232 0.625 -51.232 0.78 38.712
25981.708 0.78 38.685 0.625 -51.259 0.625 -51.259 0.78 38.685
26006.667 0.78 38.657 0.625 -51.286 0.625 -51.286 0.78 38.657
26031.625 0.781 38.63 0.624 -51.313 0.624 -51.313 0.781 38.63
26056.583 0.781 38.603 0.624 -51.34 0.624 -51.34 0.781 38.603
26081.542 0.781 38.576 0.624 -51.367 0.624 -51.367 0.781 38.576
26106.5 0.781 38.549 0.623 -51.394 0.623 -51.394 0.781 38.549
26131.458 0.782 38.522 0.623 -51.421 0.623 -51.421 0.782 38.522
26156.417 0.782 38.495 0.622 -51.448 0.622 -51.448 0.782 38.495
26181.375 0.782 38.469 0.622 -51.475 0.622 -51.475 0.782 38.469
26206.333 0.783 38.442 0.622 -51.502 0.622 -51.502 0.783 38.442
26231.292 0.783 38.415 0.621 -51.529 0.621 -51.529 0.783 38.415
26256.25 0.783 38.388 0.621 -51.556 0.621 -51.556 0.783 38.388
26281.208 0.784 38.361 0.621 -51.583 0.621 -51.583 0.784 38.361
26306.167 0.784 38.335 0.62 -51.61 0.62 -51.61 0.784 38.335
26331.125 0.784 38.308 0.62 -51.636 0.62 -51.636 0.784 38.308
26356.083 0.784 38.281 0.62 -51.663 0.62 -51.663 0.784 38.281
26381.042 0.785 38.255 0.619 -51.69 0.619 -51.69 0.785 38.255
26406 0.785 38.228 0.619 -51.716 0.619 -51.716 0.785 38.228
26430.958 0.785 38.201 0.618 -51.743 0.618 -51.743 0.785 38.201
26455.917 0.786 38.175 0.618 -51.77 0.618 -51.77 0.786 38.175
26480.875 0.786 38.148 0.618 -51.796 0.618 -51.796 0.786 38.148
26505.833 0.786 38.122 0.617 -51.823 0.617 -51.823 0.786 38.122
26530.792 0.786 38.095 0.617 -51.849 0.617 -51.849 0.786 38.095
26555.75 0.787 38.069 0.617 -51.876 0.617 -51.876 0.787 38.069
26580.708 0.787 38.043 0.616 -51.902 0.616 -51.902 0.787 38.043
26605.667 0.787 38.016 0.616 -51.929 0.616 -51.929 0.787 38.016
26630.625 0.788 37.99 0.616 -51.955 0.616 -51.955 0.788 37.99
26655.583 0.788 37.964 0.615 -51.981 0.615 -51.981 0.788 37.964
26680.542 0.788 37.937 0.615 -52.008 0.615 -52.008 0.788 37.937
26705.5 0.788 37.911 0.614 -52.034 0.614 -52.034 0.788 37.911
26730.458 0.789 37.885 0.614 -52.06 0.614 -52.06 0.789 37.885
26755.417 0.789 37.859 0.614 -52.086 0.614 -52.086 0.789 37.859
26780.375 0.789 37.833 0.613 -52.113 0.613 -52.113 0.789 37.833
26805.333 0.789 37.807 0.613 -52.139 0.613 -52.139 0.789 37.807
26830.292 0.79 37.78 0.613 -52.165 0.613 -52.165 0.79 37.78
26855.25 0.79 37.754 0.612 -52.191 0.612 -52.191 0.79 37.754
26880.208 0.79 37.728 0.612 -52.217 0.612 -52.217 0.79 37.728
26905.167 0.791 37.702 0.612 -52.243 0.612 -52.243 0.791 37.702
26930.125 0.791 37.676 0.611 -52.269 0.611 -52.269 0.791 37.676
26955.083 0.791 37.651 0.611 -52.295 0.611 -52.295 0.791 37.651
26980.042 0.791 37.625 0.61 -52.321 0.61 -52.321 0.791 37.625
27005 0.792 37.599 0.61 -52.347 0.61 -52.347 0.792 37.599
27029.958 0.792 37.573 0.61 -52.373 0.61 -52.373 0.792 37.573
27054.917 0.792 37.547 0.609 -52.399 0.609 -52.399 0.792 37.547
27079.875 0.793 37.521 0.609 -52.424 0.609 -52.424 0.793 37.521
27104.833 0.793 37.496 0.609 -52.45 0.609 -52.45 0.793 37.496
27129.792 0.793 37.47 0.608 -52.476 0.608 -52.476 0.793 37.47
27154.75 0.793 37.444 0.608 -52.502 0.608 -52.502 0.793 37.444
27179.708 0.794 37.419 0.608 -52.527 0.608 -52.527 0.794 37.419
27204.667 0.794 37.393 0.607 -52.553 0.607 -52.553 0.794 37.393
27229.625 0.794 37.367 0.607 -52.579 0.607 -52.579 0.794 37.367
27254.583 0.794 37.342 0.607 -52.604 0.607 -52.604 0.794 37.342
27279.542 0.795 37.316 0.606 -52.63 0.606 -52.63 0.795 37.316
27304.5 0.795 37.291 0.606 -52.655 0.606 -52.655 0.795 37.291
27329.458 0.795 37.265 0.606 -52.681 0.606 -52.681 0.795 37.265
27354.417 0.796 37.24 0.605 -52.706 0.605 -52.706 0.796 37.24
27379.375 0.796 37.215 0.605 -52.732 0.605 -52.732 0.796 37.215
27404.333 0.796 37.189 0.604 -52.757 0.604 -52.757 0.796 37.189
27429.292 0.796 37.164 0.604 -52.783 0.604 -52.783 0.796 37.164
27454.25 0.797 37.139 0.604 -52.808 0.604 -52.808 0.797 37.139
27479.208 0.797 37.113 0.603 -52.833 0.603 -52.833 0.797 37.113
27504.167 0.797 37.088 0.603 -52.859 0.603 -52.859 0.797 37.088
27529.125 0.797 37.063 0.603 -52.884 0.603 -52.884 0.797 37.063
27554.083 0.798 37.038 0.602 -52.909 0.602 -52.909 0.798 37.038
27579.042 0.798 37.012 0.602 -52.934 0.602 -52.934 0.798 37.012
27604 0.798 36.987 0.602 -52.96 0.602 -52.96 0.798 36.987
27628.958 0.798 36.962 0.601 -52.985 0.601 -52.985 0.798 36.962
27653.917 0.799 36.937 0.601 -53.01 0.601 -53.01 0.799 36.937
27678.875 0.799 36.912 0.601 -53.035 0.601 -53.035 0.799 36.912
27703.833 0.799 36.887 0.6 -53.06 0.6 -53.06 0.799 36.887
27728.792 0.8 36.862 0.6 -53.085 0.6 -53.085 0.8 36.862
27753.75 0.8 36.837 0.6 -53.11 0.6 -53.11 0.8 36.837
27778.708 0.8 36.812 0.599 -53.135 0.599 -53.135 0.8 36.812
27803.667 0.8 36.787 0.599 -53.16 0.599 -53.16 0.8 36.787
27828.625 0.801 36.762 0.598 -53.185 0.598 -53.185 0.801 36.762
27853.583 0.801 36.737 0.598 -53.21 0.598 -53.21 0.801 36.737
27878.542 0.801 36.713 0.598 -53.235 0.598 -53.235 0.801 36.713
27903.5 0.801 36.688 0.597 -53.26 0.597 -53.26 0.801 36.688
27928.458 0.802 36.663 0.597 -53.284 0.597 -53.284 0.802 36.663
27953.417 0.802 36.638 0.597 -53.309 0.597 -53.309 0.802 36.638
27978.375 0.802 36.614 0.596 -53.334 0.596 -53.334 0.802 36.614
28003.333 0.802 36.589 0.596 -53.359 0.596 -53.359 0.802 36.589
28028.292 0.803 36.564 0.596 -53.383 0.596 -53.383 0.803 36.564
28053.25 0.803 36.54 0.595 -53.408 0.595 -53.408 0.803 36.54
28078.208 0.803 36.515 0.595 -53.433 0.595 -53.433 0.803 36.515
28103.167 0.803 36.491 0.595 -53.457 0.595 -53.457 0.803 36.491
28128.125 0.804 36.466 0.594 -53.482 0.594 -53.482 0.804 36.466
28153.083 0.804 36.442 0.594 -53.506 0.594 -53.506 0.804 36.442
28178.042 0.804 36.417 0.594 -53.531 0.594 -53.531 0.804 36.417
28203 0.804 36.393 0.593 -53.555 0.593 -53.555 0.804 36.393
28227.958 0.805 36.368 0.593 -53.58 0.593 -53.58 0.805 36.368
28252.917 0.805 36.344 0.593 -53.604 0.593 -53.604 0.805 36.344
28277.875 0.805 36.319 0.592 -53.629 0.592 -53.629 0.805 36.319
28302.833 0.805 36.295 0.592 -53.653 0.592 -53.653 0.805 36.295
28327.792 0.806 36.271 0.592 -53.677 0.592 -53.677 0.806 36.271
28352.75 0.806 36.247 0.591 -53.702 0.591 -53.702 0.806 36.247
28377.708 0.806 36.222 0.591 -53.726 0.591 -53.726 0.806 36.222
28402.667 0.806 36.198 0.591 -53.75 0.591 -53.75 0.806 36.198
28427.625 0.807 36.174 0.59 -53.774 0.59 -53.774 0.807 36.174
28452.583 0.807 36.15 0.59 -53.799 0.59 -53.799 0.807 36.15
28477.542 0.807 36.126 0.59 -53.823 0.59 -53.823 0.807 36.126
28502.5 0.807 36.102 0.589 -53.847 0.589 -53.847 0.807 36.102
28527.458 0.808 36.077 0.589 -53.871 0.589 -53.871 0.808 36.077
28552.417 0.808 36.053 0.589 -53.895 0.589 -53.895 0.808 36.053
28577.375 0.808 36.029 0.588 -53.919 0.588 -53.919 0.808 36.029
28602.333 0.808 36.005 0.588 -53.943 0.588 -53.943 0.808 36.005
28627.292 0.809 35.981 0.588 -53.967 0.588 -53.967 0.809 35.981
28652.25 0.809 35.957 0.587 -53.991 0.587 -53.991 0.809 35.957
28677.208 0.809 35.934 0.587 -54.015 0.587 -54.015 0.809 35.934
28702.167 0.809 35.91 0.587 -54.039 0.587 -54.039 0.809 35.91
28727.125 0.81 35.886 0.586 -54.063 0.586 -54.063 0.81 35.886
28752.083 0.81 35.862 0.586 -54.087 0.586 -54.087 0.81 35.862
28777.042 0.81 35.838 0.585 -54.111 0.585 -54.111 0.81 35.838
28802 0.81 35.814 0.585 -54.135 0.585 -54.135 0.81 35.814
28826.958 0.811 35.791 0.585 -54.158 0.585 -54.158 0.811 35.791
28851.917 0.811 35.767 0.584 -54.182 0.584 -54.182 0.811 35.767
28876.875 0.811 35.743 0.584 -54.206 0.584 -54.206 0.811 35.743
28901.833 0.811 35.72 0.584 -54.23 0.584 -54.23 0.811 35.72
28926.792 0.812 35.696 0.583 -54.253 0.583 -54.253 0.812 35.696
28951.75 0.812 35.672 0.583 -54.277 0.583 -54.277 0.812 35.672
28976.708 0.812 35.649 0.583 -54.301 0.583 -54.301 0.812 35.649
29001.667 0.812 35.625 0.582 -54.324 0.582 -54.324 0.812 35.625
29026.625 0.813 35.602 0.582 -54.348 0.582 -54.348 0.813 35.602
29051.583 0.813 35.578 0.582 -54.371 0.582 -54.371 0.813 35.578
29076.542 0.813 35.555 0.581 -54.395 0.581 -54.395 0.813 35.555
29101.5 0.813 35.531 0.581 -54.418 0.581 -54.418 0.813 35.531
29126.458 0.814 35.508 0.581 -54.442 0.581 -54.442 0.814 35.508
29151.417 0.814 35.485 0.58 -54.465 0.58 -54.465 0.814 35.485
29176.375 0.814 35.461 0.58 -54.489 0.58 -54.489 0.814 35.461
29201.333 0.814 35.438 0.58 -54.512 0.58 -54.512 0.814 35.438
29226.292 0.814 35.414 0.579 -54.535 0.579 -54.535 0.814 35.414
29251.25 0.815 35.391 0.579 -54.559 0.579 -54.559 0.815 35.391
29276.208 0.815 35.368 0.579 -54.582 0.579 -54.582 0.815 35.368
29301.167 0.815 35.345 0.578 -54.605 0.578 -54.605 0.815 35.345
29326.125 0.815 35.322 0.578 -54.628 0.578 -54.628 0.815 35.322
29351.083 0.816 35.298 0.578 -54.652 0.578 -54.652 0.816 35.298
29376.042 0.816 35.275 0.578 -54.675 0.578 -54.675 0.816 35.275
29401 0.816 35.252 0.577 -54.698 0.577 -54.698 0.816 35.252
29425.958 0.816 35.229 0.577 -54.721 0.577 -54.721 0.816 35.229
29450.917 0.817 35.206 0.577 -54.744 0.577 -54.744 0.817 35.206
29475.875 0.817 35.183 0.576 -54.767 0.576 -54.767 0.817 35.183
29500.833 0.817 35.16 0.576 -54.79 0.576 -54.79 0.817 35.16
29525.792 0.817 35.137 0.576 -54.813 0.576 -54.813 0.817 35.137
29550.75 0.818 35.114 0.575 -54.836 0.575 -54.836 0.818 35.114
29575.708 0.818 35.091 0.575 -54.859 0.575 -54.859 0.818 35.091
29600.667 0.818 35.068 0.575 -54.882 0.575 -54.882 0.818 35.068
29625.625 0.818 35.045 0.574 -54.905 0.574 -54.905 0.818 35.045
29650.583 0.818 35.022 0.574 -54.928 0.574 -54.928 0.818 35.022
29675.542 0.819 34.999 0.574 -54.951 0.574 -54.951 0.819 34.999
29700.5 0.819 34.977 0.573 -54.974 0.573 -54.974 0.819 34.977
29725.458 0.819 34.954 0.573 -54.997 0.573 -54.997 0.819 34.954
29750.417 0.819 34.931 0.573 -55.02 0.573 -55.02 0.819 34.931
29775.375 0.82 34.908 0.572 -55.042 0.572 -55.042 0.82 34.908
29800.333 0.82 34.886 0.572 -55.065 0.572 -55.065 0.82 34.886
29825.292 0.82 34.863 0.572 -55.088 0.572 -55.088 0.82 34.863
29850.25 0.82 34.84 0.571 -55.111 0.571 -55.111 0.82 34.84
29875.208 0.82 34.818 0.571 -55.133 0.571 -55.133 0.82 34.818
29900.167 0.821 34.795 0.571 -55.156 0.571 -55.156 0.821 34.795
29925.125 0.821 34.773 0.57 -55.178 0.57 -55.178 0.821 34.773
29950.083 0.821 34.75 0.57 -55.201 0.57 -55.201 0.821 34.75
29975.042 0.821 34.727 0.57 -55.224 0.57 -55.224 0.821 34.727
30000 0.822 34.705 0.569 -55.246 0.569 -55.246 0.822 34.705
