!	AVX Thin Film Operation 	Date: April 2014		
!	Description: Accu-P® Series, Thin Film  SMD RF Capacitor
!	Part Number: 06031J2R2QBSTR					
!								
# MHZ S MA R 50

50 0.998 -3.954 0.069 86.039 0.069 86.039 0.998 -3.954
74.958 0.995 -5.918 0.103 84.072 0.103 84.072 0.995 -5.918
99.917 0.991 -7.869 0.137 82.117 0.137 82.117 0.991 -7.869
124.875 0.985 -9.803 0.17 80.179 0.17 80.179 0.985 -9.803
149.833 0.979 -11.718 0.203 78.261 0.203 78.261 0.979 -11.718
174.792 0.972 -13.609 0.235 76.366 0.235 76.366 0.972 -13.609
199.75 0.964 -15.474 0.267 74.498 0.267 74.498 0.964 -15.474
224.708 0.955 -17.309 0.298 72.659 0.298 72.659 0.955 -17.309
249.667 0.945 -19.112 0.327 70.853 0.327 70.853 0.945 -19.112
274.625 0.934 -20.881 0.356 69.08 0.356 69.08 0.934 -20.881
299.583 0.923 -22.614 0.385 67.344 0.385 67.344 0.923 -22.614
324.542 0.911 -24.309 0.412 65.645 0.412 65.645 0.911 -24.309
349.5 0.899 -25.965 0.438 63.985 0.438 63.985 0.899 -25.965
374.458 0.886 -27.581 0.463 62.365 0.463 62.365 0.886 -27.581
399.417 0.873 -29.157 0.487 60.786 0.487 60.786 0.873 -29.157
424.375 0.859 -30.692 0.51 59.248 0.51 59.248 0.859 -30.692
449.333 0.846 -32.185 0.533 57.751 0.533 57.751 0.846 -32.185
474.292 0.832 -33.637 0.554 56.295 0.554 56.295 0.832 -33.637
499.25 0.818 -35.049 0.574 54.88 0.574 54.88 0.818 -35.049
524.208 0.804 -36.419 0.594 53.506 0.594 53.506 0.804 -36.419
549.167 0.79 -37.75 0.612 52.171 0.612 52.171 0.79 -37.75
574.125 0.776 -39.041 0.63 50.876 0.63 50.876 0.776 -39.041
599.083 0.762 -40.294 0.647 49.62 0.647 49.62 0.762 -40.294
624.042 0.748 -41.509 0.663 48.401 0.663 48.401 0.748 -41.509
649 0.734 -42.687 0.678 47.22 0.678 47.22 0.734 -42.687
673.958 0.72 -43.829 0.693 46.074 0.693 46.074 0.72 -43.829
698.917 0.707 -44.936 0.706 44.963 0.706 44.963 0.707 -44.936
723.875 0.693 -46.009 0.719 43.886 0.719 43.886 0.693 -46.009
748.833 0.68 -47.049 0.732 42.842 0.732 42.842 0.68 -47.049
773.792 0.667 -48.058 0.744 41.829 0.744 41.829 0.667 -48.058
798.75 0.654 -49.035 0.755 40.848 0.755 40.848 0.654 -49.035
823.708 0.641 -49.983 0.766 39.896 0.766 39.896 0.641 -49.983
848.667 0.629 -50.903 0.776 38.972 0.776 38.972 0.629 -50.903
873.625 0.617 -51.794 0.786 38.077 0.786 38.077 0.617 -51.794
898.583 0.605 -52.659 0.795 37.207 0.795 37.207 0.605 -52.659
923.542 0.593 -53.498 0.804 36.364 0.804 36.364 0.593 -53.498
948.5 0.581 -54.313 0.812 35.545 0.812 35.545 0.581 -54.313
973.458 0.57 -55.104 0.82 34.75 0.82 34.75 0.57 -55.104
998.417 0.559 -55.872 0.828 33.978 0.828 33.978 0.559 -55.872
1023.375 0.548 -56.617 0.835 33.228 0.835 33.228 0.548 -56.617
1048.333 0.537 -57.342 0.842 32.499 0.842 32.499 0.537 -57.342
1073.292 0.527 -58.046 0.848 31.79 0.848 31.79 0.527 -58.046
1098.25 0.517 -58.731 0.855 31.101 0.855 31.101 0.517 -58.731
1123.208 0.507 -59.397 0.861 30.431 0.861 30.431 0.507 -59.397
1148.167 0.497 -60.044 0.866 29.779 0.866 29.779 0.497 -60.044
1173.125 0.487 -60.674 0.872 29.144 0.872 29.144 0.487 -60.674
1198.083 0.478 -61.288 0.877 28.526 0.877 28.526 0.478 -61.288
1223.042 0.468 -61.885 0.882 27.924 0.882 27.924 0.468 -61.885
1248 0.459 -62.467 0.887 27.337 0.887 27.337 0.459 -62.467
1272.958 0.45 -63.033 0.891 26.766 0.891 26.766 0.45 -63.033
1297.917 0.442 -63.586 0.896 26.209 0.896 26.209 0.442 -63.586
1322.875 0.433 -64.124 0.9 25.665 0.9 25.665 0.433 -64.124
1347.833 0.425 -64.649 0.904 25.135 0.904 25.135 0.425 -64.649
1372.792 0.417 -65.162 0.908 24.617 0.908 24.617 0.417 -65.162
1397.75 0.409 -65.662 0.911 24.112 0.911 24.112 0.409 -65.662
1422.708 0.401 -66.15 0.915 23.619 0.915 23.619 0.401 -66.15
1447.667 0.393 -66.626 0.918 23.137 0.918 23.137 0.393 -66.626
1472.625 0.385 -67.092 0.921 22.666 0.921 22.666 0.385 -67.092
1497.583 0.378 -67.547 0.924 22.205 0.924 22.205 0.378 -67.547
1522.542 0.371 -67.991 0.927 21.755 0.927 21.755 0.371 -67.991
1547.5 0.363 -68.426 0.93 21.314 0.93 21.314 0.363 -68.426
1572.458 0.356 -68.851 0.933 20.884 0.933 20.884 0.356 -68.851
1597.417 0.35 -69.267 0.935 20.462 0.935 20.462 0.35 -69.267
1622.375 0.343 -69.674 0.938 20.049 0.938 20.049 0.343 -69.674
1647.333 0.336 -70.072 0.94 19.644 0.94 19.644 0.336 -70.072
1672.292 0.33 -70.462 0.942 19.248 0.942 19.248 0.33 -70.462
1697.25 0.323 -70.843 0.945 18.86 0.945 18.86 0.323 -70.843
1722.208 0.317 -71.217 0.947 18.48 0.947 18.48 0.317 -71.217
1747.167 0.311 -71.584 0.949 18.107 0.949 18.107 0.311 -71.584
1772.125 0.305 -71.943 0.951 17.741 0.951 17.741 0.305 -71.943
1797.083 0.299 -72.295 0.953 17.382 0.953 17.382 0.299 -72.295
1822.042 0.293 -72.64 0.954 17.029 0.954 17.029 0.293 -72.64
1847 0.287 -72.979 0.956 16.684 0.956 16.684 0.287 -72.979
1871.958 0.281 -73.311 0.958 16.344 0.958 16.344 0.281 -73.311
1896.917 0.276 -73.637 0.96 16.011 0.96 16.011 0.276 -73.637
1921.875 0.27 -73.956 0.961 15.683 0.961 15.683 0.27 -73.956
1946.833 0.265 -74.27 0.963 15.361 0.963 15.361 0.265 -74.27
1971.792 0.26 -74.578 0.964 15.045 0.964 15.045 0.26 -74.578
1996.75 0.254 -74.881 0.965 14.734 0.965 14.734 0.254 -74.881
2021.708 0.249 -75.178 0.967 14.428 0.967 14.428 0.249 -75.178
2046.667 0.244 -75.47 0.968 14.127 0.968 14.127 0.244 -75.47
2071.625 0.239 -75.757 0.969 13.831 0.969 13.831 0.239 -75.757
2096.583 0.234 -76.039 0.97 13.54 0.97 13.54 0.234 -76.039
2121.542 0.229 -76.316 0.972 13.254 0.972 13.254 0.229 -76.316
2146.5 0.224 -76.589 0.973 12.971 0.973 12.971 0.224 -76.589
2171.458 0.22 -76.857 0.974 12.694 0.974 12.694 0.22 -76.857
2196.417 0.215 -77.12 0.975 12.42 0.975 12.42 0.215 -77.12
2221.375 0.21 -77.379 0.976 12.151 0.976 12.151 0.21 -77.379
2246.333 0.206 -77.634 0.977 11.885 0.977 11.885 0.206 -77.634
2271.292 0.201 -77.885 0.978 11.623 0.978 11.623 0.201 -77.885
2296.25 0.197 -78.131 0.979 11.365 0.979 11.365 0.197 -78.131
2321.208 0.193 -78.374 0.98 11.111 0.98 11.111 0.193 -78.374
2346.167 0.188 -78.612 0.98 10.86 0.98 10.86 0.188 -78.612
2371.125 0.184 -78.847 0.981 10.613 0.981 10.613 0.184 -78.847
2396.083 0.18 -79.078 0.982 10.368 0.982 10.368 0.18 -79.078
2421.042 0.176 -79.306 0.983 10.128 0.983 10.128 0.176 -79.306
2446 0.172 -79.529 0.983 9.89 0.983 9.89 0.172 -79.529
2470.958 0.168 -79.749 0.984 9.655 0.984 9.655 0.168 -79.749
2495.917 0.164 -79.966 0.985 9.424 0.985 9.424 0.164 -79.966
2520.875 0.16 -80.179 0.985 9.195 0.985 9.195 0.16 -80.179
2545.833 0.156 -80.389 0.986 8.969 0.986 8.969 0.156 -80.389
2570.792 0.152 -80.596 0.987 8.746 0.987 8.746 0.152 -80.596
2595.75 0.148 -80.799 0.987 8.526 0.987 8.526 0.148 -80.799
2620.708 0.145 -80.998 0.988 8.308 0.988 8.308 0.145 -80.998
2645.667 0.141 -81.195 0.988 8.093 0.988 8.093 0.141 -81.195
2670.625 0.137 -81.388 0.989 7.88 0.989 7.88 0.137 -81.388
2695.583 0.133 -81.578 0.989 7.67 0.989 7.67 0.133 -81.578
2720.542 0.13 -81.765 0.99 7.462 0.99 7.462 0.13 -81.765
2745.5 0.126 -81.948 0.99 7.257 0.99 7.257 0.126 -81.948
2770.458 0.123 -82.128 0.991 7.054 0.991 7.054 0.123 -82.128
2795.417 0.119 -82.305 0.991 6.853 0.991 6.853 0.119 -82.305
2820.375 0.116 -82.478 0.992 6.654 0.992 6.654 0.116 -82.478
2845.333 0.112 -82.648 0.992 6.457 0.992 6.457 0.112 -82.648
2870.292 0.109 -82.815 0.992 6.262 0.992 6.262 0.109 -82.815
2895.25 0.106 -82.978 0.993 6.07 0.993 6.07 0.106 -82.978
2920.208 0.102 -83.138 0.993 5.879 0.993 5.879 0.102 -83.138
2945.167 0.099 -83.294 0.993 5.69 0.993 5.69 0.099 -83.294
2970.125 0.096 -83.446 0.994 5.503 0.994 5.503 0.096 -83.446
2995.083 0.093 -83.594 0.994 5.318 0.994 5.318 0.093 -83.594
3020.042 0.09 -83.739 0.994 5.135 0.994 5.135 0.09 -83.739
3045 0.086 -83.879 0.995 4.953 0.995 4.953 0.086 -83.879
3069.958 0.083 -84.014 0.995 4.773 0.995 4.773 0.083 -84.014
3094.917 0.08 -84.145 0.995 4.595 0.995 4.595 0.08 -84.145
3119.875 0.077 -84.271 0.995 4.419 0.995 4.419 0.077 -84.271
3144.833 0.074 -84.392 0.995 4.244 0.995 4.244 0.074 -84.392
3169.792 0.071 -84.507 0.996 4.07 0.996 4.07 0.071 -84.507
3194.75 0.068 -84.616 0.996 3.898 0.996 3.898 0.068 -84.616
3219.708 0.065 -84.718 0.996 3.728 0.996 3.728 0.065 -84.718
3244.667 0.062 -84.813 0.996 3.559 0.996 3.559 0.062 -84.813
3269.625 0.059 -84.9 0.996 3.392 0.996 3.392 0.059 -84.9
3294.583 0.056 -84.978 0.997 3.226 0.997 3.226 0.056 -84.978
3319.542 0.053 -85.046 0.997 3.061 0.997 3.061 0.053 -85.046
3344.5 0.051 -85.103 0.997 2.898 0.997 2.898 0.051 -85.103
3369.458 0.048 -85.146 0.997 2.736 0.997 2.736 0.048 -85.146
3394.417 0.045 -85.175 0.997 2.576 0.997 2.576 0.045 -85.175
3419.375 0.042 -85.186 0.997 2.416 0.997 2.416 0.042 -85.186
3444.333 0.039 -85.176 0.997 2.258 0.997 2.258 0.039 -85.176
3469.292 0.037 -85.141 0.998 2.101 0.998 2.101 0.037 -85.141
3494.25 0.034 -85.076 0.998 1.946 0.998 1.946 0.034 -85.076
3519.208 0.031 -84.974 0.998 1.791 0.998 1.791 0.031 -84.974
3544.167 0.029 -84.825 0.998 1.638 0.998 1.638 0.029 -84.825
3569.125 0.026 -84.616 0.998 1.486 0.998 1.486 0.026 -84.616
3594.083 0.023 -84.327 0.998 1.334 0.998 1.334 0.023 -84.327
3619.042 0.021 -83.93 0.998 1.184 0.998 1.184 0.021 -83.93
3644 0.018 -83.38 0.998 1.036 0.998 1.036 0.018 -83.38
3668.958 0.016 -82.605 0.998 0.888 0.998 0.888 0.016 -82.605
3693.917 0.013 -81.476 0.998 0.741 0.998 0.741 0.013 -81.476
3718.875 0.011 -79.747 0.998 0.595 0.998 0.595 0.011 -79.747
3743.833 8.052e-3 -76.872 0.998 0.45 0.998 0.45 8.052e-3 -76.872
3768.792 5.63e-3 -71.399 0.998 0.306 0.998 0.306 5.63e-3 -71.399
3793.75 3.354e-3 -58.044 0.998 0.163 0.998 0.163 3.354e-3 -58.044
3818.708 1.806e-3 -11.909 0.998 0.021 0.998 0.021 1.806e-3 -11.909
3843.667 2.736e-3 49.638 0.998 -0.12 0.998 -0.12 2.736e-3 49.638
3868.625 4.866e-3 68.444 0.998 -0.26 0.998 -0.26 4.866e-3 68.444
3893.583 7.184e-3 75.361 0.998 -0.399 0.998 -0.399 7.184e-3 75.361
3918.542 9.543e-3 78.791 0.998 -0.537 0.998 -0.537 9.543e-3 78.791
3943.5 0.012 80.792 0.998 -0.675 0.998 -0.675 0.012 80.792
3968.458 0.014 82.076 0.998 -0.811 0.998 -0.811 0.014 82.076
3993.417 0.017 82.952 0.998 -0.947 0.998 -0.947 0.017 82.952
4018.375 0.019 83.573 0.998 -1.082 0.998 -1.082 0.019 83.573
4043.333 0.021 84.026 0.998 -1.216 0.998 -1.216 0.021 84.026
4068.292 0.024 84.361 0.998 -1.35 0.998 -1.35 0.024 84.361
4093.25 0.026 84.611 0.998 -1.482 0.998 -1.482 0.026 84.611
4118.208 0.028 84.797 0.998 -1.614 0.998 -1.614 0.028 84.797
4143.167 0.031 84.935 0.998 -1.745 0.998 -1.745 0.031 84.935
4168.125 0.033 85.035 0.998 -1.876 0.998 -1.876 0.033 85.035
4193.083 0.035 85.105 0.998 -2.005 0.998 -2.005 0.035 85.105
4218.042 0.037 85.151 0.998 -2.134 0.998 -2.134 0.037 85.151
4243 0.04 85.176 0.997 -2.262 0.997 -2.262 0.04 85.176
4267.958 0.042 85.185 0.997 -2.39 0.997 -2.39 0.042 85.185
4292.917 0.044 85.181 0.997 -2.517 0.997 -2.517 0.044 85.181
4317.875 0.046 85.165 0.997 -2.643 0.997 -2.643 0.046 85.165
4342.833 0.048 85.139 0.997 -2.768 0.997 -2.768 0.048 85.139
4367.792 0.051 85.104 0.997 -2.893 0.997 -2.893 0.051 85.104
4392.75 0.053 85.062 0.997 -3.017 0.997 -3.017 0.053 85.062
4417.708 0.055 85.015 0.997 -3.141 0.997 -3.141 0.055 85.015
4442.667 0.057 84.961 0.997 -3.264 0.997 -3.264 0.057 84.961
4467.625 0.059 84.903 0.996 -3.386 0.996 -3.386 0.059 84.903
4492.583 0.061 84.841 0.996 -3.508 0.996 -3.508 0.061 84.841
4517.542 0.063 84.775 0.996 -3.629 0.996 -3.629 0.063 84.775
4542.5 0.065 84.706 0.996 -3.749 0.996 -3.749 0.065 84.706
4567.458 0.068 84.634 0.996 -3.869 0.996 -3.869 0.068 84.634
4592.417 0.07 84.56 0.996 -3.989 0.996 -3.989 0.07 84.56
4617.375 0.072 84.483 0.996 -4.107 0.996 -4.107 0.072 84.483
4642.333 0.074 84.404 0.996 -4.226 0.996 -4.226 0.074 84.404
4667.292 0.076 84.324 0.995 -4.343 0.995 -4.343 0.076 84.324
4692.25 0.078 84.242 0.995 -4.46 0.995 -4.46 0.078 84.242
4717.208 0.08 84.158 0.995 -4.577 0.995 -4.577 0.08 84.158
4742.167 0.082 84.074 0.995 -4.693 0.995 -4.693 0.082 84.074
4767.125 0.084 83.988 0.995 -4.809 0.995 -4.809 0.084 83.988
4792.083 0.086 83.901 0.995 -4.924 0.995 -4.924 0.086 83.901
4817.042 0.088 83.813 0.994 -5.038 0.994 -5.038 0.088 83.813
4842 0.09 83.725 0.994 -5.152 0.994 -5.152 0.09 83.725
4866.958 0.092 83.636 0.994 -5.266 0.994 -5.266 0.092 83.636
4891.917 0.094 83.546 0.994 -5.379 0.994 -5.379 0.094 83.546
4916.875 0.096 83.455 0.994 -5.491 0.994 -5.491 0.096 83.455
4941.833 0.098 83.364 0.993 -5.604 0.993 -5.604 0.098 83.364
4966.792 0.1 83.273 0.993 -5.715 0.993 -5.715 0.1 83.273
4991.75 0.102 83.181 0.993 -5.826 0.993 -5.826 0.102 83.181
5016.708 0.103 83.089 0.993 -5.937 0.993 -5.937 0.103 83.089
5041.667 0.105 82.997 0.993 -6.047 0.993 -6.047 0.105 82.997
5066.625 0.107 82.904 0.992 -6.157 0.992 -6.157 0.107 82.904
5091.583 0.109 82.811 0.992 -6.267 0.992 -6.267 0.109 82.811
5116.542 0.111 82.718 0.992 -6.376 0.992 -6.376 0.111 82.718
5141.5 0.113 82.625 0.992 -6.484 0.992 -6.484 0.113 82.625
5166.458 0.115 82.531 0.992 -6.592 0.992 -6.592 0.115 82.531
5191.417 0.117 82.438 0.991 -6.7 0.991 -6.7 0.117 82.438
5216.375 0.119 82.344 0.991 -6.807 0.991 -6.807 0.119 82.344
5241.333 0.12 82.251 0.991 -6.914 0.991 -6.914 0.12 82.251
5266.292 0.122 82.157 0.991 -7.021 0.991 -7.021 0.122 82.157
5291.25 0.124 82.063 0.991 -7.127 0.991 -7.127 0.124 82.063
5316.208 0.126 81.97 0.99 -7.233 0.99 -7.233 0.126 81.97
5341.167 0.128 81.876 0.99 -7.338 0.99 -7.338 0.128 81.876
5366.125 0.13 81.782 0.99 -7.443 0.99 -7.443 0.13 81.782
5391.083 0.131 81.688 0.99 -7.547 0.99 -7.547 0.131 81.688
5416.042 0.133 81.595 0.989 -7.652 0.989 -7.652 0.133 81.595
5441 0.135 81.501 0.989 -7.755 0.989 -7.755 0.135 81.501
5465.958 0.137 81.408 0.989 -7.859 0.989 -7.859 0.137 81.408
5490.917 0.139 81.314 0.989 -7.962 0.989 -7.962 0.139 81.314
5515.875 0.14 81.221 0.988 -8.065 0.988 -8.065 0.14 81.221
5540.833 0.142 81.127 0.988 -8.167 0.988 -8.167 0.142 81.127
5565.792 0.144 81.034 0.988 -8.269 0.988 -8.269 0.144 81.034
5590.75 0.146 80.941 0.988 -8.371 0.988 -8.371 0.146 80.941
5615.708 0.147 80.848 0.987 -8.472 0.987 -8.472 0.147 80.848
5640.667 0.149 80.755 0.987 -8.573 0.987 -8.573 0.149 80.755
5665.625 0.151 80.662 0.987 -8.674 0.987 -8.674 0.151 80.662
5690.583 0.153 80.57 0.987 -8.774 0.987 -8.774 0.153 80.57
5715.542 0.154 80.477 0.986 -8.874 0.986 -8.874 0.154 80.477
5740.5 0.156 80.385 0.986 -8.974 0.986 -8.974 0.156 80.385
5765.458 0.158 80.293 0.986 -9.073 0.986 -9.073 0.158 80.293
5790.417 0.159 80.201 0.985 -9.172 0.985 -9.172 0.159 80.201
5815.375 0.161 80.109 0.985 -9.271 0.985 -9.271 0.161 80.109
5840.333 0.163 80.017 0.985 -9.37 0.985 -9.37 0.163 80.017
5865.292 0.165 79.925 0.985 -9.468 0.985 -9.468 0.165 79.925
5890.25 0.166 79.834 0.984 -9.566 0.984 -9.566 0.166 79.834
5915.208 0.168 79.742 0.984 -9.663 0.984 -9.663 0.168 79.742
5940.167 0.17 79.651 0.984 -9.76 0.984 -9.76 0.17 79.651
5965.125 0.171 79.56 0.983 -9.857 0.983 -9.857 0.171 79.56
5990.083 0.173 79.469 0.983 -9.954 0.983 -9.954 0.173 79.469
6015.042 0.175 79.379 0.983 -10.05 0.983 -10.05 0.175 79.379
6040 0.176 79.288 0.983 -10.146 0.983 -10.146 0.176 79.288
6064.958 0.178 79.198 0.982 -10.242 0.982 -10.242 0.178 79.198
6089.917 0.179 79.107 0.982 -10.337 0.982 -10.337 0.179 79.107
6114.875 0.181 79.017 0.982 -10.433 0.982 -10.433 0.181 79.017
6139.833 0.183 78.928 0.981 -10.528 0.981 -10.528 0.183 78.928
6164.792 0.184 78.838 0.981 -10.622 0.981 -10.622 0.184 78.838
6189.75 0.186 78.748 0.981 -10.717 0.981 -10.717 0.186 78.748
6214.708 0.188 78.659 0.981 -10.811 0.981 -10.811 0.188 78.659
6239.667 0.189 78.57 0.98 -10.905 0.98 -10.905 0.189 78.57
6264.625 0.191 78.481 0.98 -10.998 0.98 -10.998 0.191 78.481
6289.583 0.192 78.392 0.98 -11.092 0.98 -11.092 0.192 78.392
6314.542 0.194 78.303 0.979 -11.185 0.979 -11.185 0.194 78.303
6339.5 0.196 78.215 0.979 -11.277 0.979 -11.277 0.196 78.215
6364.458 0.197 78.126 0.979 -11.37 0.979 -11.37 0.197 78.126
6389.417 0.199 78.038 0.978 -11.462 0.978 -11.462 0.199 78.038
6414.375 0.2 77.95 0.978 -11.554 0.978 -11.554 0.2 77.95
6439.333 0.202 77.863 0.978 -11.646 0.978 -11.646 0.202 77.863
6464.292 0.203 77.775 0.977 -11.738 0.977 -11.738 0.203 77.775
6489.25 0.205 77.687 0.977 -11.829 0.977 -11.829 0.205 77.687
6514.208 0.207 77.6 0.977 -11.92 0.977 -11.92 0.207 77.6
6539.167 0.208 77.513 0.976 -12.011 0.976 -12.011 0.208 77.513
6564.125 0.21 77.426 0.976 -12.102 0.976 -12.102 0.21 77.426
6589.083 0.211 77.339 0.976 -12.192 0.976 -12.192 0.211 77.339
6614.042 0.213 77.253 0.975 -12.282 0.975 -12.282 0.213 77.253
6639 0.214 77.166 0.975 -12.372 0.975 -12.372 0.214 77.166
6663.958 0.216 77.08 0.975 -12.462 0.975 -12.462 0.216 77.08
6688.917 0.217 76.994 0.974 -12.551 0.974 -12.551 0.217 76.994
6713.875 0.219 76.908 0.974 -12.64 0.974 -12.64 0.219 76.908
6738.833 0.22 76.822 0.974 -12.729 0.974 -12.729 0.22 76.822
6763.792 0.222 76.737 0.973 -12.818 0.973 -12.818 0.222 76.737
6788.75 0.223 76.651 0.973 -12.907 0.973 -12.907 0.223 76.651
6813.708 0.225 76.566 0.973 -12.995 0.973 -12.995 0.225 76.566
6838.667 0.226 76.481 0.972 -13.083 0.972 -13.083 0.226 76.481
6863.625 0.228 76.396 0.972 -13.171 0.972 -13.171 0.228 76.396
6888.583 0.229 76.312 0.972 -13.259 0.972 -13.259 0.229 76.312
6913.542 0.231 76.227 0.971 -13.346 0.971 -13.346 0.231 76.227
6938.5 0.232 76.143 0.971 -13.433 0.971 -13.433 0.232 76.143
6963.458 0.234 76.058 0.971 -13.52 0.971 -13.52 0.234 76.058
6988.417 0.235 75.974 0.97 -13.607 0.97 -13.607 0.235 75.974
7013.375 0.237 75.891 0.97 -13.694 0.97 -13.694 0.237 75.891
7038.333 0.238 75.807 0.969 -13.78 0.969 -13.78 0.238 75.807
7063.292 0.24 75.723 0.969 -13.867 0.969 -13.867 0.24 75.723
7088.25 0.241 75.64 0.969 -13.953 0.969 -13.953 0.241 75.64
7113.208 0.243 75.557 0.968 -14.038 0.968 -14.038 0.243 75.557
7138.167 0.244 75.474 0.968 -14.124 0.968 -14.124 0.244 75.474
7163.125 0.245 75.391 0.968 -14.209 0.968 -14.209 0.245 75.391
7188.083 0.247 75.308 0.967 -14.295 0.967 -14.295 0.247 75.308
7213.042 0.248 75.225 0.967 -14.38 0.967 -14.38 0.248 75.225
7238 0.25 75.143 0.967 -14.465 0.967 -14.465 0.25 75.143
7262.958 0.251 75.061 0.966 -14.549 0.966 -14.549 0.251 75.061
7287.917 0.253 74.978 0.966 -14.634 0.966 -14.634 0.253 74.978
7312.875 0.254 74.897 0.965 -14.718 0.965 -14.718 0.254 74.897
7337.833 0.255 74.815 0.965 -14.802 0.965 -14.802 0.255 74.815
7362.792 0.257 74.733 0.965 -14.886 0.965 -14.886 0.257 74.733
7387.75 0.258 74.652 0.964 -14.97 0.964 -14.97 0.258 74.652
7412.708 0.26 74.57 0.964 -15.053 0.964 -15.053 0.26 74.57
7437.667 0.261 74.489 0.964 -15.137 0.964 -15.137 0.261 74.489
7462.625 0.263 74.408 0.963 -15.22 0.963 -15.22 0.263 74.408
7487.583 0.264 74.327 0.963 -15.303 0.963 -15.303 0.264 74.327
7512.542 0.265 74.247 0.962 -15.385 0.962 -15.385 0.265 74.247
7537.5 0.267 74.166 0.962 -15.468 0.962 -15.468 0.267 74.166
7562.458 0.268 74.086 0.962 -15.551 0.962 -15.551 0.268 74.086
7587.417 0.269 74.005 0.961 -15.633 0.961 -15.633 0.269 74.005
7612.375 0.271 73.925 0.961 -15.715 0.961 -15.715 0.271 73.925
7637.333 0.272 73.845 0.961 -15.797 0.961 -15.797 0.272 73.845
7662.292 0.274 73.765 0.96 -15.879 0.96 -15.879 0.274 73.765
7687.25 0.275 73.686 0.96 -15.96 0.96 -15.96 0.275 73.686
7712.208 0.276 73.606 0.959 -16.042 0.959 -16.042 0.276 73.606
7737.167 0.278 73.527 0.959 -16.123 0.959 -16.123 0.278 73.527
7762.125 0.279 73.448 0.959 -16.204 0.959 -16.204 0.279 73.448
7787.083 0.28 73.369 0.958 -16.285 0.958 -16.285 0.28 73.369
7812.042 0.282 73.29 0.958 -16.365 0.958 -16.365 0.282 73.29
7837 0.283 73.211 0.957 -16.446 0.957 -16.446 0.283 73.211
7861.958 0.284 73.132 0.957 -16.526 0.957 -16.526 0.284 73.132
7886.917 0.286 73.054 0.957 -16.607 0.957 -16.607 0.286 73.054
7911.875 0.287 72.975 0.956 -16.687 0.956 -16.687 0.287 72.975
7936.833 0.288 72.897 0.956 -16.767 0.956 -16.767 0.288 72.897
7961.792 0.29 72.819 0.955 -16.846 0.955 -16.846 0.29 72.819
7986.75 0.291 72.741 0.955 -16.926 0.955 -16.926 0.291 72.741
8011.708 0.292 72.664 0.955 -17.005 0.955 -17.005 0.292 72.664
8036.667 0.294 72.586 0.954 -17.085 0.954 -17.085 0.294 72.586
8061.625 0.295 72.508 0.954 -17.164 0.954 -17.164 0.295 72.508
8086.583 0.296 72.431 0.953 -17.243 0.953 -17.243 0.296 72.431
8111.542 0.298 72.354 0.953 -17.321 0.953 -17.321 0.298 72.354
8136.5 0.299 72.277 0.953 -17.4 0.953 -17.4 0.299 72.277
8161.458 0.3 72.2 0.952 -17.479 0.952 -17.479 0.3 72.2
8186.417 0.302 72.123 0.952 -17.557 0.952 -17.557 0.302 72.123
8211.375 0.303 72.046 0.951 -17.635 0.951 -17.635 0.303 72.046
8236.333 0.304 71.97 0.951 -17.713 0.951 -17.713 0.304 71.97
8261.292 0.306 71.893 0.95 -17.791 0.95 -17.791 0.306 71.893
8286.25 0.307 71.817 0.95 -17.869 0.95 -17.869 0.307 71.817
8311.208 0.308 71.741 0.95 -17.946 0.95 -17.946 0.308 71.741
8336.167 0.309 71.665 0.949 -18.024 0.949 -18.024 0.309 71.665
8361.125 0.311 71.589 0.949 -18.101 0.949 -18.101 0.311 71.589
8386.083 0.312 71.513 0.948 -18.178 0.948 -18.178 0.312 71.513
8411.042 0.313 71.438 0.948 -18.255 0.948 -18.255 0.313 71.438
8436 0.315 71.362 0.948 -18.332 0.948 -18.332 0.315 71.362
8460.958 0.316 71.287 0.947 -18.409 0.947 -18.409 0.316 71.287
8485.917 0.317 71.212 0.947 -18.485 0.947 -18.485 0.317 71.212
8510.875 0.318 71.137 0.946 -18.562 0.946 -18.562 0.318 71.137
8535.833 0.32 71.062 0.946 -18.638 0.946 -18.638 0.32 71.062
8560.792 0.321 70.987 0.945 -18.714 0.945 -18.714 0.321 70.987
8585.75 0.322 70.912 0.945 -18.79 0.945 -18.79 0.322 70.912
8610.708 0.323 70.838 0.945 -18.866 0.945 -18.866 0.323 70.838
8635.667 0.325 70.763 0.944 -18.941 0.944 -18.941 0.325 70.763
8660.625 0.326 70.689 0.944 -19.017 0.944 -19.017 0.326 70.689
8685.583 0.327 70.615 0.943 -19.092 0.943 -19.092 0.327 70.615
8710.542 0.328 70.541 0.943 -19.168 0.943 -19.168 0.328 70.541
8735.5 0.33 70.467 0.942 -19.243 0.942 -19.243 0.33 70.467
8760.458 0.331 70.393 0.942 -19.318 0.942 -19.318 0.331 70.393
8785.417 0.332 70.32 0.942 -19.393 0.942 -19.393 0.332 70.32
8810.375 0.333 70.246 0.941 -19.467 0.941 -19.467 0.333 70.246
8835.333 0.335 70.173 0.941 -19.542 0.941 -19.542 0.335 70.173
8860.292 0.336 70.099 0.94 -19.616 0.94 -19.616 0.336 70.099
8885.25 0.337 70.026 0.94 -19.691 0.94 -19.691 0.337 70.026
8910.208 0.338 69.953 0.939 -19.765 0.939 -19.765 0.338 69.953
8935.167 0.339 69.88 0.939 -19.839 0.939 -19.839 0.339 69.88
8960.125 0.341 69.808 0.939 -19.913 0.939 -19.913 0.341 69.808
8985.083 0.342 69.735 0.938 -19.987 0.938 -19.987 0.342 69.735
9010.042 0.343 69.662 0.938 -20.06 0.938 -20.06 0.343 69.662
9035 0.344 69.59 0.937 -20.134 0.937 -20.134 0.344 69.59
9059.958 0.345 69.518 0.937 -20.207 0.937 -20.207 0.345 69.518
9084.917 0.347 69.445 0.936 -20.28 0.936 -20.28 0.347 69.445
9109.875 0.348 69.373 0.936 -20.354 0.936 -20.354 0.348 69.373
9134.833 0.349 69.302 0.935 -20.427 0.935 -20.427 0.349 69.302
9159.792 0.35 69.23 0.935 -20.499 0.935 -20.499 0.35 69.23
9184.75 0.351 69.158 0.935 -20.572 0.935 -20.572 0.351 69.158
9209.708 0.353 69.086 0.934 -20.645 0.934 -20.645 0.353 69.086
9234.667 0.354 69.015 0.934 -20.717 0.934 -20.717 0.354 69.015
9259.625 0.355 68.944 0.933 -20.79 0.933 -20.79 0.355 68.944
9284.583 0.356 68.872 0.933 -20.862 0.933 -20.862 0.356 68.872
9309.542 0.357 68.801 0.932 -20.934 0.932 -20.934 0.357 68.801
9334.5 0.358 68.73 0.932 -21.006 0.932 -21.006 0.358 68.73
9359.458 0.36 68.659 0.931 -21.078 0.931 -21.078 0.36 68.659
9384.417 0.361 68.589 0.931 -21.15 0.931 -21.15 0.361 68.589
9409.375 0.362 68.518 0.931 -21.221 0.931 -21.221 0.362 68.518
9434.333 0.363 68.447 0.93 -21.293 0.93 -21.293 0.363 68.447
9459.292 0.364 68.377 0.93 -21.364 0.93 -21.364 0.364 68.377
9484.25 0.365 68.307 0.929 -21.435 0.929 -21.435 0.365 68.307
9509.208 0.367 68.237 0.929 -21.506 0.929 -21.506 0.367 68.237
9534.167 0.368 68.166 0.928 -21.577 0.928 -21.577 0.368 68.166
9559.125 0.369 68.097 0.928 -21.648 0.928 -21.648 0.369 68.097
9584.083 0.37 68.027 0.927 -21.719 0.927 -21.719 0.37 68.027
9609.042 0.371 67.957 0.927 -21.79 0.927 -21.79 0.371 67.957
9634 0.372 67.887 0.926 -21.86 0.926 -21.86 0.372 67.887
9658.958 0.373 67.818 0.926 -21.931 0.926 -21.931 0.373 67.818
9683.917 0.375 67.748 0.926 -22.001 0.926 -22.001 0.375 67.748
9708.875 0.376 67.679 0.925 -22.071 0.925 -22.071 0.376 67.679
9733.833 0.377 67.61 0.925 -22.141 0.925 -22.141 0.377 67.61
9758.792 0.378 67.541 0.924 -22.211 0.924 -22.211 0.378 67.541
9783.75 0.379 67.472 0.924 -22.281 0.924 -22.281 0.379 67.472
9808.708 0.38 67.403 0.923 -22.351 0.923 -22.351 0.38 67.403
9833.667 0.381 67.334 0.923 -22.42 0.923 -22.42 0.381 67.334
9858.625 0.383 67.266 0.922 -22.49 0.922 -22.49 0.383 67.266
9883.583 0.384 67.197 0.922 -22.559 0.922 -22.559 0.384 67.197
9908.542 0.385 67.129 0.921 -22.628 0.921 -22.628 0.385 67.129
9933.5 0.386 67.061 0.921 -22.697 0.921 -22.697 0.386 67.061
9958.458 0.387 66.992 0.92 -22.766 0.92 -22.766 0.387 66.992
9983.417 0.388 66.924 0.92 -22.835 0.92 -22.835 0.388 66.924
10008.375 0.389 66.856 0.92 -22.904 0.92 -22.904 0.389 66.856
10033.333 0.39 66.788 0.919 -22.973 0.919 -22.973 0.39 66.788
10058.292 0.391 66.721 0.919 -23.041 0.919 -23.041 0.391 66.721
10083.25 0.392 66.653 0.918 -23.11 0.918 -23.11 0.392 66.653
10108.208 0.394 66.585 0.918 -23.178 0.918 -23.178 0.394 66.585
10133.167 0.395 66.518 0.917 -23.246 0.917 -23.246 0.395 66.518
10158.125 0.396 66.451 0.917 -23.314 0.917 -23.314 0.396 66.451
10183.083 0.397 66.383 0.916 -23.382 0.916 -23.382 0.397 66.383
10208.042 0.398 66.316 0.916 -23.45 0.916 -23.45 0.398 66.316
10233 0.399 66.249 0.915 -23.518 0.915 -23.518 0.399 66.249
10257.958 0.4 66.182 0.915 -23.586 0.915 -23.586 0.4 66.182
10282.917 0.401 66.116 0.914 -23.653 0.914 -23.653 0.401 66.116
10307.875 0.402 66.049 0.914 -23.721 0.914 -23.721 0.402 66.049
10332.833 0.403 65.982 0.913 -23.788 0.913 -23.788 0.403 65.982
10357.792 0.404 65.916 0.913 -23.855 0.913 -23.855 0.404 65.916
10382.75 0.405 65.849 0.912 -23.922 0.912 -23.922 0.405 65.849
10407.708 0.407 65.783 0.912 -23.989 0.912 -23.989 0.407 65.783
10432.667 0.408 65.717 0.912 -24.056 0.912 -24.056 0.408 65.717
10457.625 0.409 65.651 0.911 -24.123 0.911 -24.123 0.409 65.651
10482.583 0.41 65.585 0.911 -24.19 0.911 -24.19 0.41 65.585
10507.542 0.411 65.519 0.91 -24.256 0.91 -24.256 0.411 65.519
10532.5 0.412 65.453 0.91 -24.323 0.91 -24.323 0.412 65.453
10557.458 0.413 65.388 0.909 -24.389 0.909 -24.389 0.413 65.388
10582.417 0.414 65.322 0.909 -24.455 0.909 -24.455 0.414 65.322
10607.375 0.415 65.257 0.908 -24.521 0.908 -24.521 0.415 65.257
10632.333 0.416 65.191 0.908 -24.588 0.908 -24.588 0.416 65.191
10657.292 0.417 65.126 0.907 -24.653 0.907 -24.653 0.417 65.126
10682.25 0.418 65.061 0.907 -24.719 0.907 -24.719 0.418 65.061
10707.208 0.419 64.996 0.906 -24.785 0.906 -24.785 0.419 64.996
10732.167 0.42 64.931 0.906 -24.851 0.906 -24.851 0.42 64.931
10757.125 0.421 64.866 0.905 -24.916 0.905 -24.916 0.421 64.866
10782.083 0.422 64.801 0.905 -24.982 0.905 -24.982 0.422 64.801
10807.042 0.423 64.736 0.904 -25.047 0.904 -25.047 0.423 64.736
10832 0.424 64.672 0.904 -25.112 0.904 -25.112 0.424 64.672
10856.958 0.425 64.607 0.903 -25.177 0.903 -25.177 0.425 64.607
10881.917 0.426 64.543 0.903 -25.242 0.903 -25.242 0.426 64.543
10906.875 0.427 64.479 0.902 -25.307 0.902 -25.307 0.427 64.479
10931.833 0.428 64.415 0.902 -25.372 0.902 -25.372 0.428 64.415
10956.792 0.43 64.35 0.901 -25.437 0.901 -25.437 0.43 64.35
10981.75 0.431 64.286 0.901 -25.501 0.901 -25.501 0.431 64.286
11006.708 0.432 64.223 0.9 -25.566 0.9 -25.566 0.432 64.223
11031.667 0.433 64.159 0.9 -25.63 0.9 -25.63 0.433 64.159
11056.625 0.434 64.095 0.9 -25.694 0.9 -25.694 0.434 64.095
11081.583 0.435 64.031 0.899 -25.759 0.899 -25.759 0.435 64.031
11106.542 0.436 63.968 0.899 -25.823 0.899 -25.823 0.436 63.968
11131.5 0.437 63.905 0.898 -25.887 0.898 -25.887 0.437 63.905
11156.458 0.438 63.841 0.898 -25.951 0.898 -25.951 0.438 63.841
11181.417 0.439 63.778 0.897 -26.014 0.897 -26.014 0.439 63.778
11206.375 0.44 63.715 0.897 -26.078 0.897 -26.078 0.44 63.715
11231.333 0.441 63.652 0.896 -26.142 0.896 -26.142 0.441 63.652
11256.292 0.442 63.589 0.896 -26.205 0.896 -26.205 0.442 63.589
11281.25 0.443 63.526 0.895 -26.269 0.895 -26.269 0.443 63.526
11306.208 0.444 63.463 0.895 -26.332 0.895 -26.332 0.444 63.463
11331.167 0.445 63.401 0.894 -26.395 0.894 -26.395 0.445 63.401
11356.125 0.446 63.338 0.894 -26.458 0.894 -26.458 0.446 63.338
11381.083 0.447 63.276 0.893 -26.521 0.893 -26.521 0.447 63.276
11406.042 0.448 63.213 0.893 -26.584 0.893 -26.584 0.448 63.213
11431 0.448 63.151 0.892 -26.647 0.892 -26.647 0.448 63.151
11455.958 0.449 63.089 0.892 -26.71 0.892 -26.71 0.449 63.089
11480.917 0.45 63.027 0.891 -26.772 0.891 -26.772 0.45 63.027
11505.875 0.451 62.965 0.891 -26.835 0.891 -26.835 0.451 62.965
11530.833 0.452 62.903 0.89 -26.897 0.89 -26.897 0.452 62.903
11555.792 0.453 62.841 0.89 -26.96 0.89 -26.96 0.453 62.841
11580.75 0.454 62.779 0.889 -27.022 0.889 -27.022 0.454 62.779
11605.708 0.455 62.718 0.889 -27.084 0.889 -27.084 0.455 62.718
11630.667 0.456 62.656 0.888 -27.146 0.888 -27.146 0.456 62.656
11655.625 0.457 62.595 0.888 -27.208 0.888 -27.208 0.457 62.595
11680.583 0.458 62.534 0.887 -27.27 0.887 -27.27 0.458 62.534
11705.542 0.459 62.472 0.887 -27.332 0.887 -27.332 0.459 62.472
11730.5 0.46 62.411 0.886 -27.393 0.886 -27.393 0.46 62.411
11755.458 0.461 62.35 0.886 -27.455 0.886 -27.455 0.461 62.35
11780.417 0.462 62.289 0.885 -27.517 0.885 -27.517 0.462 62.289
11805.375 0.463 62.228 0.885 -27.578 0.885 -27.578 0.463 62.228
11830.333 0.464 62.167 0.884 -27.639 0.884 -27.639 0.464 62.167
11855.292 0.465 62.107 0.884 -27.7 0.884 -27.7 0.465 62.107
11880.25 0.466 62.046 0.883 -27.762 0.883 -27.762 0.466 62.046
11905.208 0.467 61.986 0.883 -27.823 0.883 -27.823 0.467 61.986
11930.167 0.468 61.925 0.882 -27.884 0.882 -27.884 0.468 61.925
11955.125 0.469 61.865 0.882 -27.944 0.882 -27.944 0.469 61.865
11980.083 0.47 61.804 0.881 -28.005 0.881 -28.005 0.47 61.804
12005.042 0.47 61.744 0.881 -28.066 0.881 -28.066 0.47 61.744
12030 0.471 61.684 0.88 -28.126 0.88 -28.126 0.471 61.684
12054.958 0.472 61.624 0.88 -28.187 0.88 -28.187 0.472 61.624
12079.917 0.473 61.564 0.879 -28.247 0.879 -28.247 0.473 61.564
12104.875 0.474 61.504 0.879 -28.307 0.879 -28.307 0.474 61.504
12129.833 0.475 61.445 0.878 -28.368 0.878 -28.368 0.475 61.445
12154.792 0.476 61.385 0.878 -28.428 0.878 -28.428 0.476 61.385
12179.75 0.477 61.326 0.877 -28.488 0.877 -28.488 0.477 61.326
12204.708 0.478 61.266 0.877 -28.548 0.877 -28.548 0.478 61.266
12229.667 0.479 61.207 0.876 -28.608 0.876 -28.608 0.479 61.207
12254.625 0.48 61.147 0.876 -28.667 0.876 -28.667 0.48 61.147
12279.583 0.481 61.088 0.875 -28.727 0.875 -28.727 0.481 61.088
12304.542 0.482 61.029 0.875 -28.787 0.875 -28.787 0.482 61.029
12329.5 0.482 60.97 0.874 -28.846 0.874 -28.846 0.482 60.97
12354.458 0.483 60.911 0.874 -28.905 0.874 -28.905 0.483 60.911
12379.417 0.484 60.852 0.873 -28.965 0.873 -28.965 0.484 60.852
12404.375 0.485 60.794 0.873 -29.024 0.873 -29.024 0.485 60.794
12429.333 0.486 60.735 0.872 -29.083 0.872 -29.083 0.486 60.735
12454.292 0.487 60.676 0.872 -29.142 0.872 -29.142 0.487 60.676
12479.25 0.488 60.618 0.871 -29.201 0.871 -29.201 0.488 60.618
12504.208 0.489 60.559 0.871 -29.26 0.871 -29.26 0.489 60.559
12529.167 0.49 60.501 0.87 -29.319 0.87 -29.319 0.49 60.501
12554.125 0.491 60.443 0.87 -29.377 0.87 -29.377 0.491 60.443
12579.083 0.491 60.385 0.869 -29.436 0.869 -29.436 0.491 60.385
12604.042 0.492 60.326 0.869 -29.495 0.869 -29.495 0.492 60.326
12629 0.493 60.268 0.868 -29.553 0.868 -29.553 0.493 60.268
12653.958 0.494 60.211 0.868 -29.611 0.868 -29.611 0.494 60.211
12678.917 0.495 60.153 0.867 -29.67 0.867 -29.67 0.495 60.153
12703.875 0.496 60.095 0.867 -29.728 0.867 -29.728 0.496 60.095
12728.833 0.497 60.037 0.866 -29.786 0.866 -29.786 0.497 60.037
12753.792 0.498 59.98 0.866 -29.844 0.866 -29.844 0.498 59.98
12778.75 0.499 59.922 0.865 -29.902 0.865 -29.902 0.499 59.922
12803.708 0.499 59.865 0.865 -29.96 0.865 -29.96 0.499 59.865
12828.667 0.5 59.807 0.864 -30.017 0.864 -30.017 0.5 59.807
12853.625 0.501 59.75 0.864 -30.075 0.864 -30.075 0.501 59.75
12878.583 0.502 59.693 0.863 -30.132 0.863 -30.132 0.502 59.693
12903.542 0.503 59.636 0.863 -30.19 0.863 -30.19 0.503 59.636
12928.5 0.504 59.579 0.862 -30.247 0.862 -30.247 0.504 59.579
12953.458 0.505 59.522 0.862 -30.305 0.862 -30.305 0.505 59.522
12978.417 0.505 59.465 0.861 -30.362 0.861 -30.362 0.505 59.465
13003.375 0.506 59.408 0.861 -30.419 0.861 -30.419 0.506 59.408
13028.333 0.507 59.352 0.86 -30.476 0.86 -30.476 0.507 59.352
13053.292 0.508 59.295 0.86 -30.533 0.86 -30.533 0.508 59.295
13078.25 0.509 59.239 0.859 -30.59 0.859 -30.59 0.509 59.239
13103.208 0.51 59.182 0.859 -30.647 0.859 -30.647 0.51 59.182
13128.167 0.511 59.126 0.858 -30.703 0.858 -30.703 0.511 59.126
13153.125 0.511 59.07 0.858 -30.76 0.858 -30.76 0.511 59.07
13178.083 0.512 59.014 0.857 -30.817 0.857 -30.817 0.512 59.014
13203.042 0.513 58.957 0.857 -30.873 0.857 -30.873 0.513 58.957
13228 0.514 58.901 0.856 -30.93 0.856 -30.93 0.514 58.901
13252.958 0.515 58.846 0.856 -30.986 0.856 -30.986 0.515 58.846
13277.917 0.516 58.79 0.855 -31.042 0.855 -31.042 0.516 58.79
13302.875 0.517 58.734 0.855 -31.098 0.855 -31.098 0.517 58.734
13327.833 0.517 58.678 0.854 -31.154 0.854 -31.154 0.517 58.678
13352.792 0.518 58.623 0.854 -31.21 0.854 -31.21 0.518 58.623
13377.75 0.519 58.567 0.853 -31.266 0.853 -31.266 0.519 58.567
13402.708 0.52 58.512 0.853 -31.322 0.853 -31.322 0.52 58.512
13427.667 0.521 58.456 0.852 -31.378 0.852 -31.378 0.521 58.456
13452.625 0.522 58.401 0.852 -31.433 0.852 -31.433 0.522 58.401
13477.583 0.522 58.346 0.851 -31.489 0.851 -31.489 0.522 58.346
13502.542 0.523 58.291 0.851 -31.544 0.851 -31.544 0.523 58.291
13527.5 0.524 58.236 0.85 -31.6 0.85 -31.6 0.524 58.236
13552.458 0.525 58.181 0.85 -31.655 0.85 -31.655 0.525 58.181
13577.417 0.526 58.126 0.849 -31.71 0.849 -31.71 0.526 58.126
13602.375 0.526 58.071 0.849 -31.766 0.849 -31.766 0.526 58.071
13627.333 0.527 58.016 0.848 -31.821 0.848 -31.821 0.527 58.016
13652.292 0.528 57.962 0.848 -31.876 0.848 -31.876 0.528 57.962
13677.25 0.529 57.907 0.847 -31.931 0.847 -31.931 0.529 57.907
13702.208 0.53 57.852 0.847 -31.985 0.847 -31.985 0.53 57.852
13727.167 0.531 57.798 0.846 -32.04 0.846 -32.04 0.531 57.798
13752.125 0.531 57.744 0.846 -32.095 0.846 -32.095 0.531 57.744
13777.083 0.532 57.689 0.845 -32.149 0.845 -32.149 0.532 57.689
13802.042 0.533 57.635 0.845 -32.204 0.845 -32.204 0.533 57.635
13827 0.534 57.581 0.844 -32.258 0.844 -32.258 0.534 57.581
13851.958 0.535 57.527 0.844 -32.313 0.844 -32.313 0.535 57.527
13876.917 0.535 57.473 0.843 -32.367 0.843 -32.367 0.535 57.473
13901.875 0.536 57.419 0.843 -32.421 0.843 -32.421 0.536 57.419
13926.833 0.537 57.366 0.842 -32.475 0.842 -32.475 0.537 57.366
13951.792 0.538 57.312 0.842 -32.529 0.842 -32.529 0.538 57.312
13976.75 0.539 57.258 0.841 -32.583 0.841 -32.583 0.539 57.258
14001.708 0.539 57.205 0.841 -32.637 0.841 -32.637 0.539 57.205
14026.667 0.54 57.151 0.84 -32.691 0.84 -32.691 0.54 57.151
14051.625 0.541 57.098 0.84 -32.745 0.84 -32.745 0.541 57.098
14076.583 0.542 57.044 0.839 -32.799 0.839 -32.799 0.542 57.044
14101.542 0.542 56.991 0.839 -32.852 0.839 -32.852 0.542 56.991
14126.5 0.543 56.938 0.838 -32.906 0.838 -32.906 0.543 56.938
14151.458 0.544 56.885 0.838 -32.959 0.838 -32.959 0.544 56.885
14176.417 0.545 56.832 0.837 -33.012 0.837 -33.012 0.545 56.832
14201.375 0.546 56.779 0.837 -33.066 0.837 -33.066 0.546 56.779
14226.333 0.546 56.726 0.836 -33.119 0.836 -33.119 0.546 56.726
14251.292 0.547 56.673 0.836 -33.172 0.836 -33.172 0.547 56.673
14276.25 0.548 56.62 0.835 -33.225 0.835 -33.225 0.548 56.62
14301.208 0.549 56.568 0.835 -33.278 0.835 -33.278 0.549 56.568
14326.167 0.549 56.515 0.834 -33.331 0.834 -33.331 0.549 56.515
14351.125 0.55 56.463 0.834 -33.384 0.834 -33.384 0.55 56.463
14376.083 0.551 56.41 0.833 -33.436 0.833 -33.436 0.551 56.41
14401.042 0.552 56.358 0.833 -33.489 0.833 -33.489 0.552 56.358
14426 0.553 56.306 0.832 -33.542 0.832 -33.542 0.553 56.306
14450.958 0.553 56.253 0.832 -33.594 0.832 -33.594 0.553 56.253
14475.917 0.554 56.201 0.831 -33.647 0.831 -33.647 0.554 56.201
14500.875 0.555 56.149 0.83 -33.699 0.83 -33.699 0.555 56.149
14525.833 0.556 56.097 0.83 -33.751 0.83 -33.751 0.556 56.097
14550.792 0.556 56.045 0.829 -33.803 0.829 -33.803 0.556 56.045
14575.75 0.557 55.993 0.829 -33.856 0.829 -33.856 0.557 55.993
14600.708 0.558 55.942 0.828 -33.908 0.828 -33.908 0.558 55.942
14625.667 0.559 55.89 0.828 -33.96 0.828 -33.96 0.559 55.89
14650.625 0.559 55.838 0.827 -34.012 0.827 -34.012 0.559 55.838
14675.583 0.56 55.787 0.827 -34.063 0.827 -34.063 0.56 55.787
14700.542 0.561 55.735 0.826 -34.115 0.826 -34.115 0.561 55.735
14725.5 0.562 55.684 0.826 -34.167 0.826 -34.167 0.562 55.684
14750.458 0.562 55.633 0.825 -34.218 0.825 -34.218 0.562 55.633
14775.417 0.563 55.581 0.825 -34.27 0.825 -34.27 0.563 55.581
14800.375 0.564 55.53 0.824 -34.321 0.824 -34.321 0.564 55.53
14825.333 0.565 55.479 0.824 -34.373 0.824 -34.373 0.565 55.479
14850.292 0.565 55.428 0.823 -34.424 0.823 -34.424 0.565 55.428
14875.25 0.566 55.377 0.823 -34.475 0.823 -34.475 0.566 55.377
14900.208 0.567 55.326 0.822 -34.526 0.822 -34.526 0.567 55.326
14925.167 0.568 55.275 0.822 -34.578 0.822 -34.578 0.568 55.275
14950.125 0.568 55.225 0.821 -34.629 0.821 -34.629 0.568 55.225
14975.083 0.569 55.174 0.821 -34.68 0.821 -34.68 0.569 55.174
15000.042 0.57 55.123 0.82 -34.73 0.82 -34.73 0.57 55.123
15025 0.57 55.073 0.82 -34.781 0.82 -34.781 0.57 55.073
15049.958 0.571 55.023 0.819 -34.832 0.819 -34.832 0.571 55.023
15074.917 0.572 54.972 0.819 -34.883 0.819 -34.883 0.572 54.972
15099.875 0.573 54.922 0.818 -34.933 0.818 -34.933 0.573 54.922
15124.833 0.573 54.872 0.818 -34.984 0.818 -34.984 0.573 54.872
15149.792 0.574 54.821 0.817 -35.034 0.817 -35.034 0.574 54.821
15174.75 0.575 54.771 0.817 -35.084 0.817 -35.084 0.575 54.771
15199.708 0.576 54.721 0.816 -35.135 0.816 -35.135 0.576 54.721
15224.667 0.576 54.671 0.816 -35.185 0.816 -35.185 0.576 54.671
15249.625 0.577 54.621 0.815 -35.235 0.815 -35.235 0.577 54.621
15274.583 0.578 54.572 0.815 -35.285 0.815 -35.285 0.578 54.572
15299.542 0.578 54.522 0.814 -35.335 0.814 -35.335 0.578 54.522
15324.5 0.579 54.472 0.814 -35.385 0.814 -35.385 0.579 54.472
15349.458 0.58 54.423 0.813 -35.435 0.813 -35.435 0.58 54.423
15374.417 0.58 54.373 0.813 -35.485 0.813 -35.485 0.58 54.373
15399.375 0.581 54.324 0.812 -35.535 0.812 -35.535 0.581 54.324
15424.333 0.582 54.274 0.812 -35.584 0.812 -35.584 0.582 54.274
15449.292 0.583 54.225 0.811 -35.634 0.811 -35.634 0.583 54.225
15474.25 0.583 54.176 0.811 -35.683 0.811 -35.683 0.583 54.176
15499.208 0.584 54.126 0.81 -35.733 0.81 -35.733 0.584 54.126
15524.167 0.585 54.077 0.81 -35.782 0.81 -35.782 0.585 54.077
15549.125 0.585 54.028 0.809 -35.831 0.809 -35.831 0.585 54.028
15574.083 0.586 53.979 0.809 -35.881 0.809 -35.881 0.586 53.979
15599.042 0.587 53.93 0.808 -35.93 0.808 -35.93 0.587 53.93
15624 0.587 53.882 0.808 -35.979 0.808 -35.979 0.587 53.882
15648.958 0.588 53.833 0.807 -36.028 0.807 -36.028 0.588 53.833
15673.917 0.589 53.784 0.807 -36.077 0.807 -36.077 0.589 53.784
15698.875 0.59 53.736 0.806 -36.126 0.806 -36.126 0.59 53.736
15723.833 0.59 53.687 0.806 -36.175 0.806 -36.175 0.59 53.687
15748.792 0.591 53.638 0.805 -36.223 0.805 -36.223 0.591 53.638
15773.75 0.592 53.59 0.805 -36.272 0.805 -36.272 0.592 53.59
15798.708 0.592 53.542 0.804 -36.321 0.804 -36.321 0.592 53.542
15823.667 0.593 53.493 0.804 -36.369 0.804 -36.369 0.593 53.493
15848.625 0.594 53.445 0.803 -36.418 0.803 -36.418 0.594 53.445
15873.583 0.594 53.397 0.803 -36.466 0.803 -36.466 0.594 53.397
15898.542 0.595 53.349 0.802 -36.514 0.802 -36.514 0.595 53.349
15923.5 0.596 53.301 0.802 -36.563 0.802 -36.563 0.596 53.301
15948.458 0.596 53.253 0.801 -36.611 0.801 -36.611 0.596 53.253
15973.417 0.597 53.205 0.801 -36.659 0.801 -36.659 0.597 53.205
15998.375 0.598 53.157 0.8 -36.707 0.8 -36.707 0.598 53.157
16023.333 0.598 53.11 0.8 -36.755 0.8 -36.755 0.598 53.11
16048.292 0.599 53.062 0.799 -36.803 0.799 -36.803 0.599 53.062
16073.25 0.6 53.014 0.799 -36.851 0.799 -36.851 0.6 53.014
16098.208 0.6 52.967 0.798 -36.898 0.798 -36.898 0.6 52.967
16123.167 0.601 52.919 0.798 -36.946 0.798 -36.946 0.601 52.919
16148.125 0.602 52.872 0.797 -36.994 0.797 -36.994 0.602 52.872
16173.083 0.602 52.824 0.797 -37.041 0.797 -37.041 0.602 52.824
16198.042 0.603 52.777 0.796 -37.089 0.796 -37.089 0.603 52.777
16223 0.604 52.73 0.796 -37.136 0.796 -37.136 0.604 52.73
16247.958 0.604 52.683 0.795 -37.184 0.795 -37.184 0.604 52.683
16272.917 0.605 52.636 0.795 -37.231 0.795 -37.231 0.605 52.636
16297.875 0.606 52.589 0.794 -37.278 0.794 -37.278 0.606 52.589
16322.833 0.606 52.542 0.794 -37.325 0.794 -37.325 0.606 52.542
16347.792 0.607 52.495 0.793 -37.373 0.793 -37.373 0.607 52.495
16372.75 0.608 52.448 0.793 -37.42 0.793 -37.42 0.608 52.448
16397.708 0.608 52.401 0.792 -37.467 0.792 -37.467 0.608 52.401
16422.667 0.609 52.355 0.792 -37.513 0.792 -37.513 0.609 52.355
16447.625 0.61 52.308 0.791 -37.56 0.791 -37.56 0.61 52.308
16472.583 0.61 52.261 0.791 -37.607 0.791 -37.607 0.61 52.261
16497.542 0.611 52.215 0.79 -37.654 0.79 -37.654 0.611 52.215
16522.5 0.612 52.169 0.79 -37.7 0.79 -37.7 0.612 52.169
16547.458 0.612 52.122 0.789 -37.747 0.789 -37.747 0.612 52.122
16572.417 0.613 52.076 0.789 -37.794 0.789 -37.794 0.613 52.076
16597.375 0.613 52.03 0.788 -37.84 0.788 -37.84 0.613 52.03
16622.333 0.614 51.983 0.788 -37.886 0.788 -37.886 0.614 51.983
16647.292 0.615 51.937 0.787 -37.933 0.787 -37.933 0.615 51.937
16672.25 0.615 51.891 0.787 -37.979 0.787 -37.979 0.615 51.891
16697.208 0.616 51.845 0.786 -38.025 0.786 -38.025 0.616 51.845
16722.167 0.617 51.799 0.786 -38.071 0.786 -38.071 0.617 51.799
16747.125 0.617 51.754 0.785 -38.117 0.785 -38.117 0.617 51.754
16772.083 0.618 51.708 0.785 -38.163 0.785 -38.163 0.618 51.708
16797.042 0.619 51.662 0.784 -38.209 0.784 -38.209 0.619 51.662
16822 0.619 51.616 0.784 -38.255 0.784 -38.255 0.619 51.616
16846.958 0.62 51.571 0.783 -38.301 0.783 -38.301 0.62 51.571
16871.917 0.62 51.525 0.783 -38.347 0.783 -38.347 0.62 51.525
16896.875 0.621 51.48 0.782 -38.392 0.782 -38.392 0.621 51.48
16921.833 0.622 51.434 0.782 -38.438 0.782 -38.438 0.622 51.434
16946.792 0.622 51.389 0.781 -38.483 0.781 -38.483 0.622 51.389
16971.75 0.623 51.344 0.781 -38.529 0.781 -38.529 0.623 51.344
16996.708 0.624 51.299 0.78 -38.574 0.78 -38.574 0.624 51.299
17021.667 0.624 51.254 0.78 -38.62 0.78 -38.62 0.624 51.254
17046.625 0.625 51.208 0.779 -38.665 0.779 -38.665 0.625 51.208
17071.583 0.625 51.163 0.779 -38.71 0.779 -38.71 0.625 51.163
17096.542 0.626 51.118 0.778 -38.755 0.778 -38.755 0.626 51.118
17121.5 0.627 51.074 0.778 -38.8 0.778 -38.8 0.627 51.074
17146.458 0.627 51.029 0.777 -38.846 0.777 -38.846 0.627 51.029
17171.417 0.628 50.984 0.777 -38.89 0.777 -38.89 0.628 50.984
17196.375 0.628 50.939 0.776 -38.935 0.776 -38.935 0.628 50.939
17221.333 0.629 50.895 0.776 -38.98 0.776 -38.98 0.629 50.895
17246.292 0.63 50.85 0.775 -39.025 0.775 -39.025 0.63 50.85
17271.25 0.63 50.805 0.775 -39.07 0.775 -39.07 0.63 50.805
17296.208 0.631 50.761 0.775 -39.114 0.775 -39.114 0.631 50.761
17321.167 0.631 50.717 0.774 -39.159 0.774 -39.159 0.631 50.717
17346.125 0.632 50.672 0.774 -39.204 0.774 -39.204 0.632 50.672
17371.083 0.633 50.628 0.773 -39.248 0.773 -39.248 0.633 50.628
17396.042 0.633 50.584 0.773 -39.292 0.773 -39.292 0.633 50.584
17421 0.634 50.54 0.772 -39.337 0.772 -39.337 0.634 50.54
17445.958 0.634 50.496 0.772 -39.381 0.772 -39.381 0.634 50.496
17470.917 0.635 50.452 0.771 -39.425 0.771 -39.425 0.635 50.452
17495.875 0.636 50.408 0.771 -39.469 0.771 -39.469 0.636 50.408
17520.833 0.636 50.364 0.77 -39.514 0.77 -39.514 0.636 50.364
17545.792 0.637 50.32 0.77 -39.558 0.77 -39.558 0.637 50.32
17570.75 0.637 50.276 0.769 -39.602 0.769 -39.602 0.637 50.276
17595.708 0.638 50.232 0.769 -39.645 0.769 -39.645 0.638 50.232
17620.667 0.639 50.189 0.768 -39.689 0.768 -39.689 0.639 50.189
17645.625 0.639 50.145 0.768 -39.733 0.768 -39.733 0.639 50.145
17670.583 0.64 50.102 0.767 -39.777 0.767 -39.777 0.64 50.102
17695.542 0.64 50.058 0.767 -39.82 0.767 -39.82 0.64 50.058
17720.5 0.641 50.015 0.766 -39.864 0.766 -39.864 0.641 50.015
17745.458 0.642 49.971 0.766 -39.908 0.766 -39.908 0.642 49.971
17770.417 0.642 49.928 0.765 -39.951 0.765 -39.951 0.642 49.928
17795.375 0.643 49.885 0.765 -39.995 0.765 -39.995 0.643 49.885
17820.333 0.643 49.842 0.764 -40.038 0.764 -40.038 0.643 49.842
17845.292 0.644 49.798 0.764 -40.081 0.764 -40.081 0.644 49.798
17870.25 0.644 49.755 0.763 -40.124 0.763 -40.124 0.644 49.755
17895.208 0.645 49.712 0.763 -40.168 0.763 -40.168 0.645 49.712
17920.167 0.646 49.669 0.762 -40.211 0.762 -40.211 0.646 49.669
17945.125 0.646 49.627 0.762 -40.254 0.762 -40.254 0.646 49.627
17970.083 0.647 49.584 0.761 -40.297 0.761 -40.297 0.647 49.584
17995.042 0.647 49.541 0.761 -40.34 0.761 -40.34 0.647 49.541
18020 0.648 49.498 0.76 -40.383 0.76 -40.383 0.648 49.498
18044.958 0.648 49.456 0.76 -40.425 0.76 -40.425 0.648 49.456
18069.917 0.649 49.413 0.759 -40.468 0.759 -40.468 0.649 49.413
18094.875 0.65 49.37 0.759 -40.511 0.759 -40.511 0.65 49.37
18119.833 0.65 49.328 0.758 -40.554 0.758 -40.554 0.65 49.328
18144.792 0.651 49.286 0.758 -40.596 0.758 -40.596 0.651 49.286
18169.75 0.651 49.243 0.757 -40.639 0.757 -40.639 0.651 49.243
18194.708 0.652 49.201 0.757 -40.681 0.757 -40.681 0.652 49.201
18219.667 0.652 49.159 0.757 -40.724 0.757 -40.724 0.652 49.159
18244.625 0.653 49.117 0.756 -40.766 0.756 -40.766 0.653 49.117
18269.583 0.654 49.074 0.756 -40.808 0.756 -40.808 0.654 49.074
18294.542 0.654 49.032 0.755 -40.85 0.755 -40.85 0.654 49.032
18319.5 0.655 48.99 0.755 -40.893 0.755 -40.893 0.655 48.99
18344.458 0.655 48.948 0.754 -40.935 0.754 -40.935 0.655 48.948
18369.417 0.656 48.907 0.754 -40.977 0.754 -40.977 0.656 48.907
18394.375 0.656 48.865 0.753 -41.019 0.753 -41.019 0.656 48.865
18419.333 0.657 48.823 0.753 -41.061 0.753 -41.061 0.657 48.823
18444.292 0.657 48.781 0.752 -41.103 0.752 -41.103 0.657 48.781
18469.25 0.658 48.74 0.752 -41.144 0.752 -41.144 0.658 48.74
18494.208 0.659 48.698 0.751 -41.186 0.751 -41.186 0.659 48.698
18519.167 0.659 48.656 0.751 -41.228 0.751 -41.228 0.659 48.656
18544.125 0.66 48.615 0.75 -41.27 0.75 -41.27 0.66 48.615
18569.083 0.66 48.574 0.75 -41.311 0.75 -41.311 0.66 48.574
18594.042 0.661 48.532 0.749 -41.353 0.749 -41.353 0.661 48.532
18619 0.661 48.491 0.749 -41.394 0.749 -41.394 0.661 48.491
18643.958 0.662 48.45 0.748 -41.436 0.748 -41.436 0.662 48.45
18668.917 0.662 48.408 0.748 -41.477 0.748 -41.477 0.662 48.408
18693.875 0.663 48.367 0.747 -41.518 0.747 -41.518 0.663 48.367
18718.833 0.663 48.326 0.747 -41.56 0.747 -41.56 0.663 48.326
18743.792 0.664 48.285 0.746 -41.601 0.746 -41.601 0.664 48.285
18768.75 0.664 48.244 0.746 -41.642 0.746 -41.642 0.664 48.244
18793.708 0.665 48.203 0.746 -41.683 0.746 -41.683 0.665 48.203
18818.667 0.666 48.162 0.745 -41.724 0.745 -41.724 0.666 48.162
18843.625 0.666 48.122 0.745 -41.765 0.745 -41.765 0.666 48.122
18868.583 0.667 48.081 0.744 -41.806 0.744 -41.806 0.667 48.081
18893.542 0.667 48.04 0.744 -41.847 0.744 -41.847 0.667 48.04
18918.5 0.668 48 0.743 -41.888 0.743 -41.888 0.668 48
18943.458 0.668 47.959 0.743 -41.928 0.743 -41.928 0.668 47.959
18968.417 0.669 47.918 0.742 -41.969 0.742 -41.969 0.669 47.918
18993.375 0.669 47.878 0.742 -42.01 0.742 -42.01 0.669 47.878
19018.333 0.67 47.838 0.741 -42.05 0.741 -42.05 0.67 47.838
19043.292 0.67 47.797 0.741 -42.091 0.741 -42.091 0.67 47.797
19068.25 0.671 47.757 0.74 -42.131 0.74 -42.131 0.671 47.757
19093.208 0.671 47.717 0.74 -42.172 0.74 -42.172 0.671 47.717
19118.167 0.672 47.676 0.739 -42.212 0.739 -42.212 0.672 47.676
19143.125 0.672 47.636 0.739 -42.252 0.739 -42.252 0.672 47.636
19168.083 0.673 47.596 0.738 -42.292 0.738 -42.292 0.673 47.596
19193.042 0.673 47.556 0.738 -42.333 0.738 -42.333 0.673 47.556
19218 0.674 47.516 0.737 -42.373 0.737 -42.373 0.674 47.516
19242.958 0.674 47.476 0.737 -42.413 0.737 -42.413 0.674 47.476
19267.917 0.675 47.436 0.737 -42.453 0.737 -42.453 0.675 47.436
19292.875 0.675 47.397 0.736 -42.493 0.736 -42.493 0.675 47.397
19317.833 0.676 47.357 0.736 -42.533 0.736 -42.533 0.676 47.357
19342.792 0.677 47.317 0.735 -42.573 0.735 -42.573 0.677 47.317
19367.75 0.677 47.278 0.735 -42.612 0.735 -42.612 0.677 47.278
19392.708 0.678 47.238 0.734 -42.652 0.734 -42.652 0.678 47.238
19417.667 0.678 47.198 0.734 -42.692 0.734 -42.692 0.678 47.198
19442.625 0.679 47.159 0.733 -42.731 0.733 -42.731 0.679 47.159
19467.583 0.679 47.12 0.733 -42.771 0.733 -42.771 0.679 47.12
19492.542 0.68 47.08 0.732 -42.811 0.732 -42.811 0.68 47.08
19517.5 0.68 47.041 0.732 -42.85 0.732 -42.85 0.68 47.041
19542.458 0.681 47.002 0.731 -42.889 0.731 -42.889 0.681 47.002
19567.417 0.681 46.962 0.731 -42.929 0.731 -42.929 0.681 46.962
19592.375 0.682 46.923 0.73 -42.968 0.73 -42.968 0.682 46.923
19617.333 0.682 46.884 0.73 -43.007 0.73 -43.007 0.682 46.884
19642.292 0.683 46.845 0.73 -43.047 0.73 -43.047 0.683 46.845
19667.25 0.683 46.806 0.729 -43.086 0.729 -43.086 0.683 46.806
19692.208 0.684 46.767 0.729 -43.125 0.729 -43.125 0.684 46.767
19717.167 0.684 46.728 0.728 -43.164 0.728 -43.164 0.684 46.728
19742.125 0.685 46.689 0.728 -43.203 0.728 -43.203 0.685 46.689
19767.083 0.685 46.651 0.727 -43.242 0.727 -43.242 0.685 46.651
19792.042 0.686 46.612 0.727 -43.281 0.727 -43.281 0.686 46.612
19817 0.686 46.573 0.726 -43.319 0.726 -43.319 0.686 46.573
19841.958 0.687 46.534 0.726 -43.358 0.726 -43.358 0.687 46.534
19866.917 0.687 46.496 0.725 -43.397 0.725 -43.397 0.687 46.496
19891.875 0.688 46.457 0.725 -43.436 0.725 -43.436 0.688 46.457
19916.833 0.688 46.419 0.724 -43.474 0.724 -43.474 0.688 46.419
19941.792 0.689 46.381 0.724 -43.513 0.724 -43.513 0.689 46.381
19966.75 0.689 46.342 0.723 -43.551 0.723 -43.551 0.689 46.342
19991.708 0.689 46.304 0.723 -43.59 0.723 -43.59 0.689 46.304
20016.667 0.69 46.266 0.723 -43.628 0.723 -43.628 0.69 46.266
20041.625 0.69 46.227 0.722 -43.667 0.722 -43.667 0.69 46.227
20066.583 0.691 46.189 0.722 -43.705 0.722 -43.705 0.691 46.189
20091.542 0.691 46.151 0.721 -43.743 0.721 -43.743 0.691 46.151
20116.5 0.692 46.113 0.721 -43.781 0.721 -43.781 0.692 46.113
20141.458 0.692 46.075 0.72 -43.819 0.72 -43.819 0.692 46.075
20166.417 0.693 46.037 0.72 -43.858 0.72 -43.858 0.693 46.037
20191.375 0.693 45.999 0.719 -43.896 0.719 -43.896 0.693 45.999
20216.333 0.694 45.961 0.719 -43.934 0.719 -43.934 0.694 45.961
20241.292 0.694 45.924 0.718 -43.971 0.718 -43.971 0.694 45.924
20266.25 0.695 45.886 0.718 -44.009 0.718 -44.009 0.695 45.886
20291.208 0.695 45.848 0.717 -44.047 0.717 -44.047 0.695 45.848
20316.167 0.696 45.81 0.717 -44.085 0.717 -44.085 0.696 45.81
20341.125 0.696 45.773 0.717 -44.123 0.717 -44.123 0.696 45.773
20366.083 0.697 45.735 0.716 -44.16 0.716 -44.16 0.697 45.735
20391.042 0.697 45.698 0.716 -44.198 0.716 -44.198 0.697 45.698
20416 0.698 45.66 0.715 -44.236 0.715 -44.236 0.698 45.66
20440.958 0.698 45.623 0.715 -44.273 0.715 -44.273 0.698 45.623
20465.917 0.699 45.586 0.714 -44.311 0.714 -44.311 0.699 45.586
20490.875 0.699 45.548 0.714 -44.348 0.714 -44.348 0.699 45.548
20515.833 0.699 45.511 0.713 -44.385 0.713 -44.385 0.699 45.511
20540.792 0.7 45.474 0.713 -44.423 0.713 -44.423 0.7 45.474
20565.75 0.7 45.437 0.712 -44.46 0.712 -44.46 0.7 45.437
20590.708 0.701 45.4 0.712 -44.497 0.712 -44.497 0.701 45.4
20615.667 0.701 45.363 0.712 -44.534 0.712 -44.534 0.701 45.363
20640.625 0.702 45.326 0.711 -44.572 0.711 -44.572 0.702 45.326
20665.583 0.702 45.289 0.711 -44.609 0.711 -44.609 0.702 45.289
20690.542 0.703 45.252 0.71 -44.646 0.71 -44.646 0.703 45.252
20715.5 0.703 45.215 0.71 -44.683 0.71 -44.683 0.703 45.215
20740.458 0.704 45.178 0.709 -44.72 0.709 -44.72 0.704 45.178
20765.417 0.704 45.141 0.709 -44.756 0.709 -44.756 0.704 45.141
20790.375 0.705 45.105 0.708 -44.793 0.708 -44.793 0.705 45.105
20815.333 0.705 45.068 0.708 -44.83 0.708 -44.83 0.705 45.068
20840.292 0.705 45.032 0.707 -44.867 0.707 -44.867 0.705 45.032
20865.25 0.706 44.995 0.707 -44.903 0.707 -44.903 0.706 44.995
20890.208 0.706 44.958 0.707 -44.94 0.707 -44.94 0.706 44.958
20915.167 0.707 44.922 0.706 -44.977 0.706 -44.977 0.707 44.922
20940.125 0.707 44.886 0.706 -45.013 0.706 -45.013 0.707 44.886
20965.083 0.708 44.849 0.705 -45.05 0.705 -45.05 0.708 44.849
20990.042 0.708 44.813 0.705 -45.086 0.705 -45.086 0.708 44.813
21015 0.709 44.777 0.704 -45.122 0.704 -45.122 0.709 44.777
21039.958 0.709 44.741 0.704 -45.159 0.704 -45.159 0.709 44.741
21064.917 0.71 44.704 0.703 -45.195 0.703 -45.195 0.71 44.704
21089.875 0.71 44.668 0.703 -45.231 0.703 -45.231 0.71 44.668
21114.833 0.71 44.632 0.703 -45.267 0.703 -45.267 0.71 44.632
21139.792 0.711 44.596 0.702 -45.304 0.702 -45.304 0.711 44.596
21164.75 0.711 44.56 0.702 -45.34 0.702 -45.34 0.711 44.56
21189.708 0.712 44.524 0.701 -45.376 0.701 -45.376 0.712 44.524
21214.667 0.712 44.489 0.701 -45.412 0.701 -45.412 0.712 44.489
21239.625 0.713 44.453 0.7 -45.448 0.7 -45.448 0.713 44.453
21264.583 0.713 44.417 0.7 -45.483 0.7 -45.483 0.713 44.417
21289.542 0.713 44.381 0.699 -45.519 0.699 -45.519 0.713 44.381
21314.5 0.714 44.346 0.699 -45.555 0.699 -45.555 0.714 44.346
21339.458 0.714 44.31 0.699 -45.591 0.699 -45.591 0.714 44.31
21364.417 0.715 44.274 0.698 -45.627 0.698 -45.627 0.715 44.274
21389.375 0.715 44.239 0.698 -45.662 0.698 -45.662 0.715 44.239
21414.333 0.716 44.203 0.697 -45.698 0.697 -45.698 0.716 44.203
21439.292 0.716 44.168 0.697 -45.733 0.697 -45.733 0.716 44.168
21464.25 0.717 44.133 0.696 -45.769 0.696 -45.769 0.717 44.133
21489.208 0.717 44.097 0.696 -45.804 0.696 -45.804 0.717 44.097
21514.167 0.717 44.062 0.695 -45.84 0.695 -45.84 0.717 44.062
21539.125 0.718 44.027 0.695 -45.875 0.695 -45.875 0.718 44.027
21564.083 0.718 43.991 0.695 -45.91 0.695 -45.91 0.718 43.991
21589.042 0.719 43.956 0.694 -45.946 0.694 -45.946 0.719 43.956
21614 0.719 43.921 0.694 -45.981 0.694 -45.981 0.719 43.921
21638.958 0.72 43.886 0.693 -46.016 0.693 -46.016 0.72 43.886
21663.917 0.72 43.851 0.693 -46.051 0.693 -46.051 0.72 43.851
21688.875 0.72 43.816 0.692 -46.086 0.692 -46.086 0.72 43.816
21713.833 0.721 43.781 0.692 -46.121 0.692 -46.121 0.721 43.781
21738.792 0.721 43.746 0.691 -46.156 0.691 -46.156 0.721 43.746
21763.75 0.722 43.712 0.691 -46.191 0.691 -46.191 0.722 43.712
21788.708 0.722 43.677 0.691 -46.226 0.691 -46.226 0.722 43.677
21813.667 0.722 43.642 0.69 -46.261 0.69 -46.261 0.722 43.642
21838.625 0.723 43.607 0.69 -46.296 0.69 -46.296 0.723 43.607
21863.583 0.723 43.573 0.689 -46.33 0.689 -46.33 0.723 43.573
21888.542 0.724 43.538 0.689 -46.365 0.689 -46.365 0.724 43.538
21913.5 0.724 43.504 0.688 -46.4 0.688 -46.4 0.724 43.504
21938.458 0.725 43.469 0.688 -46.434 0.688 -46.434 0.725 43.469
21963.417 0.725 43.435 0.688 -46.469 0.688 -46.469 0.725 43.435
21988.375 0.725 43.4 0.687 -46.504 0.687 -46.504 0.725 43.4
22013.333 0.726 43.366 0.687 -46.538 0.687 -46.538 0.726 43.366
22038.292 0.726 43.332 0.686 -46.572 0.686 -46.572 0.726 43.332
22063.25 0.727 43.297 0.686 -46.607 0.686 -46.607 0.727 43.297
22088.208 0.727 43.263 0.685 -46.641 0.685 -46.641 0.727 43.263
22113.167 0.727 43.229 0.685 -46.675 0.685 -46.675 0.727 43.229
22138.125 0.728 43.195 0.684 -46.71 0.684 -46.71 0.728 43.195
22163.083 0.728 43.161 0.684 -46.744 0.684 -46.744 0.728 43.161
22188.042 0.729 43.127 0.684 -46.778 0.684 -46.778 0.729 43.127
22213 0.729 43.093 0.683 -46.812 0.683 -46.812 0.729 43.093
22237.958 0.73 43.059 0.683 -46.846 0.683 -46.846 0.73 43.059
22262.917 0.73 43.025 0.682 -46.88 0.682 -46.88 0.73 43.025
22287.875 0.73 42.991 0.682 -46.914 0.682 -46.914 0.73 42.991
22312.833 0.731 42.957 0.681 -46.948 0.681 -46.948 0.731 42.957
22337.792 0.731 42.923 0.681 -46.982 0.681 -46.982 0.731 42.923
22362.75 0.732 42.89 0.681 -47.016 0.681 -47.016 0.732 42.89
22387.708 0.732 42.856 0.68 -47.05 0.68 -47.05 0.732 42.856
22412.667 0.732 42.822 0.68 -47.083 0.68 -47.083 0.732 42.822
22437.625 0.733 42.789 0.679 -47.117 0.679 -47.117 0.733 42.789
22462.583 0.733 42.755 0.679 -47.151 0.679 -47.151 0.733 42.755
22487.542 0.734 42.722 0.678 -47.184 0.678 -47.184 0.734 42.722
22512.5 0.734 42.688 0.678 -47.218 0.678 -47.218 0.734 42.688
22537.458 0.734 42.655 0.678 -47.251 0.678 -47.251 0.734 42.655
22562.417 0.735 42.622 0.677 -47.285 0.677 -47.285 0.735 42.622
22587.375 0.735 42.588 0.677 -47.318 0.677 -47.318 0.735 42.588
22612.333 0.736 42.555 0.676 -47.352 0.676 -47.352 0.736 42.555
22637.292 0.736 42.522 0.676 -47.385 0.676 -47.385 0.736 42.522
22662.25 0.736 42.489 0.675 -47.418 0.675 -47.418 0.736 42.489
22687.208 0.737 42.455 0.675 -47.452 0.675 -47.452 0.737 42.455
22712.167 0.737 42.422 0.675 -47.485 0.675 -47.485 0.737 42.422
22737.125 0.737 42.389 0.674 -47.518 0.674 -47.518 0.737 42.389
22762.083 0.738 42.356 0.674 -47.551 0.674 -47.551 0.738 42.356
22787.042 0.738 42.323 0.673 -47.584 0.673 -47.584 0.738 42.323
22812 0.739 42.29 0.673 -47.617 0.673 -47.617 0.739 42.29
22836.958 0.739 42.257 0.672 -47.65 0.672 -47.65 0.739 42.257
22861.917 0.739 42.225 0.672 -47.683 0.672 -47.683 0.739 42.225
22886.875 0.74 42.192 0.672 -47.716 0.672 -47.716 0.74 42.192
22911.833 0.74 42.159 0.671 -47.749 0.671 -47.749 0.74 42.159
22936.792 0.741 42.126 0.671 -47.782 0.671 -47.782 0.741 42.126
22961.75 0.741 42.094 0.67 -47.815 0.67 -47.815 0.741 42.094
22986.708 0.741 42.061 0.67 -47.847 0.67 -47.847 0.741 42.061
23011.667 0.742 42.028 0.669 -47.88 0.669 -47.88 0.742 42.028
23036.625 0.742 41.996 0.669 -47.913 0.669 -47.913 0.742 41.996
23061.583 0.743 41.963 0.669 -47.945 0.669 -47.945 0.743 41.963
23086.542 0.743 41.931 0.668 -47.978 0.668 -47.978 0.743 41.931
23111.5 0.743 41.898 0.668 -48.01 0.668 -48.01 0.743 41.898
23136.458 0.744 41.866 0.667 -48.043 0.667 -48.043 0.744 41.866
23161.417 0.744 41.834 0.667 -48.075 0.667 -48.075 0.744 41.834
23186.375 0.744 41.801 0.667 -48.108 0.667 -48.108 0.744 41.801
23211.333 0.745 41.769 0.666 -48.14 0.666 -48.14 0.745 41.769
23236.292 0.745 41.737 0.666 -48.172 0.666 -48.172 0.745 41.737
23261.25 0.746 41.705 0.665 -48.205 0.665 -48.205 0.746 41.705
23286.208 0.746 41.673 0.665 -48.237 0.665 -48.237 0.746 41.673
23311.167 0.746 41.641 0.664 -48.269 0.664 -48.269 0.746 41.641
23336.125 0.747 41.609 0.664 -48.301 0.664 -48.301 0.747 41.609
23361.083 0.747 41.577 0.664 -48.333 0.664 -48.333 0.747 41.577
23386.042 0.747 41.545 0.663 -48.365 0.663 -48.365 0.747 41.545
23411 0.748 41.513 0.663 -48.397 0.663 -48.397 0.748 41.513
23435.958 0.748 41.481 0.662 -48.429 0.662 -48.429 0.748 41.481
23460.917 0.749 41.449 0.662 -48.461 0.662 -48.461 0.749 41.449
23485.875 0.749 41.417 0.662 -48.493 0.662 -48.493 0.749 41.417
23510.833 0.749 41.386 0.661 -48.525 0.661 -48.525 0.749 41.386
23535.792 0.75 41.354 0.661 -48.557 0.661 -48.557 0.75 41.354
23560.75 0.75 41.322 0.66 -48.588 0.66 -48.588 0.75 41.322
23585.708 0.75 41.291 0.66 -48.62 0.66 -48.62 0.75 41.291
23610.667 0.751 41.259 0.659 -48.652 0.659 -48.652 0.751 41.259
23635.625 0.751 41.228 0.659 -48.683 0.659 -48.683 0.751 41.228
23660.583 0.751 41.196 0.659 -48.715 0.659 -48.715 0.751 41.196
23685.542 0.752 41.165 0.658 -48.747 0.658 -48.747 0.752 41.165
23710.5 0.752 41.133 0.658 -48.778 0.658 -48.778 0.752 41.133
23735.458 0.753 41.102 0.657 -48.81 0.657 -48.81 0.753 41.102
23760.417 0.753 41.07 0.657 -48.841 0.657 -48.841 0.753 41.07
23785.375 0.753 41.039 0.657 -48.872 0.657 -48.872 0.753 41.039
23810.333 0.754 41.008 0.656 -48.904 0.656 -48.904 0.754 41.008
23835.292 0.754 40.977 0.656 -48.935 0.656 -48.935 0.754 40.977
23860.25 0.754 40.946 0.655 -48.966 0.655 -48.966 0.754 40.946
23885.208 0.755 40.914 0.655 -48.998 0.655 -48.998 0.755 40.914
23910.167 0.755 40.883 0.655 -49.029 0.655 -49.029 0.755 40.883
23935.125 0.755 40.852 0.654 -49.06 0.654 -49.06 0.755 40.852
23960.083 0.756 40.821 0.654 -49.091 0.654 -49.091 0.756 40.821
23985.042 0.756 40.79 0.653 -49.122 0.653 -49.122 0.756 40.79
24010 0.756 40.759 0.653 -49.153 0.653 -49.153 0.756 40.759
24034.958 0.757 40.729 0.652 -49.184 0.652 -49.184 0.757 40.729
24059.917 0.757 40.698 0.652 -49.215 0.652 -49.215 0.757 40.698
24084.875 0.758 40.667 0.652 -49.246 0.652 -49.246 0.758 40.667
24109.833 0.758 40.636 0.651 -49.277 0.651 -49.277 0.758 40.636
24134.792 0.758 40.605 0.651 -49.308 0.651 -49.308 0.758 40.605
24159.75 0.759 40.575 0.65 -49.338 0.65 -49.338 0.759 40.575
24184.708 0.759 40.544 0.65 -49.369 0.65 -49.369 0.759 40.544
24209.667 0.759 40.513 0.65 -49.4 0.65 -49.4 0.759 40.513
24234.625 0.76 40.483 0.649 -49.43 0.649 -49.43 0.76 40.483
24259.583 0.76 40.452 0.649 -49.461 0.649 -49.461 0.76 40.452
24284.542 0.76 40.422 0.648 -49.492 0.648 -49.492 0.76 40.422
24309.5 0.761 40.391 0.648 -49.522 0.648 -49.522 0.761 40.391
24334.458 0.761 40.361 0.648 -49.553 0.648 -49.553 0.761 40.361
24359.417 0.761 40.331 0.647 -49.583 0.647 -49.583 0.761 40.331
24384.375 0.762 40.3 0.647 -49.613 0.647 -49.613 0.762 40.3
24409.333 0.762 40.27 0.646 -49.644 0.646 -49.644 0.762 40.27
24434.292 0.762 40.24 0.646 -49.674 0.646 -49.674 0.762 40.24
24459.25 0.763 40.21 0.646 -49.705 0.646 -49.705 0.763 40.21
24484.208 0.763 40.179 0.645 -49.735 0.645 -49.735 0.763 40.179
24509.167 0.763 40.149 0.645 -49.765 0.645 -49.765 0.763 40.149
24534.125 0.764 40.119 0.644 -49.795 0.644 -49.795 0.764 40.119
24559.083 0.764 40.089 0.644 -49.825 0.644 -49.825 0.764 40.089
24584.042 0.764 40.059 0.644 -49.855 0.644 -49.855 0.764 40.059
24609 0.765 40.029 0.643 -49.886 0.643 -49.886 0.765 40.029
24633.958 0.765 39.999 0.643 -49.916 0.643 -49.916 0.765 39.999
24658.917 0.765 39.969 0.642 -49.946 0.642 -49.946 0.765 39.969
24683.875 0.766 39.939 0.642 -49.975 0.642 -49.975 0.766 39.939
24708.833 0.766 39.91 0.642 -50.005 0.642 -50.005 0.766 39.91
24733.792 0.766 39.88 0.641 -50.035 0.641 -50.035 0.766 39.88
24758.75 0.767 39.85 0.641 -50.065 0.641 -50.065 0.767 39.85
24783.708 0.767 39.82 0.64 -50.095 0.64 -50.095 0.767 39.82
24808.667 0.767 39.791 0.64 -50.125 0.64 -50.125 0.767 39.791
24833.625 0.768 39.761 0.64 -50.154 0.64 -50.154 0.768 39.761
24858.583 0.768 39.731 0.639 -50.184 0.639 -50.184 0.768 39.731
24883.542 0.768 39.702 0.639 -50.214 0.639 -50.214 0.768 39.702
24908.5 0.769 39.672 0.638 -50.243 0.638 -50.243 0.769 39.672
24933.458 0.769 39.643 0.638 -50.273 0.638 -50.273 0.769 39.643
24958.417 0.769 39.613 0.638 -50.302 0.638 -50.302 0.769 39.613
24983.375 0.77 39.584 0.637 -50.332 0.637 -50.332 0.77 39.584
25008.333 0.77 39.555 0.637 -50.361 0.637 -50.361 0.77 39.555
25033.292 0.77 39.525 0.636 -50.391 0.636 -50.391 0.77 39.525
25058.25 0.771 39.496 0.636 -50.42 0.636 -50.42 0.771 39.496
25083.208 0.771 39.467 0.636 -50.45 0.636 -50.45 0.771 39.467
25108.167 0.771 39.438 0.635 -50.479 0.635 -50.479 0.771 39.438
25133.125 0.772 39.408 0.635 -50.508 0.635 -50.508 0.772 39.408
25158.083 0.772 39.379 0.634 -50.537 0.634 -50.537 0.772 39.379
25183.042 0.772 39.35 0.634 -50.566 0.634 -50.566 0.772 39.35
25208 0.773 39.321 0.634 -50.596 0.634 -50.596 0.773 39.321
25232.958 0.773 39.292 0.633 -50.625 0.633 -50.625 0.773 39.292
25257.917 0.773 39.263 0.633 -50.654 0.633 -50.654 0.773 39.263
25282.875 0.774 39.234 0.632 -50.683 0.632 -50.683 0.774 39.234
25307.833 0.774 39.205 0.632 -50.712 0.632 -50.712 0.774 39.205
25332.792 0.774 39.176 0.632 -50.741 0.632 -50.741 0.774 39.176
25357.75 0.775 39.148 0.631 -50.77 0.631 -50.77 0.775 39.148
25382.708 0.775 39.119 0.631 -50.799 0.631 -50.799 0.775 39.119
25407.667 0.775 39.09 0.631 -50.828 0.631 -50.828 0.775 39.09
25432.625 0.776 39.061 0.63 -50.856 0.63 -50.856 0.776 39.061
25457.583 0.776 39.032 0.63 -50.885 0.63 -50.885 0.776 39.032
25482.542 0.776 39.004 0.629 -50.914 0.629 -50.914 0.776 39.004
25507.5 0.777 38.975 0.629 -50.943 0.629 -50.943 0.777 38.975
25532.458 0.777 38.947 0.629 -50.971 0.629 -50.971 0.777 38.947
25557.417 0.777 38.918 0.628 -51 0.628 -51 0.777 38.918
25582.375 0.777 38.89 0.628 -51.028 0.628 -51.028 0.777 38.89
25607.333 0.778 38.861 0.627 -51.057 0.627 -51.057 0.778 38.861
25632.292 0.778 38.833 0.627 -51.086 0.627 -51.086 0.778 38.833
25657.25 0.778 38.804 0.627 -51.114 0.627 -51.114 0.778 38.804
25682.208 0.779 38.776 0.626 -51.143 0.626 -51.143 0.779 38.776
25707.167 0.779 38.748 0.626 -51.171 0.626 -51.171 0.779 38.748
25732.125 0.779 38.719 0.626 -51.199 0.626 -51.199 0.779 38.719
25757.083 0.78 38.691 0.625 -51.228 0.625 -51.228 0.78 38.691
25782.042 0.78 38.663 0.625 -51.256 0.625 -51.256 0.78 38.663
25807 0.78 38.635 0.624 -51.284 0.624 -51.284 0.78 38.635
25831.958 0.781 38.606 0.624 -51.312 0.624 -51.312 0.781 38.606
25856.917 0.781 38.578 0.624 -51.341 0.624 -51.341 0.781 38.578
25881.875 0.781 38.55 0.623 -51.369 0.623 -51.369 0.781 38.55
25906.833 0.781 38.522 0.623 -51.397 0.623 -51.397 0.781 38.522
25931.792 0.782 38.494 0.622 -51.425 0.622 -51.425 0.782 38.494
25956.75 0.782 38.466 0.622 -51.453 0.622 -51.453 0.782 38.466
25981.708 0.782 38.438 0.622 -51.481 0.622 -51.481 0.782 38.438
26006.667 0.783 38.41 0.621 -51.509 0.621 -51.509 0.783 38.41
26031.625 0.783 38.382 0.621 -51.537 0.621 -51.537 0.783 38.382
26056.583 0.783 38.355 0.621 -51.565 0.621 -51.565 0.783 38.355
26081.542 0.784 38.327 0.62 -51.593 0.62 -51.593 0.784 38.327
26106.5 0.784 38.299 0.62 -51.621 0.62 -51.621 0.784 38.299
26131.458 0.784 38.271 0.619 -51.649 0.619 -51.649 0.784 38.271
26156.417 0.785 38.244 0.619 -51.676 0.619 -51.676 0.785 38.244
26181.375 0.785 38.216 0.619 -51.704 0.619 -51.704 0.785 38.216
26206.333 0.785 38.188 0.618 -51.732 0.618 -51.732 0.785 38.188
26231.292 0.785 38.161 0.618 -51.759 0.618 -51.759 0.785 38.161
26256.25 0.786 38.133 0.617 -51.787 0.617 -51.787 0.786 38.133
26281.208 0.786 38.106 0.617 -51.815 0.617 -51.815 0.786 38.106
26306.167 0.786 38.078 0.617 -51.842 0.617 -51.842 0.786 38.078
26331.125 0.787 38.051 0.616 -51.87 0.616 -51.87 0.787 38.051
26356.083 0.787 38.023 0.616 -51.897 0.616 -51.897 0.787 38.023
26381.042 0.787 37.996 0.616 -51.925 0.616 -51.925 0.787 37.996
26406 0.787 37.969 0.615 -51.952 0.615 -51.952 0.787 37.969
26430.958 0.788 37.941 0.615 -51.98 0.615 -51.98 0.788 37.941
26455.917 0.788 37.914 0.614 -52.007 0.614 -52.007 0.788 37.914
26480.875 0.788 37.887 0.614 -52.034 0.614 -52.034 0.788 37.887
26505.833 0.789 37.86 0.614 -52.062 0.614 -52.062 0.789 37.86
26530.792 0.789 37.832 0.613 -52.089 0.613 -52.089 0.789 37.832
26555.75 0.789 37.805 0.613 -52.116 0.613 -52.116 0.789 37.805
26580.708 0.79 37.778 0.613 -52.143 0.613 -52.143 0.79 37.778
26605.667 0.79 37.751 0.612 -52.17 0.612 -52.17 0.79 37.751
26630.625 0.79 37.724 0.612 -52.197 0.612 -52.197 0.79 37.724
26655.583 0.79 37.697 0.611 -52.225 0.611 -52.225 0.79 37.697
26680.542 0.791 37.67 0.611 -52.252 0.611 -52.252 0.791 37.67
26705.5 0.791 37.643 0.611 -52.279 0.611 -52.279 0.791 37.643
26730.458 0.791 37.616 0.61 -52.306 0.61 -52.306 0.791 37.616
26755.417 0.792 37.589 0.61 -52.333 0.61 -52.333 0.792 37.589
26780.375 0.792 37.562 0.61 -52.359 0.61 -52.359 0.792 37.562
26805.333 0.792 37.536 0.609 -52.386 0.609 -52.386 0.792 37.536
26830.292 0.792 37.509 0.609 -52.413 0.609 -52.413 0.792 37.509
26855.25 0.793 37.482 0.609 -52.44 0.609 -52.44 0.793 37.482
26880.208 0.793 37.455 0.608 -52.467 0.608 -52.467 0.793 37.455
26905.167 0.793 37.429 0.608 -52.493 0.608 -52.493 0.793 37.429
26930.125 0.794 37.402 0.607 -52.52 0.607 -52.52 0.794 37.402
26955.083 0.794 37.376 0.607 -52.547 0.607 -52.547 0.794 37.376
26980.042 0.794 37.349 0.607 -52.574 0.607 -52.574 0.794 37.349
27005 0.794 37.322 0.606 -52.6 0.606 -52.6 0.794 37.322
27029.958 0.795 37.296 0.606 -52.627 0.606 -52.627 0.795 37.296
27054.917 0.795 37.269 0.606 -52.653 0.606 -52.653 0.795 37.269
27079.875 0.795 37.243 0.605 -52.68 0.605 -52.68 0.795 37.243
27104.833 0.796 37.217 0.605 -52.706 0.605 -52.706 0.796 37.217
27129.792 0.796 37.19 0.604 -52.733 0.604 -52.733 0.796 37.19
27154.75 0.796 37.164 0.604 -52.759 0.604 -52.759 0.796 37.164
27179.708 0.796 37.138 0.604 -52.785 0.604 -52.785 0.796 37.138
27204.667 0.797 37.111 0.603 -52.812 0.603 -52.812 0.797 37.111
27229.625 0.797 37.085 0.603 -52.838 0.603 -52.838 0.797 37.085
27254.583 0.797 37.059 0.603 -52.864 0.603 -52.864 0.797 37.059
27279.542 0.797 37.033 0.602 -52.891 0.602 -52.891 0.797 37.033
27304.5 0.798 37.007 0.602 -52.917 0.602 -52.917 0.798 37.007
27329.458 0.798 36.98 0.602 -52.943 0.602 -52.943 0.798 36.98
27354.417 0.798 36.954 0.601 -52.969 0.601 -52.969 0.798 36.954
27379.375 0.799 36.928 0.601 -52.995 0.601 -52.995 0.799 36.928
27404.333 0.799 36.902 0.6 -53.021 0.6 -53.021 0.799 36.902
27429.292 0.799 36.876 0.6 -53.047 0.6 -53.047 0.799 36.876
27454.25 0.799 36.85 0.6 -53.074 0.6 -53.074 0.799 36.85
27479.208 0.8 36.824 0.599 -53.1 0.599 -53.1 0.8 36.824
27504.167 0.8 36.799 0.599 -53.125 0.599 -53.125 0.8 36.799
27529.125 0.8 36.773 0.599 -53.151 0.599 -53.151 0.8 36.773
27554.083 0.8 36.747 0.598 -53.177 0.598 -53.177 0.8 36.747
27579.042 0.801 36.721 0.598 -53.203 0.598 -53.203 0.801 36.721
27604 0.801 36.695 0.598 -53.229 0.598 -53.229 0.801 36.695
27628.958 0.801 36.67 0.597 -53.255 0.597 -53.255 0.801 36.67
27653.917 0.802 36.644 0.597 -53.281 0.597 -53.281 0.802 36.644
27678.875 0.802 36.618 0.596 -53.306 0.596 -53.306 0.802 36.618
27703.833 0.802 36.593 0.596 -53.332 0.596 -53.332 0.802 36.593
27728.792 0.802 36.567 0.596 -53.358 0.596 -53.358 0.802 36.567
27753.75 0.803 36.541 0.595 -53.383 0.595 -53.383 0.803 36.541
27778.708 0.803 36.516 0.595 -53.409 0.595 -53.409 0.803 36.516
27803.667 0.803 36.49 0.595 -53.434 0.595 -53.434 0.803 36.49
27828.625 0.803 36.465 0.594 -53.46 0.594 -53.46 0.803 36.465
27853.583 0.804 36.439 0.594 -53.485 0.594 -53.485 0.804 36.439
27878.542 0.804 36.414 0.594 -53.511 0.594 -53.511 0.804 36.414
27903.5 0.804 36.389 0.593 -53.536 0.593 -53.536 0.804 36.389
27928.458 0.804 36.363 0.593 -53.562 0.593 -53.562 0.804 36.363
27953.417 0.805 36.338 0.593 -53.587 0.593 -53.587 0.805 36.338
27978.375 0.805 36.313 0.592 -53.613 0.592 -53.613 0.805 36.313
28003.333 0.805 36.288 0.592 -53.638 0.592 -53.638 0.805 36.288
28028.292 0.806 36.262 0.591 -53.663 0.591 -53.663 0.806 36.262
28053.25 0.806 36.237 0.591 -53.688 0.591 -53.688 0.806 36.237
28078.208 0.806 36.212 0.591 -53.714 0.591 -53.714 0.806 36.212
28103.167 0.806 36.187 0.59 -53.739 0.59 -53.739 0.806 36.187
28128.125 0.807 36.162 0.59 -53.764 0.59 -53.764 0.807 36.162
28153.083 0.807 36.137 0.59 -53.789 0.59 -53.789 0.807 36.137
28178.042 0.807 36.112 0.589 -53.814 0.589 -53.814 0.807 36.112
28203 0.807 36.087 0.589 -53.839 0.589 -53.839 0.807 36.087
28227.958 0.808 36.062 0.589 -53.864 0.589 -53.864 0.808 36.062
28252.917 0.808 36.037 0.588 -53.889 0.588 -53.889 0.808 36.037
28277.875 0.808 36.012 0.588 -53.914 0.588 -53.914 0.808 36.012
28302.833 0.808 35.987 0.588 -53.939 0.588 -53.939 0.808 35.987
28327.792 0.809 35.962 0.587 -53.964 0.587 -53.964 0.809 35.962
28352.75 0.809 35.937 0.587 -53.989 0.587 -53.989 0.809 35.937
28377.708 0.809 35.912 0.587 -54.014 0.587 -54.014 0.809 35.912
28402.667 0.809 35.888 0.586 -54.039 0.586 -54.039 0.809 35.888
28427.625 0.81 35.863 0.586 -54.064 0.586 -54.064 0.81 35.863
28452.583 0.81 35.838 0.585 -54.088 0.585 -54.088 0.81 35.838
28477.542 0.81 35.814 0.585 -54.113 0.585 -54.113 0.81 35.814
28502.5 0.81 35.789 0.585 -54.138 0.585 -54.138 0.81 35.789
28527.458 0.811 35.764 0.584 -54.163 0.584 -54.163 0.811 35.764
28552.417 0.811 35.74 0.584 -54.187 0.584 -54.187 0.811 35.74
28577.375 0.811 35.715 0.584 -54.212 0.584 -54.212 0.811 35.715
28602.333 0.811 35.691 0.583 -54.236 0.583 -54.236 0.811 35.691
28627.292 0.812 35.666 0.583 -54.261 0.583 -54.261 0.812 35.666
28652.25 0.812 35.642 0.583 -54.285 0.583 -54.285 0.812 35.642
28677.208 0.812 35.617 0.582 -54.31 0.582 -54.31 0.812 35.617
28702.167 0.812 35.593 0.582 -54.334 0.582 -54.334 0.812 35.593
28727.125 0.813 35.568 0.582 -54.359 0.582 -54.359 0.813 35.568
28752.083 0.813 35.544 0.581 -54.383 0.581 -54.383 0.813 35.544
28777.042 0.813 35.52 0.581 -54.408 0.581 -54.408 0.813 35.52
28802 0.813 35.496 0.581 -54.432 0.581 -54.432 0.813 35.496
28826.958 0.814 35.471 0.58 -54.456 0.58 -54.456 0.814 35.471
28851.917 0.814 35.447 0.58 -54.481 0.58 -54.481 0.814 35.447
28876.875 0.814 35.423 0.58 -54.505 0.58 -54.505 0.814 35.423
28901.833 0.814 35.399 0.579 -54.529 0.579 -54.529 0.814 35.399
28926.792 0.815 35.375 0.579 -54.553 0.579 -54.553 0.815 35.375
28951.75 0.815 35.35 0.579 -54.577 0.579 -54.577 0.815 35.35
28976.708 0.815 35.326 0.578 -54.602 0.578 -54.602 0.815 35.326
29001.667 0.815 35.302 0.578 -54.626 0.578 -54.626 0.815 35.302
29026.625 0.816 35.278 0.578 -54.65 0.578 -54.65 0.816 35.278
29051.583 0.816 35.254 0.577 -54.674 0.577 -54.674 0.816 35.254
29076.542 0.816 35.23 0.577 -54.698 0.577 -54.698 0.816 35.23
29101.5 0.816 35.206 0.577 -54.722 0.577 -54.722 0.816 35.206
29126.458 0.817 35.183 0.576 -54.746 0.576 -54.746 0.817 35.183
29151.417 0.817 35.159 0.576 -54.77 0.576 -54.77 0.817 35.159
29176.375 0.817 35.135 0.576 -54.794 0.576 -54.794 0.817 35.135
29201.333 0.817 35.111 0.575 -54.818 0.575 -54.818 0.817 35.111
29226.292 0.818 35.087 0.575 -54.841 0.575 -54.841 0.818 35.087
29251.25 0.818 35.063 0.574 -54.865 0.574 -54.865 0.818 35.063
29276.208 0.818 35.04 0.574 -54.889 0.574 -54.889 0.818 35.04
29301.167 0.818 35.016 0.574 -54.913 0.574 -54.913 0.818 35.016
29326.125 0.819 34.992 0.573 -54.937 0.573 -54.937 0.819 34.992
29351.083 0.819 34.969 0.573 -54.96 0.573 -54.96 0.819 34.969
29376.042 0.819 34.945 0.573 -54.984 0.573 -54.984 0.819 34.945
29401 0.819 34.921 0.572 -55.008 0.572 -55.008 0.819 34.921
29425.958 0.819 34.898 0.572 -55.031 0.572 -55.031 0.819 34.898
29450.917 0.82 34.874 0.572 -55.055 0.572 -55.055 0.82 34.874
29475.875 0.82 34.851 0.571 -55.078 0.571 -55.078 0.82 34.851
29500.833 0.82 34.827 0.571 -55.102 0.571 -55.102 0.82 34.827
29525.792 0.82 34.804 0.571 -55.125 0.571 -55.125 0.82 34.804
29550.75 0.821 34.781 0.57 -55.149 0.57 -55.149 0.821 34.781
29575.708 0.821 34.757 0.57 -55.172 0.57 -55.172 0.821 34.757
29600.667 0.821 34.734 0.57 -55.196 0.57 -55.196 0.821 34.734
29625.625 0.821 34.71 0.569 -55.219 0.569 -55.219 0.821 34.71
29650.583 0.822 34.687 0.569 -55.243 0.569 -55.243 0.822 34.687
29675.542 0.822 34.664 0.569 -55.266 0.569 -55.266 0.822 34.664
29700.5 0.822 34.641 0.568 -55.289 0.568 -55.289 0.822 34.641
29725.458 0.822 34.617 0.568 -55.312 0.568 -55.312 0.822 34.617
29750.417 0.822 34.594 0.568 -55.336 0.568 -55.336 0.822 34.594
29775.375 0.823 34.571 0.567 -55.359 0.567 -55.359 0.823 34.571
29800.333 0.823 34.548 0.567 -55.382 0.567 -55.382 0.823 34.548
29825.292 0.823 34.525 0.567 -55.405 0.567 -55.405 0.823 34.525
29850.25 0.823 34.502 0.566 -55.428 0.566 -55.428 0.823 34.502
29875.208 0.824 34.479 0.566 -55.452 0.566 -55.452 0.824 34.479
29900.167 0.824 34.456 0.566 -55.475 0.566 -55.475 0.824 34.456
29925.125 0.824 34.433 0.565 -55.498 0.565 -55.498 0.824 34.433
29950.083 0.824 34.41 0.565 -55.521 0.565 -55.521 0.824 34.41
29975.042 0.825 34.387 0.565 -55.544 0.565 -55.544 0.825 34.387
30000 0.825 34.364 0.564 -55.567 0.564 -55.567 0.825 34.364
