!	AVX Thin Film Operation 	Date: April 2014		
!	Description: Accu-P® Series, Thin Film  SMD RF Capacitor
!	Part Number: 06035J4R6ABSTR					
!								
# MHZ S MA R 50

50 0.99 -8.226 0.143 81.762 0.143 81.762 0.99 -8.226
74.958 0.977 -12.233 0.212 77.749 0.212 77.749 0.977 -12.233
99.917 0.961 -16.128 0.278 73.848 0.278 73.848 0.961 -16.128
124.875 0.94 -19.884 0.34 70.086 0.34 70.086 0.94 -19.884
149.833 0.917 -23.478 0.398 66.486 0.398 66.486 0.917 -23.478
174.792 0.891 -26.896 0.452 63.061 0.452 63.061 0.891 -26.896
199.75 0.864 -30.131 0.502 59.821 0.502 59.821 0.864 -30.131
224.708 0.836 -33.179 0.547 56.767 0.547 56.767 0.836 -33.179
249.667 0.808 -36.04 0.588 53.899 0.588 53.899 0.808 -36.04
274.625 0.779 -38.721 0.626 51.212 0.626 51.212 0.779 -38.721
299.583 0.751 -41.228 0.659 48.699 0.659 48.699 0.751 -41.228
324.542 0.724 -43.57 0.689 46.351 0.689 46.351 0.724 -43.57
349.5 0.697 -45.757 0.716 44.158 0.716 44.158 0.697 -45.757
374.458 0.671 -47.798 0.741 42.11 0.741 42.11 0.671 -47.798
399.417 0.645 -49.705 0.763 40.197 0.763 40.197 0.645 -49.705
424.375 0.621 -51.486 0.782 38.41 0.782 38.41 0.621 -51.486
449.333 0.598 -53.151 0.8 36.737 0.8 36.737 0.598 -53.151
474.292 0.576 -54.711 0.816 35.172 0.816 35.172 0.576 -54.711
499.25 0.555 -56.172 0.831 33.704 0.831 33.704 0.555 -56.172
524.208 0.535 -57.542 0.844 32.326 0.844 32.326 0.535 -57.542
549.167 0.516 -58.83 0.856 31.032 0.856 31.032 0.516 -58.83
574.125 0.497 -60.042 0.866 29.814 0.866 29.814 0.497 -60.042
599.083 0.48 -61.183 0.876 28.665 0.876 28.665 0.48 -61.183
624.042 0.463 -62.259 0.885 27.582 0.885 27.582 0.463 -62.259
649 0.447 -63.276 0.893 26.558 0.893 26.558 0.447 -63.276
673.958 0.432 -64.238 0.901 25.589 0.901 25.589 0.432 -64.238
698.917 0.417 -65.149 0.907 24.671 0.907 24.671 0.417 -65.149
723.875 0.404 -66.013 0.914 23.799 0.914 23.799 0.404 -66.013
748.833 0.39 -66.833 0.919 22.971 0.919 22.971 0.39 -66.833
773.792 0.378 -67.614 0.925 22.183 0.925 22.183 0.378 -67.614
798.75 0.365 -68.356 0.93 21.432 0.93 21.432 0.365 -68.356
823.708 0.354 -69.065 0.934 20.716 0.934 20.716 0.354 -69.065
848.667 0.343 -69.74 0.938 20.032 0.938 20.032 0.343 -69.74
873.625 0.332 -70.386 0.942 19.378 0.942 19.378 0.332 -70.386
898.583 0.321 -71.004 0.946 18.752 0.946 18.752 0.321 -71.004
923.542 0.312 -71.595 0.949 18.152 0.949 18.152 0.312 -71.595
948.5 0.302 -72.162 0.952 17.576 0.952 17.576 0.302 -72.162
973.458 0.293 -72.706 0.955 17.023 0.955 17.023 0.293 -72.706
998.417 0.284 -73.228 0.957 16.491 0.957 16.491 0.284 -73.228
1023.375 0.275 -73.731 0.96 15.98 0.96 15.98 0.275 -73.731
1048.333 0.267 -74.214 0.962 15.487 0.962 15.487 0.267 -74.214
1073.292 0.259 -74.679 0.964 15.011 0.964 15.011 0.259 -74.679
1098.25 0.251 -75.128 0.967 14.552 0.967 14.552 0.251 -75.128
1123.208 0.244 -75.561 0.968 14.109 0.968 14.109 0.244 -75.561
1148.167 0.237 -75.978 0.97 13.681 0.97 13.681 0.237 -75.978
1173.125 0.229 -76.382 0.972 13.266 0.972 13.266 0.229 -76.382
1198.083 0.223 -76.772 0.973 12.865 0.973 12.865 0.223 -76.772
1223.042 0.216 -77.149 0.975 12.476 0.975 12.476 0.216 -77.149
1248 0.21 -77.515 0.976 12.098 0.976 12.098 0.21 -77.515
1272.958 0.203 -77.868 0.978 11.732 0.978 11.732 0.203 -77.868
1297.917 0.197 -78.211 0.979 11.376 0.979 11.376 0.197 -78.211
1322.875 0.191 -78.544 0.98 11.03 0.98 11.03 0.191 -78.544
1347.833 0.186 -78.866 0.981 10.694 0.981 10.694 0.186 -78.866
1372.792 0.18 -79.18 0.982 10.367 0.982 10.367 0.18 -79.18
1397.75 0.174 -79.484 0.983 10.048 0.983 10.048 0.174 -79.484
1422.708 0.169 -79.779 0.984 9.738 0.984 9.738 0.169 -79.779
1447.667 0.164 -80.066 0.985 9.435 0.985 9.435 0.164 -80.066
1472.625 0.159 -80.345 0.986 9.139 0.986 9.139 0.159 -80.345
1497.583 0.154 -80.616 0.987 8.851 0.987 8.851 0.154 -80.616
1522.542 0.149 -80.88 0.987 8.569 0.987 8.569 0.149 -80.88
1547.5 0.144 -81.137 0.988 8.294 0.988 8.294 0.144 -81.137
1572.458 0.14 -81.387 0.989 8.025 0.989 8.025 0.14 -81.387
1597.417 0.135 -81.63 0.989 7.762 0.989 7.762 0.135 -81.63
1622.375 0.131 -81.866 0.99 7.504 0.99 7.504 0.131 -81.866
1647.333 0.126 -82.096 0.991 7.252 0.991 7.252 0.126 -82.096
1672.292 0.122 -82.32 0.991 7.005 0.991 7.005 0.122 -82.32
1697.25 0.118 -82.538 0.992 6.763 0.992 6.763 0.118 -82.538
1722.208 0.114 -82.749 0.992 6.525 0.992 6.525 0.114 -82.749
1747.167 0.11 -82.955 0.993 6.292 0.993 6.292 0.11 -82.955
1772.125 0.106 -83.155 0.993 6.064 0.993 6.064 0.106 -83.155
1797.083 0.102 -83.349 0.993 5.84 0.993 5.84 0.102 -83.349
1822.042 0.098 -83.537 0.994 5.619 0.994 5.619 0.098 -83.537
1847 0.094 -83.72 0.994 5.403 0.994 5.403 0.094 -83.72
1871.958 0.09 -83.896 0.994 5.19 0.994 5.19 0.09 -83.896
1896.917 0.087 -84.067 0.995 4.981 0.995 4.981 0.087 -84.067
1921.875 0.083 -84.231 0.995 4.776 0.995 4.776 0.083 -84.231
1946.833 0.08 -84.389 0.995 4.573 0.995 4.573 0.08 -84.389
1971.792 0.076 -84.541 0.996 4.374 0.996 4.374 0.076 -84.541
1996.75 0.073 -84.686 0.996 4.178 0.996 4.178 0.073 -84.686
2021.708 0.07 -84.824 0.996 3.985 0.996 3.985 0.07 -84.824
2046.667 0.066 -84.954 0.996 3.795 0.996 3.795 0.066 -84.954
2071.625 0.063 -85.076 0.997 3.608 0.997 3.608 0.063 -85.076
2096.583 0.06 -85.19 0.997 3.423 0.997 3.423 0.06 -85.19
2121.542 0.057 -85.294 0.997 3.241 0.997 3.241 0.057 -85.294
2146.5 0.053 -85.387 0.997 3.062 0.997 3.062 0.053 -85.387
2171.458 0.05 -85.469 0.997 2.884 0.997 2.884 0.05 -85.469
2196.417 0.047 -85.538 0.997 2.71 0.997 2.71 0.047 -85.538
2221.375 0.044 -85.591 0.998 2.537 0.998 2.537 0.044 -85.591
2246.333 0.041 -85.627 0.998 2.367 0.998 2.367 0.041 -85.627
2271.292 0.038 -85.641 0.998 2.199 0.998 2.199 0.038 -85.641
2296.25 0.035 -85.631 0.998 2.033 0.998 2.033 0.035 -85.631
2321.208 0.033 -85.59 0.998 1.869 0.998 1.869 0.033 -85.59
2346.167 0.03 -85.511 0.998 1.706 0.998 1.706 0.03 -85.511
2371.125 0.027 -85.383 0.998 1.546 0.998 1.546 0.027 -85.383
2396.083 0.024 -85.191 0.998 1.388 0.998 1.388 0.024 -85.191
2421.042 0.022 -84.913 0.998 1.231 0.998 1.231 0.022 -84.913
2446 0.019 -84.515 0.998 1.076 0.998 1.076 0.019 -84.515
2470.958 0.016 -83.939 0.998 0.923 0.998 0.923 0.016 -83.939
2495.917 0.014 -83.087 0.998 0.771 0.998 0.771 0.014 -83.087
2520.875 0.011 -81.768 0.998 0.621 0.998 0.621 0.011 -81.768
2545.833 8.37e-3 -79.565 0.999 0.472 0.999 0.472 8.37e-3 -79.565
2570.792 5.859e-3 -75.365 0.999 0.325 0.999 0.325 5.859e-3 -75.365
2595.75 3.454e-3 -65.031 0.999 0.18 0.999 0.18 3.454e-3 -65.031
2620.708 1.575e-3 -23.09 0.999 0.035 0.999 0.035 1.575e-3 -23.09
2645.667 2.369e-3 52.209 0.999 -0.107 0.999 -0.107 2.369e-3 52.209
2670.625 4.58e-3 71.317 0.999 -0.249 0.999 -0.249 4.58e-3 71.317
2695.583 6.945e-3 77.575 0.999 -0.389 0.999 -0.389 6.945e-3 77.575
2720.542 9.33e-3 80.543 0.999 -0.528 0.999 -0.528 9.33e-3 80.543
2745.5 0.012 82.231 0.998 -0.666 0.998 -0.666 0.012 82.231
2770.458 0.014 83.294 0.998 -0.802 0.998 -0.802 0.014 83.294
2795.417 0.016 84.006 0.998 -0.938 0.998 -0.938 0.016 84.006
2820.375 0.019 84.502 0.998 -1.072 0.998 -1.072 0.019 84.502
2845.333 0.021 84.857 0.998 -1.205 0.998 -1.205 0.021 84.857
2870.292 0.023 85.113 0.998 -1.337 0.998 -1.337 0.023 85.113
2895.25 0.026 85.298 0.998 -1.468 0.998 -1.468 0.026 85.298
2920.208 0.028 85.43 0.998 -1.598 0.998 -1.598 0.028 85.43
2945.167 0.03 85.523 0.998 -1.727 0.998 -1.727 0.03 85.523
2970.125 0.032 85.585 0.998 -1.855 0.998 -1.855 0.032 85.585
2995.083 0.035 85.622 0.998 -1.982 0.998 -1.982 0.035 85.622
3020.042 0.037 85.639 0.998 -2.108 0.998 -2.108 0.037 85.639
3045 0.039 85.64 0.998 -2.233 0.998 -2.233 0.039 85.64
3069.958 0.041 85.628 0.998 -2.357 0.998 -2.357 0.041 85.628
3094.917 0.043 85.605 0.998 -2.481 0.998 -2.481 0.043 85.605
3119.875 0.045 85.572 0.998 -2.603 0.998 -2.603 0.045 85.572
3144.833 0.048 85.532 0.997 -2.725 0.997 -2.725 0.048 85.532
3169.792 0.05 85.486 0.997 -2.846 0.997 -2.846 0.05 85.486
3194.75 0.052 85.433 0.997 -2.966 0.997 -2.966 0.052 85.433
3219.708 0.054 85.376 0.997 -3.085 0.997 -3.085 0.054 85.376
3244.667 0.056 85.314 0.997 -3.204 0.997 -3.204 0.056 85.314
3269.625 0.058 85.249 0.997 -3.321 0.997 -3.321 0.058 85.249
3294.583 0.06 85.181 0.997 -3.438 0.997 -3.438 0.06 85.181
3319.542 0.062 85.11 0.997 -3.555 0.997 -3.555 0.062 85.11
3344.5 0.064 85.036 0.997 -3.67 0.997 -3.67 0.064 85.036
3369.458 0.066 84.961 0.996 -3.785 0.996 -3.785 0.066 84.961
3394.417 0.068 84.883 0.996 -3.9 0.996 -3.9 0.068 84.883
3419.375 0.07 84.804 0.996 -4.013 0.996 -4.013 0.07 84.804
3444.333 0.072 84.724 0.996 -4.126 0.996 -4.126 0.072 84.724
3469.292 0.074 84.642 0.996 -4.239 0.996 -4.239 0.074 84.642
3494.25 0.076 84.559 0.996 -4.35 0.996 -4.35 0.076 84.559
3519.208 0.078 84.475 0.996 -4.461 0.996 -4.461 0.078 84.475
3544.167 0.08 84.391 0.995 -4.572 0.995 -4.572 0.08 84.391
3569.125 0.082 84.305 0.995 -4.682 0.995 -4.682 0.082 84.305
3594.083 0.084 84.219 0.995 -4.791 0.995 -4.791 0.084 84.219
3619.042 0.085 84.132 0.995 -4.9 0.995 -4.9 0.085 84.132
3644 0.087 84.045 0.995 -5.008 0.995 -5.008 0.087 84.045
3668.958 0.089 83.957 0.995 -5.116 0.995 -5.116 0.089 83.957
3693.917 0.091 83.869 0.994 -5.223 0.994 -5.223 0.091 83.869
3718.875 0.093 83.781 0.994 -5.33 0.994 -5.33 0.093 83.781
3743.833 0.095 83.692 0.994 -5.436 0.994 -5.436 0.095 83.692
3768.792 0.097 83.603 0.994 -5.542 0.994 -5.542 0.097 83.603
3793.75 0.098 83.514 0.994 -5.647 0.994 -5.647 0.098 83.514
3818.708 0.1 83.425 0.994 -5.751 0.994 -5.751 0.1 83.425
3843.667 0.102 83.335 0.993 -5.856 0.993 -5.856 0.102 83.335
3868.625 0.104 83.246 0.993 -5.959 0.993 -5.959 0.104 83.246
3893.583 0.106 83.156 0.993 -6.063 0.993 -6.063 0.106 83.156
3918.542 0.107 83.067 0.993 -6.165 0.993 -6.165 0.107 83.067
3943.5 0.109 82.977 0.993 -6.268 0.993 -6.268 0.109 82.977
3968.458 0.111 82.887 0.992 -6.37 0.992 -6.37 0.111 82.887
3993.417 0.113 82.797 0.992 -6.471 0.992 -6.471 0.113 82.797
4018.375 0.114 82.708 0.992 -6.572 0.992 -6.572 0.114 82.708
4043.333 0.116 82.618 0.992 -6.673 0.992 -6.673 0.116 82.618
4068.292 0.118 82.528 0.992 -6.773 0.992 -6.773 0.118 82.528
4093.25 0.12 82.439 0.991 -6.873 0.991 -6.873 0.12 82.439
4118.208 0.121 82.349 0.991 -6.972 0.991 -6.972 0.121 82.349
4143.167 0.123 82.26 0.991 -7.071 0.991 -7.071 0.123 82.26
4168.125 0.125 82.17 0.991 -7.17 0.991 -7.17 0.125 82.17
4193.083 0.127 82.081 0.991 -7.268 0.991 -7.268 0.127 82.081
4218.042 0.128 81.992 0.99 -7.366 0.99 -7.366 0.128 81.992
4243 0.13 81.903 0.99 -7.464 0.99 -7.464 0.13 81.903
4267.958 0.132 81.814 0.99 -7.561 0.99 -7.561 0.132 81.814
4292.917 0.133 81.725 0.99 -7.658 0.99 -7.658 0.133 81.725
4317.875 0.135 81.636 0.989 -7.754 0.989 -7.754 0.135 81.636
4342.833 0.137 81.548 0.989 -7.85 0.989 -7.85 0.137 81.548
4367.792 0.138 81.459 0.989 -7.946 0.989 -7.946 0.138 81.459
4392.75 0.14 81.371 0.989 -8.042 0.989 -8.042 0.14 81.371
4417.708 0.142 81.283 0.988 -8.137 0.988 -8.137 0.142 81.283
4442.667 0.143 81.195 0.988 -8.232 0.988 -8.232 0.143 81.195
4467.625 0.145 81.107 0.988 -8.326 0.988 -8.326 0.145 81.107
4492.583 0.146 81.019 0.988 -8.42 0.988 -8.42 0.146 81.019
4517.542 0.148 80.932 0.988 -8.514 0.988 -8.514 0.148 80.932
4542.5 0.15 80.844 0.987 -8.608 0.987 -8.608 0.15 80.844
4567.458 0.151 80.757 0.987 -8.701 0.987 -8.701 0.151 80.757
4592.417 0.153 80.67 0.987 -8.794 0.987 -8.794 0.153 80.67
4617.375 0.154 80.583 0.987 -8.887 0.987 -8.887 0.154 80.583
4642.333 0.156 80.496 0.986 -8.979 0.986 -8.979 0.156 80.496
4667.292 0.158 80.409 0.986 -9.071 0.986 -9.071 0.158 80.409
4692.25 0.159 80.323 0.986 -9.163 0.986 -9.163 0.159 80.323
4717.208 0.161 80.236 0.986 -9.254 0.986 -9.254 0.161 80.236
4742.167 0.162 80.15 0.985 -9.346 0.985 -9.346 0.162 80.15
4767.125 0.164 80.064 0.985 -9.437 0.985 -9.437 0.164 80.064
4792.083 0.166 79.978 0.985 -9.527 0.985 -9.527 0.166 79.978
4817.042 0.167 79.893 0.985 -9.618 0.985 -9.618 0.167 79.893
4842 0.169 79.807 0.984 -9.708 0.984 -9.708 0.169 79.807
4866.958 0.17 79.722 0.984 -9.798 0.984 -9.798 0.17 79.722
4891.917 0.172 79.637 0.984 -9.887 0.984 -9.887 0.172 79.637
4916.875 0.173 79.552 0.983 -9.977 0.983 -9.977 0.173 79.552
4941.833 0.175 79.467 0.983 -10.066 0.983 -10.066 0.175 79.467
4966.792 0.176 79.382 0.983 -10.155 0.983 -10.155 0.176 79.382
4991.75 0.178 79.297 0.983 -10.243 0.983 -10.243 0.178 79.297
5016.708 0.179 79.213 0.982 -10.332 0.982 -10.332 0.179 79.213
5041.667 0.181 79.129 0.982 -10.42 0.982 -10.42 0.181 79.129
5066.625 0.182 79.045 0.982 -10.508 0.982 -10.508 0.182 79.045
5091.583 0.184 78.961 0.982 -10.596 0.982 -10.596 0.184 78.961
5116.542 0.185 78.877 0.981 -10.683 0.981 -10.683 0.185 78.877
5141.5 0.187 78.793 0.981 -10.77 0.981 -10.77 0.187 78.793
5166.458 0.188 78.71 0.981 -10.857 0.981 -10.857 0.188 78.71
5191.417 0.19 78.627 0.98 -10.944 0.98 -10.944 0.19 78.627
5216.375 0.191 78.544 0.98 -11.031 0.98 -11.031 0.191 78.544
5241.333 0.193 78.461 0.98 -11.117 0.98 -11.117 0.193 78.461
5266.292 0.194 78.378 0.98 -11.203 0.98 -11.203 0.194 78.378
5291.25 0.196 78.295 0.979 -11.289 0.979 -11.289 0.196 78.295
5316.208 0.197 78.213 0.979 -11.375 0.979 -11.375 0.197 78.213
5341.167 0.199 78.13 0.979 -11.46 0.979 -11.46 0.199 78.13
5366.125 0.2 78.048 0.978 -11.546 0.978 -11.546 0.2 78.048
5391.083 0.202 77.966 0.978 -11.631 0.978 -11.631 0.202 77.966
5416.042 0.203 77.884 0.978 -11.716 0.978 -11.716 0.203 77.884
5441 0.205 77.802 0.977 -11.8 0.977 -11.8 0.205 77.802
5465.958 0.206 77.721 0.977 -11.885 0.977 -11.885 0.206 77.721
5490.917 0.207 77.639 0.977 -11.969 0.977 -11.969 0.207 77.639
5515.875 0.209 77.558 0.977 -12.053 0.977 -12.053 0.209 77.558
5540.833 0.21 77.477 0.976 -12.137 0.976 -12.137 0.21 77.477
5565.792 0.212 77.396 0.976 -12.221 0.976 -12.221 0.212 77.396
5590.75 0.213 77.315 0.976 -12.304 0.976 -12.304 0.213 77.315
5615.708 0.215 77.234 0.975 -12.388 0.975 -12.388 0.215 77.234
5640.667 0.216 77.154 0.975 -12.471 0.975 -12.471 0.216 77.154
5665.625 0.217 77.073 0.975 -12.554 0.975 -12.554 0.217 77.073
5690.583 0.219 76.993 0.974 -12.637 0.974 -12.637 0.219 76.993
5715.542 0.22 76.913 0.974 -12.719 0.974 -12.719 0.22 76.913
5740.5 0.222 76.833 0.974 -12.802 0.974 -12.802 0.222 76.833
5765.458 0.223 76.753 0.973 -12.884 0.973 -12.884 0.223 76.753
5790.417 0.224 76.674 0.973 -12.966 0.973 -12.966 0.224 76.674
5815.375 0.226 76.594 0.973 -13.048 0.973 -13.048 0.226 76.594
5840.333 0.227 76.515 0.972 -13.13 0.972 -13.13 0.227 76.515
5865.292 0.229 76.435 0.972 -13.211 0.972 -13.211 0.229 76.435
5890.25 0.23 76.356 0.972 -13.293 0.972 -13.293 0.23 76.356
5915.208 0.231 76.277 0.971 -13.374 0.971 -13.374 0.231 76.277
5940.167 0.233 76.198 0.971 -13.455 0.971 -13.455 0.233 76.198
5965.125 0.234 76.12 0.971 -13.536 0.971 -13.536 0.234 76.12
5990.083 0.235 76.041 0.97 -13.616 0.97 -13.616 0.235 76.041
6015.042 0.237 75.962 0.97 -13.697 0.97 -13.697 0.237 75.962
6040 0.238 75.884 0.97 -13.777 0.97 -13.777 0.238 75.884
6064.958 0.24 75.806 0.969 -13.858 0.969 -13.858 0.24 75.806
6089.917 0.241 75.728 0.969 -13.938 0.969 -13.938 0.241 75.728
6114.875 0.242 75.65 0.969 -14.018 0.969 -14.018 0.242 75.65
6139.833 0.244 75.572 0.968 -14.097 0.968 -14.097 0.244 75.572
6164.792 0.245 75.495 0.968 -14.177 0.968 -14.177 0.245 75.495
6189.75 0.246 75.417 0.968 -14.256 0.968 -14.256 0.246 75.417
6214.708 0.248 75.34 0.967 -14.336 0.967 -14.336 0.248 75.34
6239.667 0.249 75.262 0.967 -14.415 0.967 -14.415 0.249 75.262
6264.625 0.25 75.185 0.967 -14.494 0.967 -14.494 0.25 75.185
6289.583 0.252 75.108 0.966 -14.573 0.966 -14.573 0.252 75.108
6314.542 0.253 75.031 0.966 -14.651 0.966 -14.651 0.253 75.031
6339.5 0.254 74.954 0.966 -14.73 0.966 -14.73 0.254 74.954
6364.458 0.256 74.878 0.965 -14.808 0.965 -14.808 0.256 74.878
6389.417 0.257 74.801 0.965 -14.887 0.965 -14.887 0.257 74.801
6414.375 0.258 74.725 0.965 -14.965 0.965 -14.965 0.258 74.725
6439.333 0.26 74.649 0.964 -15.043 0.964 -15.043 0.26 74.649
6464.292 0.261 74.572 0.964 -15.12 0.964 -15.12 0.261 74.572
6489.25 0.262 74.496 0.964 -15.198 0.964 -15.198 0.262 74.496
6514.208 0.263 74.421 0.963 -15.276 0.963 -15.276 0.263 74.421
6539.167 0.265 74.345 0.963 -15.353 0.963 -15.353 0.265 74.345
6564.125 0.266 74.269 0.963 -15.43 0.963 -15.43 0.266 74.269
6589.083 0.267 74.194 0.962 -15.507 0.962 -15.507 0.267 74.194
6614.042 0.269 74.118 0.962 -15.584 0.962 -15.584 0.269 74.118
6639 0.27 74.043 0.961 -15.661 0.961 -15.661 0.27 74.043
6663.958 0.271 73.968 0.961 -15.738 0.961 -15.738 0.271 73.968
6688.917 0.273 73.893 0.961 -15.814 0.961 -15.814 0.273 73.893
6713.875 0.274 73.818 0.96 -15.891 0.96 -15.891 0.274 73.818
6738.833 0.275 73.743 0.96 -15.967 0.96 -15.967 0.275 73.743
6763.792 0.276 73.668 0.96 -16.043 0.96 -16.043 0.276 73.668
6788.75 0.278 73.593 0.959 -16.119 0.959 -16.119 0.278 73.593
6813.708 0.279 73.519 0.959 -16.195 0.959 -16.195 0.279 73.519
6838.667 0.28 73.445 0.959 -16.271 0.959 -16.271 0.28 73.445
6863.625 0.281 73.37 0.958 -16.347 0.958 -16.347 0.281 73.37
6888.583 0.283 73.296 0.958 -16.422 0.958 -16.422 0.283 73.296
6913.542 0.284 73.222 0.957 -16.498 0.957 -16.498 0.284 73.222
6938.5 0.285 73.148 0.957 -16.573 0.957 -16.573 0.285 73.148
6963.458 0.286 73.074 0.957 -16.648 0.957 -16.648 0.286 73.074
6988.417 0.288 73.001 0.956 -16.723 0.956 -16.723 0.288 73.001
7013.375 0.289 72.927 0.956 -16.798 0.956 -16.798 0.289 72.927
7038.333 0.29 72.854 0.956 -16.873 0.956 -16.873 0.29 72.854
7063.292 0.291 72.78 0.955 -16.947 0.955 -16.947 0.291 72.78
7088.25 0.293 72.707 0.955 -17.022 0.955 -17.022 0.293 72.707
7113.208 0.294 72.634 0.954 -17.096 0.954 -17.096 0.294 72.634
7138.167 0.295 72.561 0.954 -17.171 0.954 -17.171 0.295 72.561
7163.125 0.296 72.488 0.954 -17.245 0.954 -17.245 0.296 72.488
7188.083 0.298 72.415 0.953 -17.319 0.953 -17.319 0.298 72.415
7213.042 0.299 72.342 0.953 -17.393 0.953 -17.393 0.299 72.342
7238 0.3 72.27 0.953 -17.466 0.953 -17.466 0.3 72.27
7262.958 0.301 72.197 0.952 -17.54 0.952 -17.54 0.301 72.197
7287.917 0.303 72.125 0.952 -17.614 0.952 -17.614 0.303 72.125
7312.875 0.304 72.053 0.951 -17.687 0.951 -17.687 0.304 72.053
7337.833 0.305 71.981 0.951 -17.76 0.951 -17.76 0.305 71.981
7362.792 0.306 71.909 0.951 -17.834 0.951 -17.834 0.306 71.909
7387.75 0.307 71.837 0.95 -17.907 0.95 -17.907 0.307 71.837
7412.708 0.309 71.765 0.95 -17.98 0.95 -17.98 0.309 71.765
7437.667 0.31 71.693 0.949 -18.052 0.949 -18.052 0.31 71.693
7462.625 0.311 71.621 0.949 -18.125 0.949 -18.125 0.311 71.621
7487.583 0.312 71.55 0.949 -18.198 0.949 -18.198 0.312 71.55
7512.542 0.314 71.478 0.948 -18.27 0.948 -18.27 0.314 71.478
7537.5 0.315 71.407 0.948 -18.343 0.948 -18.343 0.315 71.407
7562.458 0.316 71.336 0.947 -18.415 0.947 -18.415 0.316 71.336
7587.417 0.317 71.265 0.947 -18.487 0.947 -18.487 0.317 71.265
7612.375 0.318 71.194 0.947 -18.559 0.947 -18.559 0.318 71.194
7637.333 0.319 71.123 0.946 -18.631 0.946 -18.631 0.319 71.123
7662.292 0.321 71.052 0.946 -18.703 0.946 -18.703 0.321 71.052
7687.25 0.322 70.981 0.945 -18.775 0.945 -18.775 0.322 70.981
7712.208 0.323 70.911 0.945 -18.846 0.945 -18.846 0.323 70.911
7737.167 0.324 70.84 0.945 -18.918 0.945 -18.918 0.324 70.84
7762.125 0.325 70.77 0.944 -18.989 0.944 -18.989 0.325 70.77
7787.083 0.327 70.699 0.944 -19.061 0.944 -19.061 0.327 70.699
7812.042 0.328 70.629 0.943 -19.132 0.943 -19.132 0.328 70.629
7837 0.329 70.559 0.943 -19.203 0.943 -19.203 0.329 70.559
7861.958 0.33 70.489 0.943 -19.274 0.943 -19.274 0.33 70.489
7886.917 0.331 70.419 0.942 -19.345 0.942 -19.345 0.331 70.419
7911.875 0.332 70.349 0.942 -19.415 0.942 -19.415 0.332 70.349
7936.833 0.334 70.279 0.941 -19.486 0.941 -19.486 0.334 70.279
7961.792 0.335 70.21 0.941 -19.557 0.941 -19.557 0.335 70.21
7986.75 0.336 70.14 0.941 -19.627 0.941 -19.627 0.336 70.14
8011.708 0.337 70.071 0.94 -19.697 0.94 -19.697 0.337 70.071
8036.667 0.338 70.001 0.94 -19.768 0.94 -19.768 0.338 70.001
8061.625 0.339 69.932 0.939 -19.838 0.939 -19.838 0.339 69.932
8086.583 0.341 69.863 0.939 -19.908 0.939 -19.908 0.341 69.863
8111.542 0.342 69.794 0.938 -19.978 0.938 -19.978 0.342 69.794
8136.5 0.343 69.725 0.938 -20.048 0.938 -20.048 0.343 69.725
8161.458 0.344 69.656 0.938 -20.117 0.938 -20.117 0.344 69.656
8186.417 0.345 69.587 0.937 -20.187 0.937 -20.187 0.345 69.587
8211.375 0.346 69.519 0.937 -20.256 0.937 -20.256 0.346 69.519
8236.333 0.347 69.45 0.936 -20.326 0.936 -20.326 0.347 69.45
8261.292 0.348 69.382 0.936 -20.395 0.936 -20.395 0.348 69.382
8286.25 0.35 69.313 0.936 -20.464 0.936 -20.464 0.35 69.313
8311.208 0.351 69.245 0.935 -20.533 0.935 -20.533 0.351 69.245
8336.167 0.352 69.177 0.935 -20.602 0.935 -20.602 0.352 69.177
8361.125 0.353 69.109 0.934 -20.671 0.934 -20.671 0.353 69.109
8386.083 0.354 69.041 0.934 -20.74 0.934 -20.74 0.354 69.041
8411.042 0.355 68.973 0.933 -20.809 0.933 -20.809 0.355 68.973
8436 0.356 68.905 0.933 -20.877 0.933 -20.877 0.356 68.905
8460.958 0.357 68.837 0.933 -20.946 0.933 -20.946 0.357 68.837
8485.917 0.359 68.77 0.932 -21.014 0.932 -21.014 0.359 68.77
8510.875 0.36 68.702 0.932 -21.083 0.932 -21.083 0.36 68.702
8535.833 0.361 68.635 0.931 -21.151 0.931 -21.151 0.361 68.635
8560.792 0.362 68.567 0.931 -21.219 0.931 -21.219 0.362 68.567
8585.75 0.363 68.5 0.93 -21.287 0.93 -21.287 0.363 68.5
8610.708 0.364 68.433 0.93 -21.355 0.93 -21.355 0.364 68.433
8635.667 0.365 68.366 0.93 -21.423 0.93 -21.423 0.365 68.366
8660.625 0.366 68.299 0.929 -21.491 0.929 -21.491 0.366 68.299
8685.583 0.367 68.232 0.929 -21.558 0.929 -21.558 0.367 68.232
8710.542 0.369 68.165 0.928 -21.626 0.928 -21.626 0.369 68.165
8735.5 0.37 68.098 0.928 -21.693 0.928 -21.693 0.37 68.098
8760.458 0.371 68.031 0.927 -21.761 0.927 -21.761 0.371 68.031
8785.417 0.372 67.965 0.927 -21.828 0.927 -21.828 0.372 67.965
8810.375 0.373 67.898 0.927 -21.895 0.927 -21.895 0.373 67.898
8835.333 0.374 67.832 0.926 -21.962 0.926 -21.962 0.374 67.832
8860.292 0.375 67.766 0.926 -22.029 0.926 -22.029 0.375 67.766
8885.25 0.376 67.7 0.925 -22.096 0.925 -22.096 0.376 67.7
8910.208 0.377 67.633 0.925 -22.163 0.925 -22.163 0.377 67.633
8935.167 0.378 67.567 0.924 -22.229 0.924 -22.229 0.378 67.567
8960.125 0.379 67.502 0.924 -22.296 0.924 -22.296 0.379 67.502
8985.083 0.38 67.436 0.923 -22.363 0.923 -22.363 0.38 67.436
9010.042 0.382 67.37 0.923 -22.429 0.923 -22.429 0.382 67.37
9035 0.383 67.304 0.923 -22.495 0.923 -22.495 0.383 67.304
9059.958 0.384 67.239 0.922 -22.562 0.922 -22.562 0.384 67.239
9084.917 0.385 67.173 0.922 -22.628 0.922 -22.628 0.385 67.173
9109.875 0.386 67.108 0.921 -22.694 0.921 -22.694 0.386 67.108
9134.833 0.387 67.042 0.921 -22.76 0.921 -22.76 0.387 67.042
9159.792 0.388 66.977 0.92 -22.826 0.92 -22.826 0.388 66.977
9184.75 0.389 66.912 0.92 -22.891 0.92 -22.891 0.389 66.912
9209.708 0.39 66.847 0.919 -22.957 0.919 -22.957 0.39 66.847
9234.667 0.391 66.782 0.919 -23.023 0.919 -23.023 0.391 66.782
9259.625 0.392 66.717 0.919 -23.088 0.919 -23.088 0.392 66.717
9284.583 0.393 66.652 0.918 -23.154 0.918 -23.154 0.393 66.652
9309.542 0.394 66.588 0.918 -23.219 0.918 -23.219 0.394 66.588
9334.5 0.395 66.523 0.917 -23.284 0.917 -23.284 0.395 66.523
9359.458 0.396 66.458 0.917 -23.349 0.917 -23.349 0.396 66.458
9384.417 0.397 66.394 0.916 -23.414 0.916 -23.414 0.397 66.394
9409.375 0.398 66.33 0.916 -23.479 0.916 -23.479 0.398 66.33
9434.333 0.399 66.265 0.915 -23.544 0.915 -23.544 0.399 66.265
9459.292 0.4 66.201 0.915 -23.609 0.915 -23.609 0.4 66.201
9484.25 0.402 66.137 0.915 -23.674 0.915 -23.674 0.402 66.137
9509.208 0.403 66.073 0.914 -23.738 0.914 -23.738 0.403 66.073
9534.167 0.404 66.009 0.914 -23.803 0.914 -23.803 0.404 66.009
9559.125 0.405 65.945 0.913 -23.867 0.913 -23.867 0.405 65.945
9584.083 0.406 65.881 0.913 -23.932 0.913 -23.932 0.406 65.881
9609.042 0.407 65.818 0.912 -23.996 0.912 -23.996 0.407 65.818
9634 0.408 65.754 0.912 -24.06 0.912 -24.06 0.408 65.754
9658.958 0.409 65.691 0.911 -24.124 0.911 -24.124 0.409 65.691
9683.917 0.41 65.627 0.911 -24.188 0.911 -24.188 0.41 65.627
9708.875 0.411 65.564 0.91 -24.252 0.91 -24.252 0.411 65.564
9733.833 0.412 65.5 0.91 -24.316 0.91 -24.316 0.412 65.5
9758.792 0.413 65.437 0.91 -24.38 0.91 -24.38 0.413 65.437
9783.75 0.414 65.374 0.909 -24.443 0.909 -24.443 0.414 65.374
9808.708 0.415 65.311 0.909 -24.507 0.909 -24.507 0.415 65.311
9833.667 0.416 65.248 0.908 -24.57 0.908 -24.57 0.416 65.248
9858.625 0.417 65.185 0.908 -24.634 0.908 -24.634 0.417 65.185
9883.583 0.418 65.122 0.907 -24.697 0.907 -24.697 0.418 65.122
9908.542 0.419 65.06 0.907 -24.76 0.907 -24.76 0.419 65.06
9933.5 0.42 64.997 0.906 -24.823 0.906 -24.823 0.42 64.997
9958.458 0.421 64.935 0.906 -24.887 0.906 -24.887 0.421 64.935
9983.417 0.422 64.872 0.905 -24.95 0.905 -24.95 0.422 64.872
10008.375 0.423 64.81 0.905 -25.012 0.905 -25.012 0.423 64.81
10033.333 0.424 64.747 0.904 -25.075 0.904 -25.075 0.424 64.747
10058.292 0.425 64.685 0.904 -25.138 0.904 -25.138 0.425 64.685
10083.25 0.426 64.623 0.904 -25.201 0.904 -25.201 0.426 64.623
10108.208 0.427 64.561 0.903 -25.263 0.903 -25.263 0.427 64.561
10133.167 0.428 64.499 0.903 -25.326 0.903 -25.326 0.428 64.499
10158.125 0.429 64.437 0.902 -25.388 0.902 -25.388 0.429 64.437
10183.083 0.43 64.375 0.902 -25.45 0.902 -25.45 0.43 64.375
10208.042 0.431 64.314 0.901 -25.512 0.901 -25.512 0.431 64.314
10233 0.432 64.252 0.901 -25.575 0.901 -25.575 0.432 64.252
10257.958 0.433 64.19 0.9 -25.637 0.9 -25.637 0.433 64.19
10282.917 0.434 64.129 0.9 -25.699 0.9 -25.699 0.434 64.129
10307.875 0.435 64.067 0.899 -25.761 0.899 -25.761 0.435 64.067
10332.833 0.436 64.006 0.899 -25.822 0.899 -25.822 0.436 64.006
10357.792 0.437 63.945 0.898 -25.884 0.898 -25.884 0.437 63.945
10382.75 0.438 63.884 0.898 -25.946 0.898 -25.946 0.438 63.884
10407.708 0.438 63.823 0.897 -26.007 0.897 -26.007 0.438 63.823
10432.667 0.439 63.762 0.897 -26.069 0.897 -26.069 0.439 63.762
10457.625 0.44 63.701 0.896 -26.13 0.896 -26.13 0.44 63.701
10482.583 0.441 63.64 0.896 -26.191 0.896 -26.191 0.441 63.64
10507.542 0.442 63.579 0.896 -26.253 0.896 -26.253 0.442 63.579
10532.5 0.443 63.518 0.895 -26.314 0.895 -26.314 0.443 63.518
10557.458 0.444 63.458 0.895 -26.375 0.895 -26.375 0.444 63.458
10582.417 0.445 63.397 0.894 -26.436 0.894 -26.436 0.445 63.397
10607.375 0.446 63.337 0.894 -26.497 0.894 -26.497 0.446 63.337
10632.333 0.447 63.276 0.893 -26.558 0.893 -26.558 0.447 63.276
10657.292 0.448 63.216 0.893 -26.618 0.893 -26.618 0.448 63.216
10682.25 0.449 63.156 0.892 -26.679 0.892 -26.679 0.449 63.156
10707.208 0.45 63.096 0.892 -26.74 0.892 -26.74 0.45 63.096
10732.167 0.451 63.036 0.891 -26.8 0.891 -26.8 0.451 63.036
10757.125 0.452 62.976 0.891 -26.86 0.891 -26.86 0.452 62.976
10782.083 0.453 62.916 0.89 -26.921 0.89 -26.921 0.453 62.916
10807.042 0.454 62.856 0.89 -26.981 0.89 -26.981 0.454 62.856
10832 0.455 62.796 0.889 -27.041 0.889 -27.041 0.455 62.796
10856.958 0.456 62.736 0.889 -27.101 0.889 -27.101 0.456 62.736
10881.917 0.456 62.677 0.888 -27.161 0.888 -27.161 0.456 62.677
10906.875 0.457 62.617 0.888 -27.221 0.888 -27.221 0.457 62.617
10931.833 0.458 62.558 0.887 -27.281 0.887 -27.281 0.458 62.558
10956.792 0.459 62.499 0.887 -27.341 0.887 -27.341 0.459 62.499
10981.75 0.46 62.439 0.887 -27.401 0.887 -27.401 0.46 62.439
11006.708 0.461 62.38 0.886 -27.46 0.886 -27.46 0.461 62.38
11031.667 0.462 62.321 0.886 -27.52 0.886 -27.52 0.462 62.321
11056.625 0.463 62.262 0.885 -27.579 0.885 -27.579 0.463 62.262
11081.583 0.464 62.203 0.885 -27.639 0.885 -27.639 0.464 62.203
11106.542 0.465 62.144 0.884 -27.698 0.884 -27.698 0.465 62.144
11131.5 0.466 62.085 0.884 -27.757 0.884 -27.757 0.466 62.085
11156.458 0.467 62.026 0.883 -27.816 0.883 -27.816 0.467 62.026
11181.417 0.468 61.968 0.883 -27.875 0.883 -27.875 0.468 61.968
11206.375 0.468 61.909 0.882 -27.934 0.882 -27.934 0.468 61.909
11231.333 0.469 61.851 0.882 -27.993 0.882 -27.993 0.469 61.851
11256.292 0.47 61.792 0.881 -28.052 0.881 -28.052 0.47 61.792
11281.25 0.471 61.734 0.881 -28.111 0.881 -28.111 0.471 61.734
11306.208 0.472 61.675 0.88 -28.17 0.88 -28.17 0.472 61.675
11331.167 0.473 61.617 0.88 -28.228 0.88 -28.228 0.473 61.617
11356.125 0.474 61.559 0.879 -28.287 0.879 -28.287 0.474 61.559
11381.083 0.475 61.501 0.879 -28.345 0.879 -28.345 0.475 61.501
11406.042 0.476 61.443 0.878 -28.404 0.878 -28.404 0.476 61.443
11431 0.477 61.385 0.878 -28.462 0.878 -28.462 0.477 61.385
11455.958 0.477 61.327 0.877 -28.52 0.877 -28.52 0.477 61.327
11480.917 0.478 61.269 0.877 -28.578 0.877 -28.578 0.478 61.269
11505.875 0.479 61.212 0.876 -28.636 0.876 -28.636 0.479 61.212
11530.833 0.48 61.154 0.876 -28.694 0.876 -28.694 0.48 61.154
11555.792 0.481 61.097 0.875 -28.752 0.875 -28.752 0.481 61.097
11580.75 0.482 61.039 0.875 -28.81 0.875 -28.81 0.482 61.039
11605.708 0.483 60.982 0.874 -28.868 0.874 -28.868 0.483 60.982
11630.667 0.484 60.924 0.874 -28.925 0.874 -28.925 0.484 60.924
11655.625 0.485 60.867 0.873 -28.983 0.873 -28.983 0.485 60.867
11680.583 0.485 60.81 0.873 -29.041 0.873 -29.041 0.485 60.81
11705.542 0.486 60.753 0.873 -29.098 0.873 -29.098 0.486 60.753
11730.5 0.487 60.696 0.872 -29.155 0.872 -29.155 0.487 60.696
11755.458 0.488 60.639 0.872 -29.213 0.872 -29.213 0.488 60.639
11780.417 0.489 60.582 0.871 -29.27 0.871 -29.27 0.489 60.582
11805.375 0.49 60.525 0.871 -29.327 0.871 -29.327 0.49 60.525
11830.333 0.491 60.468 0.87 -29.384 0.87 -29.384 0.491 60.468
11855.292 0.492 60.412 0.87 -29.441 0.87 -29.441 0.492 60.412
11880.25 0.492 60.355 0.869 -29.498 0.869 -29.498 0.492 60.355
11905.208 0.493 60.299 0.869 -29.555 0.869 -29.555 0.493 60.299
11930.167 0.494 60.242 0.868 -29.612 0.868 -29.612 0.494 60.242
11955.125 0.495 60.186 0.868 -29.668 0.868 -29.668 0.495 60.186
11980.083 0.496 60.13 0.867 -29.725 0.867 -29.725 0.496 60.13
12005.042 0.497 60.073 0.867 -29.782 0.867 -29.782 0.497 60.073
12030 0.498 60.017 0.866 -29.838 0.866 -29.838 0.498 60.017
12054.958 0.498 59.961 0.866 -29.895 0.866 -29.895 0.498 59.961
12079.917 0.499 59.905 0.865 -29.951 0.865 -29.951 0.499 59.905
12104.875 0.5 59.849 0.865 -30.007 0.865 -30.007 0.5 59.849
12129.833 0.501 59.793 0.864 -30.063 0.864 -30.063 0.501 59.793
12154.792 0.502 59.738 0.864 -30.119 0.864 -30.119 0.502 59.738
12179.75 0.503 59.682 0.863 -30.175 0.863 -30.175 0.503 59.682
12204.708 0.503 59.626 0.863 -30.231 0.863 -30.231 0.503 59.626
12229.667 0.504 59.571 0.862 -30.287 0.862 -30.287 0.504 59.571
12254.625 0.505 59.515 0.862 -30.343 0.862 -30.343 0.505 59.515
12279.583 0.506 59.46 0.861 -30.399 0.861 -30.399 0.506 59.46
12304.542 0.507 59.404 0.861 -30.454 0.861 -30.454 0.507 59.404
12329.5 0.508 59.349 0.86 -30.51 0.86 -30.51 0.508 59.349
12354.458 0.509 59.294 0.86 -30.566 0.86 -30.566 0.509 59.294
12379.417 0.509 59.239 0.859 -30.621 0.859 -30.621 0.509 59.239
12404.375 0.51 59.184 0.859 -30.676 0.859 -30.676 0.51 59.184
12429.333 0.511 59.129 0.858 -30.732 0.858 -30.732 0.511 59.129
12454.292 0.512 59.074 0.858 -30.787 0.858 -30.787 0.512 59.074
12479.25 0.513 59.019 0.857 -30.842 0.857 -30.842 0.513 59.019
12504.208 0.514 58.964 0.857 -30.897 0.857 -30.897 0.514 58.964
12529.167 0.514 58.909 0.856 -30.952 0.856 -30.952 0.514 58.909
12554.125 0.515 58.855 0.856 -31.007 0.856 -31.007 0.515 58.855
12579.083 0.516 58.8 0.855 -31.062 0.855 -31.062 0.516 58.8
12604.042 0.517 58.746 0.855 -31.117 0.855 -31.117 0.517 58.746
12629 0.518 58.691 0.854 -31.171 0.854 -31.171 0.518 58.691
12653.958 0.518 58.637 0.854 -31.226 0.854 -31.226 0.518 58.637
12678.917 0.519 58.583 0.853 -31.281 0.853 -31.281 0.519 58.583
12703.875 0.52 58.528 0.853 -31.335 0.853 -31.335 0.52 58.528
12728.833 0.521 58.474 0.852 -31.39 0.852 -31.39 0.521 58.474
12753.792 0.522 58.42 0.852 -31.444 0.852 -31.444 0.522 58.42
12778.75 0.522 58.366 0.851 -31.498 0.851 -31.498 0.522 58.366
12803.708 0.523 58.312 0.851 -31.553 0.851 -31.553 0.523 58.312
12828.667 0.524 58.258 0.85 -31.607 0.85 -31.607 0.524 58.258
12853.625 0.525 58.205 0.85 -31.661 0.85 -31.661 0.525 58.205
12878.583 0.526 58.151 0.849 -31.715 0.849 -31.715 0.526 58.151
12903.542 0.526 58.097 0.849 -31.769 0.849 -31.769 0.526 58.097
12928.5 0.527 58.044 0.848 -31.823 0.848 -31.823 0.527 58.044
12953.458 0.528 57.99 0.848 -31.876 0.848 -31.876 0.528 57.99
12978.417 0.529 57.937 0.847 -31.93 0.847 -31.93 0.529 57.937
13003.375 0.53 57.883 0.847 -31.984 0.847 -31.984 0.53 57.883
13028.333 0.53 57.83 0.846 -32.037 0.846 -32.037 0.53 57.83
13053.292 0.531 57.777 0.846 -32.091 0.846 -32.091 0.531 57.777
13078.25 0.532 57.724 0.845 -32.144 0.845 -32.144 0.532 57.724
13103.208 0.533 57.671 0.845 -32.198 0.845 -32.198 0.533 57.671
13128.167 0.534 57.618 0.844 -32.251 0.844 -32.251 0.534 57.618
13153.125 0.534 57.565 0.844 -32.304 0.844 -32.304 0.534 57.565
13178.083 0.535 57.512 0.844 -32.357 0.844 -32.357 0.535 57.512
13203.042 0.536 57.459 0.843 -32.41 0.843 -32.41 0.536 57.459
13228 0.537 57.406 0.843 -32.463 0.843 -32.463 0.537 57.406
13252.958 0.538 57.354 0.842 -32.516 0.842 -32.516 0.538 57.354
13277.917 0.538 57.301 0.842 -32.569 0.842 -32.569 0.538 57.301
13302.875 0.539 57.248 0.841 -32.622 0.841 -32.622 0.539 57.248
13327.833 0.54 57.196 0.841 -32.675 0.841 -32.675 0.54 57.196
13352.792 0.541 57.144 0.84 -32.727 0.84 -32.727 0.541 57.144
13377.75 0.541 57.091 0.84 -32.78 0.84 -32.78 0.541 57.091
13402.708 0.542 57.039 0.839 -32.832 0.839 -32.832 0.542 57.039
13427.667 0.543 56.987 0.839 -32.885 0.839 -32.885 0.543 56.987
13452.625 0.544 56.935 0.838 -32.937 0.838 -32.937 0.544 56.935
13477.583 0.544 56.883 0.838 -32.99 0.838 -32.99 0.544 56.883
13502.542 0.545 56.831 0.837 -33.042 0.837 -33.042 0.545 56.831
13527.5 0.546 56.779 0.837 -33.094 0.837 -33.094 0.546 56.779
13552.458 0.547 56.727 0.836 -33.146 0.836 -33.146 0.547 56.727
13577.417 0.548 56.675 0.836 -33.198 0.836 -33.198 0.548 56.675
13602.375 0.548 56.623 0.835 -33.25 0.835 -33.25 0.548 56.623
13627.333 0.549 56.572 0.835 -33.302 0.835 -33.302 0.549 56.572
13652.292 0.55 56.52 0.834 -33.354 0.834 -33.354 0.55 56.52
13677.25 0.551 56.468 0.834 -33.406 0.834 -33.406 0.551 56.468
13702.208 0.551 56.417 0.833 -33.457 0.833 -33.457 0.551 56.417
13727.167 0.552 56.366 0.833 -33.509 0.833 -33.509 0.552 56.366
13752.125 0.553 56.314 0.832 -33.561 0.832 -33.561 0.553 56.314
13777.083 0.554 56.263 0.832 -33.612 0.832 -33.612 0.554 56.263
13802.042 0.554 56.212 0.831 -33.664 0.831 -33.664 0.554 56.212
13827 0.555 56.161 0.831 -33.715 0.831 -33.715 0.555 56.161
13851.958 0.556 56.11 0.83 -33.766 0.83 -33.766 0.556 56.11
13876.917 0.557 56.059 0.83 -33.817 0.83 -33.817 0.557 56.059
13901.875 0.557 56.008 0.829 -33.869 0.829 -33.869 0.557 56.008
13926.833 0.558 55.957 0.829 -33.92 0.829 -33.92 0.558 55.957
13951.792 0.559 55.906 0.828 -33.971 0.828 -33.971 0.559 55.906
13976.75 0.56 55.855 0.828 -34.022 0.828 -34.022 0.56 55.855
14001.708 0.56 55.805 0.827 -34.073 0.827 -34.073 0.56 55.805
14026.667 0.561 55.754 0.827 -34.123 0.827 -34.123 0.561 55.754
14051.625 0.562 55.704 0.826 -34.174 0.826 -34.174 0.562 55.704
14076.583 0.562 55.653 0.826 -34.225 0.826 -34.225 0.562 55.653
14101.542 0.563 55.603 0.825 -34.275 0.825 -34.275 0.563 55.603
14126.5 0.564 55.553 0.825 -34.326 0.825 -34.326 0.564 55.553
14151.458 0.565 55.502 0.824 -34.376 0.824 -34.376 0.565 55.502
14176.417 0.565 55.452 0.824 -34.427 0.824 -34.427 0.565 55.452
14201.375 0.566 55.402 0.823 -34.477 0.823 -34.477 0.566 55.402
14226.333 0.567 55.352 0.823 -34.527 0.823 -34.527 0.567 55.352
14251.292 0.568 55.302 0.822 -34.578 0.822 -34.578 0.568 55.302
14276.25 0.568 55.252 0.822 -34.628 0.822 -34.628 0.568 55.252
14301.208 0.569 55.202 0.821 -34.678 0.821 -34.678 0.569 55.202
14326.167 0.57 55.152 0.821 -34.728 0.821 -34.728 0.57 55.152
14351.125 0.57 55.103 0.82 -34.778 0.82 -34.778 0.57 55.103
14376.083 0.571 55.053 0.82 -34.828 0.82 -34.828 0.571 55.053
14401.042 0.572 55.003 0.819 -34.878 0.819 -34.878 0.572 55.003
14426 0.573 54.954 0.819 -34.927 0.819 -34.927 0.573 54.954
14450.958 0.573 54.904 0.818 -34.977 0.818 -34.977 0.573 54.904
14475.917 0.574 54.855 0.818 -35.027 0.818 -35.027 0.574 54.855
14500.875 0.575 54.806 0.817 -35.076 0.817 -35.076 0.575 54.806
14525.833 0.575 54.756 0.817 -35.126 0.817 -35.126 0.575 54.756
14550.792 0.576 54.707 0.816 -35.175 0.816 -35.175 0.576 54.707
14575.75 0.577 54.658 0.816 -35.225 0.816 -35.225 0.577 54.658
14600.708 0.577 54.609 0.815 -35.274 0.815 -35.274 0.577 54.609
14625.667 0.578 54.56 0.815 -35.323 0.815 -35.323 0.578 54.56
14650.625 0.579 54.511 0.814 -35.372 0.814 -35.372 0.579 54.511
14675.583 0.58 54.462 0.814 -35.421 0.814 -35.421 0.58 54.462
14700.542 0.58 54.413 0.813 -35.47 0.813 -35.47 0.58 54.413
14725.5 0.581 54.364 0.813 -35.519 0.813 -35.519 0.581 54.364
14750.458 0.582 54.316 0.812 -35.568 0.812 -35.568 0.582 54.316
14775.417 0.582 54.267 0.812 -35.617 0.812 -35.617 0.582 54.267
14800.375 0.583 54.218 0.811 -35.666 0.811 -35.666 0.583 54.218
14825.333 0.584 54.17 0.811 -35.715 0.811 -35.715 0.584 54.17
14850.292 0.584 54.122 0.81 -35.763 0.81 -35.763 0.584 54.122
14875.25 0.585 54.073 0.81 -35.812 0.81 -35.812 0.585 54.073
14900.208 0.586 54.025 0.809 -35.86 0.809 -35.86 0.586 54.025
14925.167 0.586 53.977 0.809 -35.909 0.809 -35.909 0.586 53.977
14950.125 0.587 53.928 0.808 -35.957 0.808 -35.957 0.587 53.928
14975.083 0.588 53.88 0.808 -36.006 0.808 -36.006 0.588 53.88
15000.042 0.589 53.832 0.807 -36.054 0.807 -36.054 0.589 53.832
15025 0.589 53.784 0.807 -36.102 0.807 -36.102 0.589 53.784
15049.958 0.59 53.736 0.806 -36.15 0.806 -36.15 0.59 53.736
15074.917 0.591 53.688 0.806 -36.198 0.806 -36.198 0.591 53.688
15099.875 0.591 53.641 0.805 -36.246 0.805 -36.246 0.591 53.641
15124.833 0.592 53.593 0.805 -36.294 0.805 -36.294 0.592 53.593
15149.792 0.593 53.545 0.804 -36.342 0.804 -36.342 0.593 53.545
15174.75 0.593 53.498 0.804 -36.39 0.804 -36.39 0.593 53.498
15199.708 0.594 53.45 0.803 -36.438 0.803 -36.438 0.594 53.45
15224.667 0.595 53.402 0.803 -36.485 0.803 -36.485 0.595 53.402
15249.625 0.595 53.355 0.802 -36.533 0.802 -36.533 0.595 53.355
15274.583 0.596 53.308 0.802 -36.58 0.802 -36.58 0.596 53.308
15299.542 0.597 53.26 0.801 -36.628 0.801 -36.628 0.597 53.26
15324.5 0.597 53.213 0.801 -36.675 0.801 -36.675 0.597 53.213
15349.458 0.598 53.166 0.8 -36.723 0.8 -36.723 0.598 53.166
15374.417 0.599 53.119 0.8 -36.77 0.8 -36.77 0.599 53.119
15399.375 0.599 53.072 0.799 -36.817 0.799 -36.817 0.599 53.072
15424.333 0.6 53.025 0.799 -36.865 0.799 -36.865 0.6 53.025
15449.292 0.601 52.978 0.798 -36.912 0.798 -36.912 0.601 52.978
15474.25 0.601 52.931 0.798 -36.959 0.798 -36.959 0.601 52.931
15499.208 0.602 52.884 0.797 -37.006 0.797 -37.006 0.602 52.884
15524.167 0.603 52.837 0.797 -37.053 0.797 -37.053 0.603 52.837
15549.125 0.603 52.791 0.796 -37.1 0.796 -37.1 0.603 52.791
15574.083 0.604 52.744 0.796 -37.146 0.796 -37.146 0.604 52.744
15599.042 0.605 52.697 0.795 -37.193 0.795 -37.193 0.605 52.697
15624 0.605 52.651 0.795 -37.24 0.795 -37.24 0.605 52.651
15648.958 0.606 52.605 0.794 -37.286 0.794 -37.286 0.606 52.605
15673.917 0.606 52.558 0.794 -37.333 0.794 -37.333 0.606 52.558
15698.875 0.607 52.512 0.793 -37.38 0.793 -37.38 0.607 52.512
15723.833 0.608 52.466 0.793 -37.426 0.793 -37.426 0.608 52.466
15748.792 0.608 52.419 0.792 -37.472 0.792 -37.472 0.608 52.419
15773.75 0.609 52.373 0.792 -37.519 0.792 -37.519 0.609 52.373
15798.708 0.61 52.327 0.792 -37.565 0.792 -37.565 0.61 52.327
15823.667 0.61 52.281 0.791 -37.611 0.791 -37.611 0.61 52.281
15848.625 0.611 52.235 0.791 -37.657 0.791 -37.657 0.611 52.235
15873.583 0.612 52.189 0.79 -37.703 0.79 -37.703 0.612 52.189
15898.542 0.612 52.143 0.79 -37.749 0.79 -37.749 0.612 52.143
15923.5 0.613 52.098 0.789 -37.795 0.789 -37.795 0.613 52.098
15948.458 0.613 52.052 0.789 -37.841 0.789 -37.841 0.613 52.052
15973.417 0.614 52.006 0.788 -37.887 0.788 -37.887 0.614 52.006
15998.375 0.615 51.961 0.788 -37.933 0.788 -37.933 0.615 51.961
16023.333 0.615 51.915 0.787 -37.979 0.787 -37.979 0.615 51.915
16048.292 0.616 51.87 0.787 -38.024 0.787 -38.024 0.616 51.87
16073.25 0.617 51.824 0.786 -38.07 0.786 -38.07 0.617 51.824
16098.208 0.617 51.779 0.786 -38.115 0.786 -38.115 0.617 51.779
16123.167 0.618 51.734 0.785 -38.161 0.785 -38.161 0.618 51.734
16148.125 0.618 51.688 0.785 -38.206 0.785 -38.206 0.618 51.688
16173.083 0.619 51.643 0.784 -38.251 0.784 -38.251 0.619 51.643
16198.042 0.62 51.598 0.784 -38.297 0.784 -38.297 0.62 51.598
16223 0.62 51.553 0.783 -38.342 0.783 -38.342 0.62 51.553
16247.958 0.621 51.508 0.783 -38.387 0.783 -38.387 0.621 51.508
16272.917 0.622 51.463 0.782 -38.432 0.782 -38.432 0.622 51.463
16297.875 0.622 51.418 0.782 -38.477 0.782 -38.477 0.622 51.418
16322.833 0.623 51.373 0.781 -38.522 0.781 -38.522 0.623 51.373
16347.792 0.623 51.329 0.781 -38.567 0.781 -38.567 0.623 51.329
16372.75 0.624 51.284 0.78 -38.612 0.78 -38.612 0.624 51.284
16397.708 0.625 51.239 0.78 -38.657 0.78 -38.657 0.625 51.239
16422.667 0.625 51.195 0.779 -38.702 0.779 -38.702 0.625 51.195
16447.625 0.626 51.15 0.779 -38.746 0.779 -38.746 0.626 51.15
16472.583 0.626 51.106 0.778 -38.791 0.778 -38.791 0.626 51.106
16497.542 0.627 51.061 0.778 -38.836 0.778 -38.836 0.627 51.061
16522.5 0.628 51.017 0.777 -38.88 0.777 -38.88 0.628 51.017
16547.458 0.628 50.973 0.777 -38.925 0.777 -38.925 0.628 50.973
16572.417 0.629 50.928 0.776 -38.969 0.776 -38.969 0.629 50.928
16597.375 0.63 50.884 0.776 -39.013 0.776 -39.013 0.63 50.884
16622.333 0.63 50.84 0.775 -39.058 0.775 -39.058 0.63 50.84
16647.292 0.631 50.796 0.775 -39.102 0.775 -39.102 0.631 50.796
16672.25 0.631 50.752 0.774 -39.146 0.774 -39.146 0.631 50.752
16697.208 0.632 50.708 0.774 -39.19 0.774 -39.19 0.632 50.708
16722.167 0.632 50.664 0.773 -39.234 0.773 -39.234 0.632 50.664
16747.125 0.633 50.62 0.773 -39.278 0.773 -39.278 0.633 50.62
16772.083 0.634 50.577 0.772 -39.322 0.772 -39.322 0.634 50.577
16797.042 0.634 50.533 0.772 -39.366 0.772 -39.366 0.634 50.533
16822 0.635 50.489 0.772 -39.41 0.772 -39.41 0.635 50.489
16846.958 0.635 50.446 0.771 -39.453 0.771 -39.453 0.635 50.446
16871.917 0.636 50.402 0.771 -39.497 0.771 -39.497 0.636 50.402
16896.875 0.637 50.359 0.77 -39.541 0.77 -39.541 0.637 50.359
16921.833 0.637 50.315 0.77 -39.584 0.77 -39.584 0.637 50.315
16946.792 0.638 50.272 0.769 -39.628 0.769 -39.628 0.638 50.272
16971.75 0.638 50.229 0.769 -39.671 0.769 -39.671 0.638 50.229
16996.708 0.639 50.185 0.768 -39.715 0.768 -39.715 0.639 50.185
17021.667 0.64 50.142 0.768 -39.758 0.768 -39.758 0.64 50.142
17046.625 0.64 50.099 0.767 -39.801 0.767 -39.801 0.64 50.099
17071.583 0.641 50.056 0.767 -39.845 0.767 -39.845 0.641 50.056
17096.542 0.641 50.013 0.766 -39.888 0.766 -39.888 0.641 50.013
17121.5 0.642 49.97 0.766 -39.931 0.766 -39.931 0.642 49.97
17146.458 0.642 49.927 0.765 -39.974 0.765 -39.974 0.642 49.927
17171.417 0.643 49.884 0.765 -40.017 0.765 -40.017 0.643 49.884
17196.375 0.644 49.841 0.764 -40.06 0.764 -40.06 0.644 49.841
17221.333 0.644 49.799 0.764 -40.103 0.764 -40.103 0.644 49.799
17246.292 0.645 49.756 0.763 -40.146 0.763 -40.146 0.645 49.756
17271.25 0.645 49.713 0.763 -40.188 0.763 -40.188 0.645 49.713
17296.208 0.646 49.671 0.762 -40.231 0.762 -40.231 0.646 49.671
17321.167 0.646 49.628 0.762 -40.274 0.762 -40.274 0.646 49.628
17346.125 0.647 49.586 0.761 -40.316 0.761 -40.316 0.647 49.586
17371.083 0.648 49.543 0.761 -40.359 0.761 -40.359 0.648 49.543
17396.042 0.648 49.501 0.76 -40.401 0.76 -40.401 0.648 49.501
17421 0.649 49.459 0.76 -40.444 0.76 -40.444 0.649 49.459
17445.958 0.649 49.416 0.759 -40.486 0.759 -40.486 0.649 49.416
17470.917 0.65 49.374 0.759 -40.529 0.759 -40.529 0.65 49.374
17495.875 0.65 49.332 0.759 -40.571 0.759 -40.571 0.65 49.332
17520.833 0.651 49.29 0.758 -40.613 0.758 -40.613 0.651 49.29
17545.792 0.652 49.248 0.758 -40.655 0.758 -40.655 0.652 49.248
17570.75 0.652 49.206 0.757 -40.697 0.757 -40.697 0.652 49.206
17595.708 0.653 49.164 0.757 -40.739 0.757 -40.739 0.653 49.164
17620.667 0.653 49.122 0.756 -40.781 0.756 -40.781 0.653 49.122
17645.625 0.654 49.081 0.756 -40.823 0.756 -40.823 0.654 49.081
17670.583 0.654 49.039 0.755 -40.865 0.755 -40.865 0.654 49.039
17695.542 0.655 48.997 0.755 -40.907 0.755 -40.907 0.655 48.997
17720.5 0.655 48.956 0.754 -40.949 0.754 -40.949 0.655 48.956
17745.458 0.656 48.914 0.754 -40.991 0.754 -40.991 0.656 48.914
17770.417 0.656 48.872 0.753 -41.032 0.753 -41.032 0.656 48.872
17795.375 0.657 48.831 0.753 -41.074 0.753 -41.074 0.657 48.831
17820.333 0.658 48.79 0.752 -41.115 0.752 -41.115 0.658 48.79
17845.292 0.658 48.748 0.752 -41.157 0.752 -41.157 0.658 48.748
17870.25 0.659 48.707 0.751 -41.198 0.751 -41.198 0.659 48.707
17895.208 0.659 48.666 0.751 -41.24 0.751 -41.24 0.659 48.666
17920.167 0.66 48.624 0.75 -41.281 0.75 -41.281 0.66 48.624
17945.125 0.66 48.583 0.75 -41.322 0.75 -41.322 0.66 48.583
17970.083 0.661 48.542 0.749 -41.363 0.749 -41.363 0.661 48.542
17995.042 0.661 48.501 0.749 -41.405 0.749 -41.405 0.661 48.501
18020 0.662 48.46 0.748 -41.446 0.748 -41.446 0.662 48.46
18044.958 0.662 48.419 0.748 -41.487 0.748 -41.487 0.662 48.419
18069.917 0.663 48.378 0.748 -41.528 0.748 -41.528 0.663 48.378
18094.875 0.664 48.338 0.747 -41.569 0.747 -41.569 0.664 48.338
18119.833 0.664 48.297 0.747 -41.61 0.747 -41.61 0.664 48.297
18144.792 0.665 48.256 0.746 -41.65 0.746 -41.65 0.665 48.256
18169.75 0.665 48.216 0.746 -41.691 0.746 -41.691 0.665 48.216
18194.708 0.666 48.175 0.745 -41.732 0.745 -41.732 0.666 48.175
18219.667 0.666 48.134 0.745 -41.773 0.745 -41.773 0.666 48.134
18244.625 0.667 48.094 0.744 -41.813 0.744 -41.813 0.667 48.094
18269.583 0.667 48.053 0.744 -41.854 0.744 -41.854 0.667 48.053
18294.542 0.668 48.013 0.743 -41.894 0.743 -41.894 0.668 48.013
18319.5 0.668 47.973 0.743 -41.935 0.743 -41.935 0.668 47.973
18344.458 0.669 47.932 0.742 -41.975 0.742 -41.975 0.669 47.932
18369.417 0.669 47.892 0.742 -42.016 0.742 -42.016 0.669 47.892
18394.375 0.67 47.852 0.741 -42.056 0.741 -42.056 0.67 47.852
18419.333 0.67 47.812 0.741 -42.096 0.741 -42.096 0.67 47.812
18444.292 0.671 47.772 0.74 -42.136 0.74 -42.136 0.671 47.772
18469.25 0.671 47.732 0.74 -42.176 0.74 -42.176 0.671 47.732
18494.208 0.672 47.692 0.74 -42.217 0.74 -42.217 0.672 47.692
18519.167 0.672 47.652 0.739 -42.257 0.739 -42.257 0.672 47.652
18544.125 0.673 47.612 0.739 -42.297 0.739 -42.297 0.673 47.612
18569.083 0.673 47.572 0.738 -42.337 0.738 -42.337 0.673 47.572
18594.042 0.674 47.533 0.738 -42.376 0.738 -42.376 0.674 47.533
18619 0.675 47.493 0.737 -42.416 0.737 -42.416 0.675 47.493
18643.958 0.675 47.453 0.737 -42.456 0.737 -42.456 0.675 47.453
18668.917 0.676 47.414 0.736 -42.496 0.736 -42.496 0.676 47.414
18693.875 0.676 47.374 0.736 -42.535 0.736 -42.535 0.676 47.374
18718.833 0.677 47.335 0.735 -42.575 0.735 -42.575 0.677 47.335
18743.792 0.677 47.295 0.735 -42.615 0.735 -42.615 0.677 47.295
18768.75 0.678 47.256 0.734 -42.654 0.734 -42.654 0.678 47.256
18793.708 0.678 47.216 0.734 -42.694 0.734 -42.694 0.678 47.216
18818.667 0.679 47.177 0.733 -42.733 0.733 -42.733 0.679 47.177
18843.625 0.679 47.138 0.733 -42.772 0.733 -42.772 0.679 47.138
18868.583 0.68 47.099 0.733 -42.812 0.733 -42.812 0.68 47.099
18893.542 0.68 47.06 0.732 -42.851 0.732 -42.851 0.68 47.06
18918.5 0.681 47.021 0.732 -42.89 0.732 -42.89 0.681 47.021
18943.458 0.681 46.982 0.731 -42.929 0.731 -42.929 0.681 46.982
18968.417 0.682 46.943 0.731 -42.968 0.731 -42.968 0.682 46.943
18993.375 0.682 46.904 0.73 -43.007 0.73 -43.007 0.682 46.904
19018.333 0.683 46.865 0.73 -43.046 0.73 -43.046 0.683 46.865
19043.292 0.683 46.826 0.729 -43.085 0.729 -43.085 0.683 46.826
19068.25 0.684 46.787 0.729 -43.124 0.729 -43.124 0.684 46.787
19093.208 0.684 46.748 0.728 -43.163 0.728 -43.163 0.684 46.748
19118.167 0.685 46.71 0.728 -43.202 0.728 -43.202 0.685 46.71
19143.125 0.685 46.671 0.727 -43.241 0.727 -43.241 0.685 46.671
19168.083 0.686 46.633 0.727 -43.279 0.727 -43.279 0.686 46.633
19193.042 0.686 46.594 0.727 -43.318 0.727 -43.318 0.686 46.594
19218 0.687 46.556 0.726 -43.356 0.726 -43.356 0.687 46.556
19242.958 0.687 46.517 0.726 -43.395 0.726 -43.395 0.687 46.517
19267.917 0.688 46.479 0.725 -43.433 0.725 -43.433 0.688 46.479
19292.875 0.688 46.441 0.725 -43.472 0.725 -43.472 0.688 46.441
19317.833 0.688 46.402 0.724 -43.51 0.724 -43.51 0.688 46.402
19342.792 0.689 46.364 0.724 -43.549 0.724 -43.549 0.689 46.364
19367.75 0.689 46.326 0.723 -43.587 0.723 -43.587 0.689 46.326
19392.708 0.69 46.288 0.723 -43.625 0.723 -43.625 0.69 46.288
19417.667 0.69 46.25 0.722 -43.663 0.722 -43.663 0.69 46.25
19442.625 0.691 46.212 0.722 -43.701 0.722 -43.701 0.691 46.212
19467.583 0.691 46.174 0.721 -43.739 0.721 -43.739 0.691 46.174
19492.542 0.692 46.136 0.721 -43.778 0.721 -43.778 0.692 46.136
19517.5 0.692 46.098 0.721 -43.815 0.721 -43.815 0.692 46.098
19542.458 0.693 46.06 0.72 -43.853 0.72 -43.853 0.693 46.06
19567.417 0.693 46.022 0.72 -43.891 0.72 -43.891 0.693 46.022
19592.375 0.694 45.985 0.719 -43.929 0.719 -43.929 0.694 45.985
19617.333 0.694 45.947 0.719 -43.967 0.719 -43.967 0.694 45.947
19642.292 0.695 45.909 0.718 -44.005 0.718 -44.005 0.695 45.909
19667.25 0.695 45.872 0.718 -44.042 0.718 -44.042 0.695 45.872
19692.208 0.696 45.834 0.717 -44.08 0.717 -44.08 0.696 45.834
19717.167 0.696 45.797 0.717 -44.118 0.717 -44.118 0.696 45.797
19742.125 0.697 45.759 0.716 -44.155 0.716 -44.155 0.697 45.759
19767.083 0.697 45.722 0.716 -44.193 0.716 -44.193 0.697 45.722
19792.042 0.698 45.685 0.716 -44.23 0.716 -44.23 0.698 45.685
19817 0.698 45.647 0.715 -44.267 0.715 -44.267 0.698 45.647
19841.958 0.698 45.61 0.715 -44.305 0.715 -44.305 0.698 45.61
19866.917 0.699 45.573 0.714 -44.342 0.714 -44.342 0.699 45.573
19891.875 0.699 45.536 0.714 -44.379 0.714 -44.379 0.699 45.536
19916.833 0.7 45.499 0.713 -44.416 0.713 -44.416 0.7 45.499
19941.792 0.7 45.462 0.713 -44.454 0.713 -44.454 0.7 45.462
19966.75 0.701 45.425 0.712 -44.491 0.712 -44.491 0.701 45.425
19991.708 0.701 45.388 0.712 -44.528 0.712 -44.528 0.701 45.388
20016.667 0.702 45.351 0.711 -44.565 0.711 -44.565 0.702 45.351
20041.625 0.702 45.314 0.711 -44.602 0.711 -44.602 0.702 45.314
20066.583 0.703 45.277 0.711 -44.638 0.711 -44.638 0.703 45.277
20091.542 0.703 45.241 0.71 -44.675 0.71 -44.675 0.703 45.241
20116.5 0.704 45.204 0.71 -44.712 0.71 -44.712 0.704 45.204
20141.458 0.704 45.167 0.709 -44.749 0.709 -44.749 0.704 45.167
20166.417 0.704 45.131 0.709 -44.786 0.709 -44.786 0.704 45.131
20191.375 0.705 45.094 0.708 -44.822 0.708 -44.822 0.705 45.094
20216.333 0.705 45.058 0.708 -44.859 0.708 -44.859 0.705 45.058
20241.292 0.706 45.021 0.707 -44.895 0.707 -44.895 0.706 45.021
20266.25 0.706 44.985 0.707 -44.932 0.707 -44.932 0.706 44.985
20291.208 0.707 44.949 0.706 -44.968 0.706 -44.968 0.707 44.949
20316.167 0.707 44.912 0.706 -45.005 0.706 -45.005 0.707 44.912
20341.125 0.708 44.876 0.706 -45.041 0.706 -45.041 0.708 44.876
20366.083 0.708 44.84 0.705 -45.077 0.705 -45.077 0.708 44.84
20391.042 0.709 44.804 0.705 -45.114 0.705 -45.114 0.709 44.804
20416 0.709 44.767 0.704 -45.15 0.704 -45.15 0.709 44.767
20440.958 0.709 44.731 0.704 -45.186 0.704 -45.186 0.709 44.731
20465.917 0.71 44.695 0.703 -45.222 0.703 -45.222 0.71 44.695
20490.875 0.71 44.659 0.703 -45.258 0.703 -45.258 0.71 44.659
20515.833 0.711 44.623 0.702 -45.294 0.702 -45.294 0.711 44.623
20540.792 0.711 44.588 0.702 -45.33 0.702 -45.33 0.711 44.588
20565.75 0.712 44.552 0.702 -45.366 0.702 -45.366 0.712 44.552
20590.708 0.712 44.516 0.701 -45.402 0.701 -45.402 0.712 44.516
20615.667 0.712 44.48 0.701 -45.438 0.701 -45.438 0.712 44.48
20640.625 0.713 44.444 0.7 -45.474 0.7 -45.474 0.713 44.444
20665.583 0.713 44.409 0.7 -45.51 0.7 -45.51 0.713 44.409
20690.542 0.714 44.373 0.699 -45.545 0.699 -45.545 0.714 44.373
20715.5 0.714 44.338 0.699 -45.581 0.699 -45.581 0.714 44.338
20740.458 0.715 44.302 0.698 -45.617 0.698 -45.617 0.715 44.302
20765.417 0.715 44.267 0.698 -45.652 0.698 -45.652 0.715 44.267
20790.375 0.716 44.231 0.698 -45.688 0.698 -45.688 0.716 44.231
20815.333 0.716 44.196 0.697 -45.723 0.697 -45.723 0.716 44.196
20840.292 0.716 44.161 0.697 -45.759 0.697 -45.759 0.716 44.161
20865.25 0.717 44.125 0.696 -45.794 0.696 -45.794 0.717 44.125
20890.208 0.717 44.09 0.696 -45.829 0.696 -45.829 0.717 44.09
20915.167 0.718 44.055 0.695 -45.865 0.695 -45.865 0.718 44.055
20940.125 0.718 44.02 0.695 -45.9 0.695 -45.9 0.718 44.02
20965.083 0.719 43.985 0.694 -45.935 0.694 -45.935 0.719 43.985
20990.042 0.719 43.95 0.694 -45.97 0.694 -45.97 0.719 43.95
21015 0.719 43.915 0.694 -46.005 0.694 -46.005 0.719 43.915
21039.958 0.72 43.88 0.693 -46.04 0.693 -46.04 0.72 43.88
21064.917 0.72 43.845 0.693 -46.075 0.693 -46.075 0.72 43.845
21089.875 0.721 43.81 0.692 -46.11 0.692 -46.11 0.721 43.81
21114.833 0.721 43.775 0.692 -46.145 0.692 -46.145 0.721 43.775
21139.792 0.722 43.74 0.691 -46.18 0.691 -46.18 0.722 43.74
21164.75 0.722 43.705 0.691 -46.215 0.691 -46.215 0.722 43.705
21189.708 0.722 43.671 0.691 -46.25 0.691 -46.25 0.722 43.671
21214.667 0.723 43.636 0.69 -46.284 0.69 -46.284 0.723 43.636
21239.625 0.723 43.602 0.69 -46.319 0.69 -46.319 0.723 43.602
21264.583 0.724 43.567 0.689 -46.354 0.689 -46.354 0.724 43.567
21289.542 0.724 43.532 0.689 -46.388 0.689 -46.388 0.724 43.532
21314.5 0.724 43.498 0.688 -46.423 0.688 -46.423 0.724 43.498
21339.458 0.725 43.464 0.688 -46.458 0.688 -46.458 0.725 43.464
21364.417 0.725 43.429 0.687 -46.492 0.687 -46.492 0.725 43.429
21389.375 0.726 43.395 0.687 -46.526 0.687 -46.526 0.726 43.395
21414.333 0.726 43.361 0.687 -46.561 0.687 -46.561 0.726 43.361
21439.292 0.727 43.326 0.686 -46.595 0.686 -46.595 0.727 43.326
21464.25 0.727 43.292 0.686 -46.629 0.686 -46.629 0.727 43.292
21489.208 0.727 43.258 0.685 -46.664 0.685 -46.664 0.727 43.258
21514.167 0.728 43.224 0.685 -46.698 0.685 -46.698 0.728 43.224
21539.125 0.728 43.19 0.684 -46.732 0.684 -46.732 0.728 43.19
21564.083 0.729 43.156 0.684 -46.766 0.684 -46.766 0.729 43.156
21589.042 0.729 43.122 0.684 -46.8 0.684 -46.8 0.729 43.122
21614 0.729 43.088 0.683 -46.834 0.683 -46.834 0.729 43.088
21638.958 0.73 43.054 0.683 -46.868 0.683 -46.868 0.73 43.054
21663.917 0.73 43.02 0.682 -46.902 0.682 -46.902 0.73 43.02
21688.875 0.731 42.986 0.682 -46.936 0.682 -46.936 0.731 42.986
21713.833 0.731 42.953 0.681 -46.97 0.681 -46.97 0.731 42.953
21738.792 0.731 42.919 0.681 -47.004 0.681 -47.004 0.731 42.919
21763.75 0.732 42.885 0.681 -47.037 0.681 -47.037 0.732 42.885
21788.708 0.732 42.852 0.68 -47.071 0.68 -47.071 0.732 42.852
21813.667 0.733 42.818 0.68 -47.105 0.68 -47.105 0.733 42.818
21838.625 0.733 42.784 0.679 -47.138 0.679 -47.138 0.733 42.784
21863.583 0.733 42.751 0.679 -47.172 0.679 -47.172 0.733 42.751
21888.542 0.734 42.718 0.678 -47.206 0.678 -47.206 0.734 42.718
21913.5 0.734 42.684 0.678 -47.239 0.678 -47.239 0.734 42.684
21938.458 0.735 42.651 0.678 -47.273 0.678 -47.273 0.735 42.651
21963.417 0.735 42.617 0.677 -47.306 0.677 -47.306 0.735 42.617
21988.375 0.735 42.584 0.677 -47.339 0.677 -47.339 0.735 42.584
22013.333 0.736 42.551 0.676 -47.373 0.676 -47.373 0.736 42.551
22038.292 0.736 42.518 0.676 -47.406 0.676 -47.406 0.736 42.518
22063.25 0.737 42.485 0.675 -47.439 0.675 -47.439 0.737 42.485
22088.208 0.737 42.451 0.675 -47.472 0.675 -47.472 0.737 42.451
22113.167 0.737 42.418 0.675 -47.506 0.675 -47.506 0.737 42.418
22138.125 0.738 42.385 0.674 -47.539 0.674 -47.539 0.738 42.385
22163.083 0.738 42.352 0.674 -47.572 0.674 -47.572 0.738 42.352
22188.042 0.739 42.319 0.673 -47.605 0.673 -47.605 0.739 42.319
22213 0.739 42.287 0.673 -47.638 0.673 -47.638 0.739 42.287
22237.958 0.739 42.254 0.672 -47.671 0.672 -47.671 0.739 42.254
22262.917 0.74 42.221 0.672 -47.704 0.672 -47.704 0.74 42.221
22287.875 0.74 42.188 0.672 -47.736 0.672 -47.736 0.74 42.188
22312.833 0.74 42.155 0.671 -47.769 0.671 -47.769 0.74 42.155
22337.792 0.741 42.123 0.671 -47.802 0.671 -47.802 0.741 42.123
22362.75 0.741 42.09 0.67 -47.835 0.67 -47.835 0.741 42.09
22387.708 0.742 42.057 0.67 -47.867 0.67 -47.867 0.742 42.057
22412.667 0.742 42.025 0.669 -47.9 0.669 -47.9 0.742 42.025
22437.625 0.742 41.992 0.669 -47.933 0.669 -47.933 0.742 41.992
22462.583 0.743 41.96 0.669 -47.965 0.669 -47.965 0.743 41.96
22487.542 0.743 41.928 0.668 -47.998 0.668 -47.998 0.743 41.928
22512.5 0.743 41.895 0.668 -48.03 0.668 -48.03 0.743 41.895
22537.458 0.744 41.863 0.667 -48.063 0.667 -48.063 0.744 41.863
22562.417 0.744 41.83 0.667 -48.095 0.667 -48.095 0.744 41.83
22587.375 0.745 41.798 0.667 -48.127 0.667 -48.127 0.745 41.798
22612.333 0.745 41.766 0.666 -48.16 0.666 -48.16 0.745 41.766
22637.292 0.745 41.734 0.666 -48.192 0.666 -48.192 0.745 41.734
22662.25 0.746 41.702 0.665 -48.224 0.665 -48.224 0.746 41.702
22687.208 0.746 41.67 0.665 -48.256 0.665 -48.256 0.746 41.67
22712.167 0.747 41.637 0.664 -48.289 0.664 -48.289 0.747 41.637
22737.125 0.747 41.605 0.664 -48.321 0.664 -48.321 0.747 41.605
22762.083 0.747 41.573 0.664 -48.353 0.664 -48.353 0.747 41.573
22787.042 0.748 41.542 0.663 -48.385 0.663 -48.385 0.748 41.542
22812 0.748 41.51 0.663 -48.417 0.663 -48.417 0.748 41.51
22836.958 0.748 41.478 0.662 -48.449 0.662 -48.449 0.748 41.478
22861.917 0.749 41.446 0.662 -48.48 0.662 -48.48 0.749 41.446
22886.875 0.749 41.414 0.661 -48.512 0.661 -48.512 0.749 41.414
22911.833 0.749 41.382 0.661 -48.544 0.661 -48.544 0.749 41.382
22936.792 0.75 41.351 0.661 -48.576 0.661 -48.576 0.75 41.351
22961.75 0.75 41.319 0.66 -48.608 0.66 -48.608 0.75 41.319
22986.708 0.751 41.288 0.66 -48.639 0.66 -48.639 0.751 41.288
23011.667 0.751 41.256 0.659 -48.671 0.659 -48.671 0.751 41.256
23036.625 0.751 41.224 0.659 -48.703 0.659 -48.703 0.751 41.224
23061.583 0.752 41.193 0.659 -48.734 0.659 -48.734 0.752 41.193
23086.542 0.752 41.162 0.658 -48.766 0.658 -48.766 0.752 41.162
23111.5 0.752 41.13 0.658 -48.797 0.658 -48.797 0.752 41.13
23136.458 0.753 41.099 0.657 -48.829 0.657 -48.829 0.753 41.099
23161.417 0.753 41.067 0.657 -48.86 0.657 -48.86 0.753 41.067
23186.375 0.753 41.036 0.657 -48.891 0.657 -48.891 0.753 41.036
23211.333 0.754 41.005 0.656 -48.923 0.656 -48.923 0.754 41.005
23236.292 0.754 40.974 0.656 -48.954 0.656 -48.954 0.754 40.974
23261.25 0.755 40.942 0.655 -48.985 0.655 -48.985 0.755 40.942
23286.208 0.755 40.911 0.655 -49.017 0.655 -49.017 0.755 40.911
23311.167 0.755 40.88 0.654 -49.048 0.654 -49.048 0.755 40.88
23336.125 0.756 40.849 0.654 -49.079 0.654 -49.079 0.756 40.849
23361.083 0.756 40.818 0.654 -49.11 0.654 -49.11 0.756 40.818
23386.042 0.756 40.787 0.653 -49.141 0.653 -49.141 0.756 40.787
23411 0.757 40.756 0.653 -49.172 0.653 -49.172 0.757 40.756
23435.958 0.757 40.725 0.652 -49.203 0.652 -49.203 0.757 40.725
23460.917 0.757 40.695 0.652 -49.234 0.652 -49.234 0.757 40.695
23485.875 0.758 40.664 0.652 -49.265 0.652 -49.265 0.758 40.664
23510.833 0.758 40.633 0.651 -49.296 0.651 -49.296 0.758 40.633
23535.792 0.758 40.602 0.651 -49.326 0.651 -49.326 0.758 40.602
23560.75 0.759 40.572 0.65 -49.357 0.65 -49.357 0.759 40.572
23585.708 0.759 40.541 0.65 -49.388 0.65 -49.388 0.759 40.541
23610.667 0.759 40.51 0.65 -49.419 0.65 -49.419 0.759 40.51
23635.625 0.76 40.48 0.649 -49.449 0.649 -49.449 0.76 40.48
23660.583 0.76 40.449 0.649 -49.48 0.649 -49.48 0.76 40.449
23685.542 0.761 40.419 0.648 -49.51 0.648 -49.51 0.761 40.419
23710.5 0.761 40.388 0.648 -49.541 0.648 -49.541 0.761 40.388
23735.458 0.761 40.358 0.648 -49.571 0.648 -49.571 0.761 40.358
23760.417 0.762 40.327 0.647 -49.602 0.647 -49.602 0.762 40.327
23785.375 0.762 40.297 0.647 -49.632 0.647 -49.632 0.762 40.297
23810.333 0.762 40.267 0.646 -49.663 0.646 -49.663 0.762 40.267
23835.292 0.763 40.236 0.646 -49.693 0.646 -49.693 0.763 40.236
23860.25 0.763 40.206 0.646 -49.723 0.646 -49.723 0.763 40.206
23885.208 0.763 40.176 0.645 -49.754 0.645 -49.754 0.763 40.176
23910.167 0.764 40.146 0.645 -49.784 0.645 -49.784 0.764 40.146
23935.125 0.764 40.116 0.644 -49.814 0.644 -49.814 0.764 40.116
23960.083 0.764 40.086 0.644 -49.844 0.644 -49.844 0.764 40.086
23985.042 0.765 40.056 0.644 -49.874 0.644 -49.874 0.765 40.056
24010 0.765 40.026 0.643 -49.904 0.643 -49.904 0.765 40.026
24034.958 0.765 39.996 0.643 -49.934 0.643 -49.934 0.765 39.996
24059.917 0.766 39.966 0.642 -49.964 0.642 -49.964 0.766 39.966
24084.875 0.766 39.936 0.642 -49.994 0.642 -49.994 0.766 39.936
24109.833 0.766 39.906 0.642 -50.024 0.642 -50.024 0.766 39.906
24134.792 0.767 39.876 0.641 -50.054 0.641 -50.054 0.767 39.876
24159.75 0.767 39.846 0.641 -50.084 0.641 -50.084 0.767 39.846
24184.708 0.767 39.817 0.64 -50.114 0.64 -50.114 0.767 39.817
24209.667 0.768 39.787 0.64 -50.144 0.64 -50.144 0.768 39.787
24234.625 0.768 39.757 0.64 -50.173 0.64 -50.173 0.768 39.757
24259.583 0.768 39.728 0.639 -50.203 0.639 -50.203 0.768 39.728
24284.542 0.769 39.698 0.639 -50.233 0.639 -50.233 0.769 39.698
24309.5 0.769 39.669 0.638 -50.262 0.638 -50.262 0.769 39.669
24334.458 0.769 39.639 0.638 -50.292 0.638 -50.292 0.769 39.639
24359.417 0.77 39.61 0.638 -50.321 0.638 -50.321 0.77 39.61
24384.375 0.77 39.58 0.637 -50.351 0.637 -50.351 0.77 39.58
24409.333 0.77 39.551 0.637 -50.38 0.637 -50.38 0.77 39.551
24434.292 0.771 39.521 0.636 -50.41 0.636 -50.41 0.771 39.521
24459.25 0.771 39.492 0.636 -50.439 0.636 -50.439 0.771 39.492
24484.208 0.771 39.463 0.636 -50.469 0.636 -50.469 0.771 39.463
24509.167 0.772 39.434 0.635 -50.498 0.635 -50.498 0.772 39.434
24534.125 0.772 39.404 0.635 -50.527 0.635 -50.527 0.772 39.404
24559.083 0.772 39.375 0.634 -50.556 0.634 -50.556 0.772 39.375
24584.042 0.773 39.346 0.634 -50.586 0.634 -50.586 0.773 39.346
24609 0.773 39.317 0.634 -50.615 0.634 -50.615 0.773 39.317
24633.958 0.773 39.288 0.633 -50.644 0.633 -50.644 0.773 39.288
24658.917 0.774 39.259 0.633 -50.673 0.633 -50.673 0.774 39.259
24683.875 0.774 39.23 0.632 -50.702 0.632 -50.702 0.774 39.23
24708.833 0.774 39.201 0.632 -50.731 0.632 -50.731 0.774 39.201
24733.792 0.775 39.172 0.632 -50.76 0.632 -50.76 0.775 39.172
24758.75 0.775 39.143 0.631 -50.789 0.631 -50.789 0.775 39.143
24783.708 0.775 39.114 0.631 -50.818 0.631 -50.818 0.775 39.114
24808.667 0.775 39.085 0.63 -50.847 0.63 -50.847 0.775 39.085
24833.625 0.776 39.057 0.63 -50.876 0.63 -50.876 0.776 39.057
24858.583 0.776 39.028 0.63 -50.905 0.63 -50.905 0.776 39.028
24883.542 0.776 38.999 0.629 -50.933 0.629 -50.933 0.776 38.999
24908.5 0.777 38.971 0.629 -50.962 0.629 -50.962 0.777 38.971
24933.458 0.777 38.942 0.629 -50.991 0.629 -50.991 0.777 38.942
24958.417 0.777 38.913 0.628 -51.019 0.628 -51.019 0.777 38.913
24983.375 0.778 38.885 0.628 -51.048 0.628 -51.048 0.778 38.885
25008.333 0.778 38.856 0.627 -51.077 0.627 -51.077 0.778 38.856
25033.292 0.778 38.828 0.627 -51.105 0.627 -51.105 0.778 38.828
25058.25 0.779 38.799 0.627 -51.134 0.627 -51.134 0.779 38.799
25083.208 0.779 38.771 0.626 -51.162 0.626 -51.162 0.779 38.771
25108.167 0.779 38.743 0.626 -51.191 0.626 -51.191 0.779 38.743
25133.125 0.78 38.714 0.625 -51.219 0.625 -51.219 0.78 38.714
25158.083 0.78 38.686 0.625 -51.247 0.625 -51.247 0.78 38.686
25183.042 0.78 38.658 0.625 -51.276 0.625 -51.276 0.78 38.658
25208 0.78 38.629 0.624 -51.304 0.624 -51.304 0.78 38.629
25232.958 0.781 38.601 0.624 -51.332 0.624 -51.332 0.781 38.601
25257.917 0.781 38.573 0.624 -51.361 0.624 -51.361 0.781 38.573
25282.875 0.781 38.545 0.623 -51.389 0.623 -51.389 0.781 38.545
25307.833 0.782 38.517 0.623 -51.417 0.623 -51.417 0.782 38.517
25332.792 0.782 38.489 0.622 -51.445 0.622 -51.445 0.782 38.489
25357.75 0.782 38.461 0.622 -51.473 0.622 -51.473 0.782 38.461
25382.708 0.783 38.433 0.622 -51.501 0.622 -51.501 0.783 38.433
25407.667 0.783 38.405 0.621 -51.529 0.621 -51.529 0.783 38.405
25432.625 0.783 38.377 0.621 -51.557 0.621 -51.557 0.783 38.377
25457.583 0.784 38.349 0.62 -51.585 0.62 -51.585 0.784 38.349
25482.542 0.784 38.321 0.62 -51.613 0.62 -51.613 0.784 38.321
25507.5 0.784 38.293 0.62 -51.641 0.62 -51.641 0.784 38.293
25532.458 0.784 38.265 0.619 -51.669 0.619 -51.669 0.784 38.265
25557.417 0.785 38.238 0.619 -51.697 0.619 -51.697 0.785 38.238
25582.375 0.785 38.21 0.619 -51.724 0.619 -51.724 0.785 38.21
25607.333 0.785 38.182 0.618 -51.752 0.618 -51.752 0.785 38.182
25632.292 0.786 38.155 0.618 -51.78 0.618 -51.78 0.786 38.155
25657.25 0.786 38.127 0.617 -51.808 0.617 -51.808 0.786 38.127
25682.208 0.786 38.1 0.617 -51.835 0.617 -51.835 0.786 38.1
25707.167 0.787 38.072 0.617 -51.863 0.617 -51.863 0.787 38.072
25732.125 0.787 38.044 0.616 -51.89 0.616 -51.89 0.787 38.044
25757.083 0.787 38.017 0.616 -51.918 0.616 -51.918 0.787 38.017
25782.042 0.787 37.99 0.616 -51.945 0.616 -51.945 0.787 37.99
25807 0.788 37.962 0.615 -51.973 0.615 -51.973 0.788 37.962
25831.958 0.788 37.935 0.615 -52 0.615 -52 0.788 37.935
25856.917 0.788 37.907 0.614 -52.028 0.614 -52.028 0.788 37.907
25881.875 0.789 37.88 0.614 -52.055 0.614 -52.055 0.789 37.88
25906.833 0.789 37.853 0.614 -52.082 0.614 -52.082 0.789 37.853
25931.792 0.789 37.826 0.613 -52.11 0.613 -52.11 0.789 37.826
25956.75 0.789 37.798 0.613 -52.137 0.613 -52.137 0.789 37.798
25981.708 0.79 37.771 0.613 -52.164 0.613 -52.164 0.79 37.771
26006.667 0.79 37.744 0.612 -52.191 0.612 -52.191 0.79 37.744
26031.625 0.79 37.717 0.612 -52.219 0.612 -52.219 0.79 37.717
26056.583 0.791 37.69 0.611 -52.246 0.611 -52.246 0.791 37.69
26081.542 0.791 37.663 0.611 -52.273 0.611 -52.273 0.791 37.663
26106.5 0.791 37.636 0.611 -52.3 0.611 -52.3 0.791 37.636
26131.458 0.792 37.609 0.61 -52.327 0.61 -52.327 0.792 37.609
26156.417 0.792 37.582 0.61 -52.354 0.61 -52.354 0.792 37.582
26181.375 0.792 37.555 0.61 -52.381 0.61 -52.381 0.792 37.555
26206.333 0.792 37.528 0.609 -52.408 0.609 -52.408 0.792 37.528
26231.292 0.793 37.501 0.609 -52.435 0.609 -52.435 0.793 37.501
26256.25 0.793 37.475 0.608 -52.462 0.608 -52.462 0.793 37.475
26281.208 0.793 37.448 0.608 -52.488 0.608 -52.488 0.793 37.448
26306.167 0.794 37.421 0.608 -52.515 0.608 -52.515 0.794 37.421
26331.125 0.794 37.394 0.607 -52.542 0.607 -52.542 0.794 37.394
26356.083 0.794 37.368 0.607 -52.569 0.607 -52.569 0.794 37.368
26381.042 0.794 37.341 0.607 -52.595 0.607 -52.595 0.794 37.341
26406 0.795 37.315 0.606 -52.622 0.606 -52.622 0.795 37.315
26430.958 0.795 37.288 0.606 -52.649 0.606 -52.649 0.795 37.288
26455.917 0.795 37.261 0.605 -52.675 0.605 -52.675 0.795 37.261
26480.875 0.795 37.235 0.605 -52.702 0.605 -52.702 0.795 37.235
26505.833 0.796 37.208 0.605 -52.728 0.605 -52.728 0.796 37.208
26530.792 0.796 37.182 0.604 -52.755 0.604 -52.755 0.796 37.182
26555.75 0.796 37.156 0.604 -52.781 0.604 -52.781 0.796 37.156
26580.708 0.797 37.129 0.604 -52.808 0.604 -52.808 0.797 37.129
26605.667 0.797 37.103 0.603 -52.834 0.603 -52.834 0.797 37.103
26630.625 0.797 37.077 0.603 -52.861 0.603 -52.861 0.797 37.077
26655.583 0.797 37.05 0.603 -52.887 0.603 -52.887 0.797 37.05
26680.542 0.798 37.024 0.602 -52.913 0.602 -52.913 0.798 37.024
26705.5 0.798 36.998 0.602 -52.939 0.602 -52.939 0.798 36.998
26730.458 0.798 36.972 0.601 -52.966 0.601 -52.966 0.798 36.972
26755.417 0.799 36.946 0.601 -52.992 0.601 -52.992 0.799 36.946
26780.375 0.799 36.919 0.601 -53.018 0.601 -53.018 0.799 36.919
26805.333 0.799 36.893 0.6 -53.044 0.6 -53.044 0.799 36.893
26830.292 0.799 36.867 0.6 -53.07 0.6 -53.07 0.799 36.867
26855.25 0.8 36.841 0.6 -53.096 0.6 -53.096 0.8 36.841
26880.208 0.8 36.815 0.599 -53.122 0.599 -53.122 0.8 36.815
26905.167 0.8 36.789 0.599 -53.148 0.599 -53.148 0.8 36.789
26930.125 0.8 36.763 0.599 -53.174 0.599 -53.174 0.8 36.763
26955.083 0.801 36.737 0.598 -53.2 0.598 -53.2 0.801 36.737
26980.042 0.801 36.712 0.598 -53.226 0.598 -53.226 0.801 36.712
27005 0.801 36.686 0.597 -53.252 0.597 -53.252 0.801 36.686
27029.958 0.802 36.66 0.597 -53.278 0.597 -53.278 0.802 36.66
27054.917 0.802 36.634 0.597 -53.304 0.597 -53.304 0.802 36.634
27079.875 0.802 36.608 0.596 -53.33 0.596 -53.33 0.802 36.608
27104.833 0.802 36.583 0.596 -53.355 0.596 -53.355 0.802 36.583
27129.792 0.803 36.557 0.596 -53.381 0.596 -53.381 0.803 36.557
27154.75 0.803 36.531 0.595 -53.407 0.595 -53.407 0.803 36.531
27179.708 0.803 36.506 0.595 -53.433 0.595 -53.433 0.803 36.506
27204.667 0.803 36.48 0.595 -53.458 0.595 -53.458 0.803 36.48
27229.625 0.804 36.455 0.594 -53.484 0.594 -53.484 0.804 36.455
27254.583 0.804 36.429 0.594 -53.509 0.594 -53.509 0.804 36.429
27279.542 0.804 36.404 0.593 -53.535 0.593 -53.535 0.804 36.404
27304.5 0.804 36.378 0.593 -53.56 0.593 -53.56 0.804 36.378
27329.458 0.805 36.353 0.593 -53.586 0.593 -53.586 0.805 36.353
27354.417 0.805 36.327 0.592 -53.611 0.592 -53.611 0.805 36.327
27379.375 0.805 36.302 0.592 -53.637 0.592 -53.637 0.805 36.302
27404.333 0.806 36.277 0.592 -53.662 0.592 -53.662 0.806 36.277
27429.292 0.806 36.252 0.591 -53.687 0.591 -53.687 0.806 36.252
27454.25 0.806 36.226 0.591 -53.713 0.591 -53.713 0.806 36.226
27479.208 0.806 36.201 0.591 -53.738 0.591 -53.738 0.806 36.201
27504.167 0.807 36.176 0.59 -53.763 0.59 -53.763 0.807 36.176
27529.125 0.807 36.151 0.59 -53.789 0.59 -53.789 0.807 36.151
27554.083 0.807 36.125 0.59 -53.814 0.59 -53.814 0.807 36.125
27579.042 0.807 36.1 0.589 -53.839 0.589 -53.839 0.807 36.1
27604 0.808 36.075 0.589 -53.864 0.589 -53.864 0.808 36.075
27628.958 0.808 36.05 0.588 -53.889 0.588 -53.889 0.808 36.05
27653.917 0.808 36.025 0.588 -53.914 0.588 -53.914 0.808 36.025
27678.875 0.808 36 0.588 -53.939 0.588 -53.939 0.808 36
27703.833 0.809 35.975 0.587 -53.964 0.587 -53.964 0.809 35.975
27728.792 0.809 35.95 0.587 -53.989 0.587 -53.989 0.809 35.95
27753.75 0.809 35.925 0.587 -54.014 0.587 -54.014 0.809 35.925
27778.708 0.809 35.901 0.586 -54.039 0.586 -54.039 0.809 35.901
27803.667 0.81 35.876 0.586 -54.064 0.586 -54.064 0.81 35.876
27828.625 0.81 35.851 0.586 -54.089 0.586 -54.089 0.81 35.851
27853.583 0.81 35.826 0.585 -54.114 0.585 -54.114 0.81 35.826
27878.542 0.81 35.801 0.585 -54.139 0.585 -54.139 0.81 35.801
27903.5 0.811 35.777 0.585 -54.163 0.585 -54.163 0.811 35.777
27928.458 0.811 35.752 0.584 -54.188 0.584 -54.188 0.811 35.752
27953.417 0.811 35.727 0.584 -54.213 0.584 -54.213 0.811 35.727
27978.375 0.811 35.703 0.584 -54.238 0.584 -54.238 0.811 35.703
28003.333 0.812 35.678 0.583 -54.262 0.583 -54.262 0.812 35.678
28028.292 0.812 35.654 0.583 -54.287 0.583 -54.287 0.812 35.654
28053.25 0.812 35.629 0.583 -54.311 0.583 -54.311 0.812 35.629
28078.208 0.812 35.604 0.582 -54.336 0.582 -54.336 0.812 35.604
28103.167 0.813 35.58 0.582 -54.36 0.582 -54.36 0.813 35.58
28128.125 0.813 35.556 0.581 -54.385 0.581 -54.385 0.813 35.556
28153.083 0.813 35.531 0.581 -54.409 0.581 -54.409 0.813 35.531
28178.042 0.813 35.507 0.581 -54.434 0.581 -54.434 0.813 35.507
28203 0.814 35.482 0.58 -54.458 0.58 -54.458 0.814 35.482
28227.958 0.814 35.458 0.58 -54.483 0.58 -54.483 0.814 35.458
28252.917 0.814 35.434 0.58 -54.507 0.58 -54.507 0.814 35.434
28277.875 0.814 35.409 0.579 -54.531 0.579 -54.531 0.814 35.409
28302.833 0.815 35.385 0.579 -54.556 0.579 -54.556 0.815 35.385
28327.792 0.815 35.361 0.579 -54.58 0.579 -54.58 0.815 35.361
28352.75 0.815 35.337 0.578 -54.604 0.578 -54.604 0.815 35.337
28377.708 0.815 35.313 0.578 -54.628 0.578 -54.628 0.815 35.313
28402.667 0.816 35.288 0.578 -54.653 0.578 -54.653 0.816 35.288
28427.625 0.816 35.264 0.577 -54.677 0.577 -54.677 0.816 35.264
28452.583 0.816 35.24 0.577 -54.701 0.577 -54.701 0.816 35.24
28477.542 0.816 35.216 0.577 -54.725 0.577 -54.725 0.816 35.216
28502.5 0.817 35.192 0.576 -54.749 0.576 -54.749 0.817 35.192
28527.458 0.817 35.168 0.576 -54.773 0.576 -54.773 0.817 35.168
28552.417 0.817 35.144 0.576 -54.797 0.576 -54.797 0.817 35.144
28577.375 0.817 35.12 0.575 -54.821 0.575 -54.821 0.817 35.12
28602.333 0.818 35.096 0.575 -54.845 0.575 -54.845 0.818 35.096
28627.292 0.818 35.073 0.575 -54.869 0.575 -54.869 0.818 35.073
28652.25 0.818 35.049 0.574 -54.893 0.574 -54.893 0.818 35.049
28677.208 0.818 35.025 0.574 -54.917 0.574 -54.917 0.818 35.025
28702.167 0.819 35.001 0.574 -54.941 0.574 -54.941 0.819 35.001
28727.125 0.819 34.977 0.573 -54.964 0.573 -54.964 0.819 34.977
28752.083 0.819 34.954 0.573 -54.988 0.573 -54.988 0.819 34.954
28777.042 0.819 34.93 0.573 -55.012 0.573 -55.012 0.819 34.93
28802 0.82 34.906 0.572 -55.036 0.572 -55.036 0.82 34.906
28826.958 0.82 34.883 0.572 -55.059 0.572 -55.059 0.82 34.883
28851.917 0.82 34.859 0.572 -55.083 0.572 -55.083 0.82 34.859
28876.875 0.82 34.835 0.571 -55.107 0.571 -55.107 0.82 34.835
28901.833 0.82 34.812 0.571 -55.13 0.571 -55.13 0.82 34.812
28926.792 0.821 34.788 0.571 -55.154 0.571 -55.154 0.821 34.788
28951.75 0.821 34.765 0.57 -55.177 0.57 -55.177 0.821 34.765
28976.708 0.821 34.741 0.57 -55.201 0.57 -55.201 0.821 34.741
29001.667 0.821 34.718 0.57 -55.224 0.57 -55.224 0.821 34.718
29026.625 0.822 34.695 0.569 -55.248 0.569 -55.248 0.822 34.695
29051.583 0.822 34.671 0.569 -55.271 0.569 -55.271 0.822 34.671
29076.542 0.822 34.648 0.569 -55.295 0.569 -55.295 0.822 34.648
29101.5 0.822 34.624 0.568 -55.318 0.568 -55.318 0.822 34.624
29126.458 0.823 34.601 0.568 -55.341 0.568 -55.341 0.823 34.601
29151.417 0.823 34.578 0.568 -55.365 0.568 -55.365 0.823 34.578
29176.375 0.823 34.555 0.567 -55.388 0.567 -55.388 0.823 34.555
29201.333 0.823 34.531 0.567 -55.411 0.567 -55.411 0.823 34.531
29226.292 0.823 34.508 0.567 -55.435 0.567 -55.435 0.823 34.508
29251.25 0.824 34.485 0.566 -55.458 0.566 -55.458 0.824 34.485
29276.208 0.824 34.462 0.566 -55.481 0.566 -55.481 0.824 34.462
29301.167 0.824 34.439 0.566 -55.504 0.566 -55.504 0.824 34.439
29326.125 0.824 34.416 0.565 -55.527 0.565 -55.527 0.824 34.416
29351.083 0.825 34.393 0.565 -55.55 0.565 -55.55 0.825 34.393
29376.042 0.825 34.37 0.565 -55.573 0.565 -55.573 0.825 34.37
29401 0.825 34.347 0.564 -55.597 0.564 -55.597 0.825 34.347
29425.958 0.825 34.324 0.564 -55.62 0.564 -55.62 0.825 34.324
29450.917 0.826 34.301 0.564 -55.643 0.564 -55.643 0.826 34.301
29475.875 0.826 34.278 0.563 -55.666 0.563 -55.666 0.826 34.278
29500.833 0.826 34.255 0.563 -55.688 0.563 -55.688 0.826 34.255
29525.792 0.826 34.232 0.563 -55.711 0.563 -55.711 0.826 34.232
29550.75 0.826 34.209 0.562 -55.734 0.562 -55.734 0.826 34.209
29575.708 0.827 34.186 0.562 -55.757 0.562 -55.757 0.827 34.186
29600.667 0.827 34.164 0.562 -55.78 0.562 -55.78 0.827 34.164
29625.625 0.827 34.141 0.561 -55.803 0.561 -55.803 0.827 34.141
29650.583 0.827 34.118 0.561 -55.826 0.561 -55.826 0.827 34.118
29675.542 0.828 34.095 0.561 -55.848 0.561 -55.848 0.828 34.095
29700.5 0.828 34.073 0.56 -55.871 0.56 -55.871 0.828 34.073
29725.458 0.828 34.05 0.56 -55.894 0.56 -55.894 0.828 34.05
29750.417 0.828 34.027 0.56 -55.916 0.56 -55.916 0.828 34.027
29775.375 0.828 34.005 0.559 -55.939 0.559 -55.939 0.828 34.005
29800.333 0.829 33.982 0.559 -55.962 0.559 -55.962 0.829 33.982
29825.292 0.829 33.96 0.559 -55.984 0.559 -55.984 0.829 33.96
29850.25 0.829 33.937 0.558 -56.007 0.558 -56.007 0.829 33.937
29875.208 0.829 33.915 0.558 -56.029 0.558 -56.029 0.829 33.915
29900.167 0.83 33.892 0.558 -56.052 0.558 -56.052 0.83 33.892
29925.125 0.83 33.87 0.557 -56.074 0.557 -56.074 0.83 33.87
29950.083 0.83 33.847 0.557 -56.097 0.557 -56.097 0.83 33.847
29975.042 0.83 33.825 0.557 -56.119 0.557 -56.119 0.83 33.825
30000 0.83 33.803 0.556 -56.142 0.556 -56.142 0.83 33.803
