!	AVX Thin Film Operation 	Date: April 2014		
!	Description: Accu-P® Series, Thin Film  SMD RF Capacitor
!	Part Number: 06035J7R5BBSTR					
!								
# MHZ S MA R 50

50 0.973 -13.264 0.229 76.719 0.229 76.719 0.973 -13.264
74.958 0.943 -19.475 0.333 70.5 0.333 70.5 0.943 -19.475
99.917 0.904 -25.257 0.427 64.71 0.427 64.71 0.904 -25.257
124.875 0.861 -30.552 0.508 59.406 0.508 59.406 0.861 -30.552
149.833 0.815 -35.344 0.578 54.605 0.578 54.605 0.815 -35.344
174.792 0.769 -39.647 0.638 50.294 0.638 50.294 0.769 -39.647
199.75 0.725 -43.493 0.688 46.439 0.688 46.439 0.725 -43.493
224.708 0.682 -46.923 0.73 43 0.73 43 0.682 -46.923
249.667 0.642 -49.984 0.766 39.931 0.766 39.931 0.642 -49.984
274.625 0.604 -52.718 0.796 37.188 0.796 37.188 0.604 -52.718
299.583 0.57 -55.166 0.821 34.731 0.821 34.731 0.57 -55.166
324.542 0.538 -57.365 0.842 32.523 0.842 32.523 0.538 -57.365
349.5 0.508 -59.346 0.86 30.533 0.86 30.533 0.508 -59.346
374.458 0.481 -61.138 0.876 28.732 0.876 28.732 0.481 -61.138
399.417 0.455 -62.763 0.889 27.097 0.889 27.097 0.455 -62.763
424.375 0.432 -64.244 0.901 25.607 0.901 25.607 0.432 -64.244
449.333 0.411 -65.597 0.911 24.244 0.911 24.244 0.411 -65.597
474.292 0.391 -66.838 0.919 22.993 0.919 22.993 0.391 -66.838
499.25 0.372 -67.98 0.927 21.841 0.927 21.841 0.372 -67.98
524.208 0.355 -69.034 0.934 20.777 0.934 20.777 0.355 -69.034
549.167 0.339 -70.01 0.94 19.791 0.94 19.791 0.339 -70.01
574.125 0.324 -70.916 0.945 18.875 0.945 18.875 0.324 -70.916
599.083 0.309 -71.759 0.95 18.021 0.95 18.021 0.309 -71.759
624.042 0.296 -72.547 0.954 17.223 0.954 17.223 0.296 -72.547
649 0.284 -73.283 0.958 16.475 0.958 16.475 0.284 -73.283
673.958 0.272 -73.974 0.961 15.773 0.961 15.773 0.272 -73.974
698.917 0.261 -74.623 0.964 15.112 0.964 15.112 0.261 -74.623
723.875 0.25 -75.235 0.967 14.488 0.967 14.488 0.25 -75.235
748.833 0.24 -75.812 0.97 13.899 0.97 13.899 0.24 -75.812
773.792 0.231 -76.358 0.972 13.341 0.972 13.341 0.231 -76.358
798.75 0.222 -76.874 0.974 12.811 0.974 12.811 0.222 -76.874
823.708 0.213 -77.365 0.976 12.307 0.976 12.307 0.213 -77.365
848.667 0.205 -77.83 0.978 11.828 0.978 11.828 0.205 -77.83
873.625 0.197 -78.274 0.979 11.37 0.979 11.37 0.197 -78.274
898.583 0.19 -78.696 0.981 10.933 0.981 10.933 0.19 -78.696
923.542 0.183 -79.099 0.982 10.515 0.982 10.515 0.183 -79.099
948.5 0.176 -79.484 0.983 10.115 0.983 10.115 0.176 -79.484
973.458 0.169 -79.853 0.984 9.73 0.984 9.73 0.169 -79.853
998.417 0.163 -80.205 0.985 9.361 0.985 9.361 0.163 -80.205
1023.375 0.157 -80.543 0.986 9.006 0.986 9.006 0.157 -80.543
1048.333 0.151 -80.867 0.987 8.664 0.987 8.664 0.151 -80.867
1073.292 0.145 -81.178 0.988 8.334 0.988 8.334 0.145 -81.178
1098.25 0.139 -81.477 0.989 8.015 0.989 8.015 0.139 -81.477
1123.208 0.134 -81.764 0.99 7.707 0.99 7.707 0.134 -81.764
1148.167 0.129 -82.04 0.99 7.41 0.99 7.41 0.129 -82.04
1173.125 0.124 -82.306 0.991 7.121 0.991 7.121 0.124 -82.306
1198.083 0.119 -82.562 0.992 6.842 0.992 6.842 0.119 -82.562
1223.042 0.114 -82.808 0.992 6.571 0.992 6.571 0.114 -82.808
1248 0.11 -83.045 0.993 6.308 0.993 6.308 0.11 -83.045
1272.958 0.105 -83.273 0.993 6.052 0.993 6.052 0.105 -83.273
1297.917 0.101 -83.493 0.994 5.803 0.994 5.803 0.101 -83.493
1322.875 0.097 -83.704 0.994 5.561 0.994 5.561 0.097 -83.704
1347.833 0.093 -83.907 0.994 5.326 0.994 5.326 0.093 -83.907
1372.792 0.089 -84.102 0.995 5.096 0.995 5.096 0.089 -84.102
1397.75 0.085 -84.289 0.995 4.872 0.995 4.872 0.085 -84.289
1422.708 0.081 -84.468 0.995 4.653 0.995 4.653 0.081 -84.468
1447.667 0.077 -84.639 0.996 4.439 0.996 4.439 0.077 -84.639
1472.625 0.074 -84.803 0.996 4.23 0.996 4.23 0.074 -84.803
1497.583 0.07 -84.958 0.996 4.026 0.996 4.026 0.07 -84.958
1522.542 0.067 -85.104 0.997 3.826 0.997 3.826 0.067 -85.104
1547.5 0.063 -85.242 0.997 3.63 0.997 3.63 0.063 -85.242
1572.458 0.06 -85.371 0.997 3.438 0.997 3.438 0.06 -85.371
1597.417 0.057 -85.49 0.997 3.251 0.997 3.251 0.057 -85.49
1622.375 0.054 -85.598 0.997 3.066 0.997 3.066 0.054 -85.598
1647.333 0.05 -85.695 0.997 2.885 0.997 2.885 0.05 -85.695
1672.292 0.047 -85.78 0.998 2.708 0.998 2.708 0.047 -85.78
1697.25 0.044 -85.85 0.998 2.534 0.998 2.534 0.044 -85.85
1722.208 0.041 -85.904 0.998 2.362 0.998 2.362 0.041 -85.904
1747.167 0.038 -85.939 0.998 2.194 0.998 2.194 0.038 -85.939
1772.125 0.035 -85.952 0.998 2.028 0.998 2.028 0.035 -85.952
1797.083 0.033 -85.939 0.998 1.865 0.998 1.865 0.033 -85.939
1822.042 0.03 -85.893 0.998 1.705 0.998 1.705 0.03 -85.893
1847 0.027 -85.806 0.998 1.547 0.998 1.547 0.027 -85.806
1871.958 0.024 -85.666 0.998 1.392 0.998 1.392 0.024 -85.666
1896.917 0.022 -85.456 0.999 1.238 0.999 1.238 0.022 -85.456
1921.875 0.019 -85.149 0.999 1.087 0.999 1.087 0.019 -85.149
1946.833 0.016 -84.703 0.999 0.939 0.999 0.939 0.016 -84.703
1971.792 0.014 -84.045 0.999 0.792 0.999 0.792 0.014 -84.045
1996.75 0.011 -83.042 0.999 0.647 0.999 0.647 0.011 -83.042
2021.708 8.881e-3 -81.414 0.999 0.504 0.999 0.504 8.881e-3 -81.414
2046.667 6.451e-3 -78.477 0.999 0.363 0.999 0.363 6.451e-3 -78.477
2071.625 4.091e-3 -72.006 0.999 0.223 0.999 0.223 4.091e-3 -72.006
2096.583 1.946e-3 -49.994 0.999 0.086 0.999 0.086 1.946e-3 -49.994
2121.542 1.529e-3 35.204 0.999 -0.051 0.999 -0.051 1.529e-3 35.204
2146.5 3.463e-3 68.678 0.999 -0.185 0.999 -0.185 3.463e-3 68.678
2171.458 5.689e-3 77.003 0.999 -0.318 0.999 -0.318 5.689e-3 77.003
2196.417 7.944e-3 80.507 0.999 -0.449 0.999 -0.449 7.944e-3 80.507
2221.375 0.01 82.383 0.999 -0.58 0.999 -0.58 0.01 82.383
2246.333 0.012 83.523 0.999 -0.708 0.999 -0.708 0.012 83.523
2271.292 0.015 84.271 0.999 -0.835 0.999 -0.835 0.015 84.271
2296.25 0.017 84.784 0.999 -0.961 0.999 -0.961 0.017 84.784
2321.208 0.019 85.146 0.999 -1.086 0.999 -1.086 0.019 85.146
2346.167 0.021 85.406 0.999 -1.21 0.999 -1.21 0.021 85.406
2371.125 0.023 85.594 0.998 -1.332 0.998 -1.332 0.023 85.594
2396.083 0.025 85.729 0.998 -1.453 0.998 -1.453 0.025 85.729
2421.042 0.027 85.824 0.998 -1.573 0.998 -1.573 0.027 85.824
2446 0.03 85.888 0.998 -1.692 0.998 -1.692 0.03 85.888
2470.958 0.032 85.927 0.998 -1.81 0.998 -1.81 0.032 85.927
2495.917 0.034 85.948 0.998 -1.927 0.998 -1.927 0.034 85.948
2520.875 0.036 85.952 0.998 -2.043 0.998 -2.043 0.036 85.952
2545.833 0.038 85.944 0.998 -2.158 0.998 -2.158 0.038 85.944
2570.792 0.04 85.925 0.998 -2.272 0.998 -2.272 0.04 85.925
2595.75 0.042 85.898 0.998 -2.386 0.998 -2.386 0.042 85.898
2620.708 0.044 85.863 0.998 -2.498 0.998 -2.498 0.044 85.863
2645.667 0.046 85.821 0.998 -2.609 0.998 -2.609 0.046 85.821
2670.625 0.047 85.775 0.998 -2.72 0.998 -2.72 0.047 85.775
2695.583 0.049 85.723 0.998 -2.83 0.998 -2.83 0.049 85.723
2720.542 0.051 85.668 0.997 -2.939 0.997 -2.939 0.051 85.668
2745.5 0.053 85.609 0.997 -3.047 0.997 -3.047 0.053 85.609
2770.458 0.055 85.548 0.997 -3.154 0.997 -3.154 0.055 85.548
2795.417 0.057 85.484 0.997 -3.261 0.997 -3.261 0.057 85.484
2820.375 0.059 85.417 0.997 -3.367 0.997 -3.367 0.059 85.417
2845.333 0.061 85.349 0.997 -3.472 0.997 -3.472 0.061 85.349
2870.292 0.062 85.279 0.997 -3.577 0.997 -3.577 0.062 85.279
2895.25 0.064 85.207 0.997 -3.681 0.997 -3.681 0.064 85.207
2920.208 0.066 85.134 0.997 -3.784 0.997 -3.784 0.066 85.134
2945.167 0.068 85.06 0.996 -3.887 0.996 -3.887 0.068 85.06
2970.125 0.07 84.985 0.996 -3.989 0.996 -3.989 0.07 84.985
2995.083 0.071 84.909 0.996 -4.091 0.996 -4.091 0.071 84.909
3020.042 0.073 84.832 0.996 -4.192 0.996 -4.192 0.073 84.832
3045 0.075 84.755 0.996 -4.292 0.996 -4.292 0.075 84.755
3069.958 0.077 84.677 0.996 -4.392 0.996 -4.392 0.077 84.677
3094.917 0.078 84.598 0.996 -4.491 0.996 -4.491 0.078 84.598
3119.875 0.08 84.519 0.996 -4.59 0.996 -4.59 0.08 84.519
3144.833 0.082 84.44 0.995 -4.688 0.995 -4.688 0.082 84.44
3169.792 0.083 84.36 0.995 -4.785 0.995 -4.785 0.083 84.36
3194.75 0.085 84.28 0.995 -4.883 0.995 -4.883 0.085 84.28
3219.708 0.087 84.2 0.995 -4.979 0.995 -4.979 0.087 84.2
3244.667 0.088 84.119 0.995 -5.075 0.995 -5.075 0.088 84.119
3269.625 0.09 84.038 0.995 -5.171 0.995 -5.171 0.09 84.038
3294.583 0.092 83.957 0.995 -5.266 0.995 -5.266 0.092 83.957
3319.542 0.093 83.876 0.994 -5.361 0.994 -5.361 0.093 83.876
3344.5 0.095 83.795 0.994 -5.456 0.994 -5.456 0.095 83.795
3369.458 0.097 83.714 0.994 -5.55 0.994 -5.55 0.097 83.714
3394.417 0.098 83.633 0.994 -5.643 0.994 -5.643 0.098 83.633
3419.375 0.1 83.552 0.994 -5.736 0.994 -5.736 0.1 83.552
3444.333 0.102 83.47 0.994 -5.829 0.994 -5.829 0.102 83.47
3469.292 0.103 83.389 0.993 -5.921 0.993 -5.921 0.103 83.389
3494.25 0.105 83.308 0.993 -6.013 0.993 -6.013 0.105 83.308
3519.208 0.106 83.226 0.993 -6.105 0.993 -6.105 0.106 83.226
3544.167 0.108 83.145 0.993 -6.196 0.993 -6.196 0.108 83.145
3569.125 0.11 83.064 0.993 -6.287 0.993 -6.287 0.11 83.064
3594.083 0.111 82.983 0.993 -6.377 0.993 -6.377 0.111 82.983
3619.042 0.113 82.902 0.992 -6.467 0.992 -6.467 0.113 82.902
3644 0.114 82.821 0.992 -6.557 0.992 -6.557 0.114 82.821
3668.958 0.116 82.74 0.992 -6.646 0.992 -6.646 0.116 82.74
3693.917 0.117 82.659 0.992 -6.735 0.992 -6.735 0.117 82.659
3718.875 0.119 82.578 0.992 -6.824 0.992 -6.824 0.119 82.578
3743.833 0.12 82.497 0.991 -6.913 0.991 -6.913 0.12 82.497
3768.792 0.122 82.417 0.991 -7.001 0.991 -7.001 0.122 82.417
3793.75 0.123 82.336 0.991 -7.089 0.991 -7.089 0.123 82.336
3818.708 0.125 82.256 0.991 -7.176 0.991 -7.176 0.125 82.256
3843.667 0.126 82.175 0.991 -7.263 0.991 -7.263 0.126 82.175
3868.625 0.128 82.095 0.991 -7.35 0.991 -7.35 0.128 82.095
3893.583 0.129 82.015 0.99 -7.437 0.99 -7.437 0.129 82.015
3918.542 0.131 81.935 0.99 -7.523 0.99 -7.523 0.131 81.935
3943.5 0.132 81.855 0.99 -7.609 0.99 -7.609 0.132 81.855
3968.458 0.134 81.776 0.99 -7.695 0.99 -7.695 0.134 81.776
3993.417 0.135 81.696 0.99 -7.78 0.99 -7.78 0.135 81.696
4018.375 0.137 81.617 0.989 -7.865 0.989 -7.865 0.137 81.617
4043.333 0.138 81.537 0.989 -7.95 0.989 -7.95 0.138 81.537
4068.292 0.14 81.458 0.989 -8.035 0.989 -8.035 0.14 81.458
4093.25 0.141 81.379 0.989 -8.12 0.989 -8.12 0.141 81.379
4118.208 0.143 81.3 0.989 -8.204 0.989 -8.204 0.143 81.3
4143.167 0.144 81.221 0.988 -8.288 0.988 -8.288 0.144 81.221
4168.125 0.146 81.143 0.988 -8.371 0.988 -8.371 0.146 81.143
4193.083 0.147 81.064 0.988 -8.455 0.988 -8.455 0.147 81.064
4218.042 0.148 80.985 0.988 -8.538 0.988 -8.538 0.148 80.985
4243 0.15 80.907 0.987 -8.621 0.987 -8.621 0.15 80.907
4267.958 0.151 80.829 0.987 -8.704 0.987 -8.704 0.151 80.829
4292.917 0.153 80.751 0.987 -8.786 0.987 -8.786 0.153 80.751
4317.875 0.154 80.673 0.987 -8.869 0.987 -8.869 0.154 80.673
4342.833 0.156 80.595 0.987 -8.951 0.987 -8.951 0.156 80.595
4367.792 0.157 80.517 0.986 -9.032 0.986 -9.032 0.157 80.517
4392.75 0.158 80.44 0.986 -9.114 0.986 -9.114 0.158 80.44
4417.708 0.16 80.363 0.986 -9.196 0.986 -9.196 0.16 80.363
4442.667 0.161 80.285 0.986 -9.277 0.986 -9.277 0.161 80.285
4467.625 0.163 80.208 0.985 -9.358 0.985 -9.358 0.163 80.208
4492.583 0.164 80.131 0.985 -9.439 0.985 -9.439 0.164 80.131
4517.542 0.165 80.054 0.985 -9.519 0.985 -9.519 0.165 80.054
4542.5 0.167 79.977 0.985 -9.6 0.985 -9.6 0.167 79.977
4567.458 0.168 79.901 0.985 -9.68 0.985 -9.68 0.168 79.901
4592.417 0.17 79.824 0.984 -9.76 0.984 -9.76 0.17 79.824
4617.375 0.171 79.748 0.984 -9.84 0.984 -9.84 0.171 79.748
4642.333 0.172 79.671 0.984 -9.919 0.984 -9.919 0.172 79.671
4667.292 0.174 79.595 0.984 -9.999 0.984 -9.999 0.174 79.595
4692.25 0.175 79.519 0.983 -10.078 0.983 -10.078 0.175 79.519
4717.208 0.176 79.443 0.983 -10.157 0.983 -10.157 0.176 79.443
4742.167 0.178 79.368 0.983 -10.236 0.983 -10.236 0.178 79.368
4767.125 0.179 79.292 0.983 -10.315 0.983 -10.315 0.179 79.292
4792.083 0.18 79.216 0.982 -10.394 0.982 -10.394 0.18 79.216
4817.042 0.182 79.141 0.982 -10.472 0.982 -10.472 0.182 79.141
4842 0.183 79.066 0.982 -10.55 0.982 -10.55 0.183 79.066
4866.958 0.184 78.991 0.982 -10.628 0.982 -10.628 0.184 78.991
4891.917 0.186 78.915 0.981 -10.706 0.981 -10.706 0.186 78.915
4916.875 0.187 78.841 0.981 -10.784 0.981 -10.784 0.187 78.841
4941.833 0.188 78.766 0.981 -10.861 0.981 -10.861 0.188 78.766
4966.792 0.19 78.691 0.981 -10.939 0.981 -10.939 0.19 78.691
4991.75 0.191 78.616 0.98 -11.016 0.98 -11.016 0.191 78.616
5016.708 0.192 78.542 0.98 -11.093 0.98 -11.093 0.192 78.542
5041.667 0.194 78.468 0.98 -11.17 0.98 -11.17 0.194 78.468
5066.625 0.195 78.393 0.98 -11.247 0.98 -11.247 0.195 78.393
5091.583 0.196 78.319 0.979 -11.324 0.979 -11.324 0.196 78.319
5116.542 0.198 78.245 0.979 -11.4 0.979 -11.4 0.198 78.245
5141.5 0.199 78.171 0.979 -11.476 0.979 -11.476 0.199 78.171
5166.458 0.2 78.097 0.979 -11.552 0.979 -11.552 0.2 78.097
5191.417 0.202 78.024 0.978 -11.629 0.978 -11.629 0.202 78.024
5216.375 0.203 77.95 0.978 -11.704 0.978 -11.704 0.203 77.95
5241.333 0.204 77.877 0.978 -11.78 0.978 -11.78 0.204 77.877
5266.292 0.205 77.803 0.977 -11.856 0.977 -11.856 0.205 77.803
5291.25 0.207 77.73 0.977 -11.931 0.977 -11.931 0.207 77.73
5316.208 0.208 77.657 0.977 -12.007 0.977 -12.007 0.208 77.657
5341.167 0.209 77.584 0.977 -12.082 0.977 -12.082 0.209 77.584
5366.125 0.211 77.511 0.976 -12.157 0.976 -12.157 0.211 77.511
5391.083 0.212 77.438 0.976 -12.232 0.976 -12.232 0.212 77.438
5416.042 0.213 77.366 0.976 -12.306 0.976 -12.306 0.213 77.366
5441 0.214 77.293 0.976 -12.381 0.976 -12.381 0.214 77.293
5465.958 0.216 77.22 0.975 -12.456 0.975 -12.456 0.216 77.22
5490.917 0.217 77.148 0.975 -12.53 0.975 -12.53 0.217 77.148
5515.875 0.218 77.076 0.975 -12.604 0.975 -12.604 0.218 77.076
5540.833 0.219 77.004 0.974 -12.678 0.974 -12.678 0.219 77.004
5565.792 0.221 76.932 0.974 -12.752 0.974 -12.752 0.221 76.932
5590.75 0.222 76.86 0.974 -12.826 0.974 -12.826 0.222 76.86
5615.708 0.223 76.788 0.974 -12.9 0.974 -12.9 0.223 76.788
5640.667 0.225 76.716 0.973 -12.974 0.973 -12.974 0.225 76.716
5665.625 0.226 76.644 0.973 -13.047 0.973 -13.047 0.226 76.644
5690.583 0.227 76.573 0.973 -13.12 0.973 -13.12 0.227 76.573
5715.542 0.228 76.501 0.972 -13.194 0.972 -13.194 0.228 76.501
5740.5 0.229 76.43 0.972 -13.267 0.972 -13.267 0.229 76.43
5765.458 0.231 76.358 0.972 -13.34 0.972 -13.34 0.231 76.358
5790.417 0.232 76.287 0.972 -13.413 0.972 -13.413 0.232 76.287
5815.375 0.233 76.216 0.971 -13.485 0.971 -13.485 0.233 76.216
5840.333 0.234 76.145 0.971 -13.558 0.971 -13.558 0.234 76.145
5865.292 0.236 76.074 0.971 -13.631 0.971 -13.631 0.236 76.074
5890.25 0.237 76.003 0.97 -13.703 0.97 -13.703 0.237 76.003
5915.208 0.238 75.933 0.97 -13.775 0.97 -13.775 0.238 75.933
5940.167 0.239 75.862 0.97 -13.848 0.97 -13.848 0.239 75.862
5965.125 0.241 75.792 0.969 -13.92 0.969 -13.92 0.241 75.792
5990.083 0.242 75.721 0.969 -13.992 0.969 -13.992 0.242 75.721
6015.042 0.243 75.651 0.969 -14.063 0.969 -14.063 0.243 75.651
6040 0.244 75.581 0.969 -14.135 0.969 -14.135 0.244 75.581
6064.958 0.245 75.511 0.968 -14.207 0.968 -14.207 0.245 75.511
6089.917 0.247 75.44 0.968 -14.278 0.968 -14.278 0.247 75.44
6114.875 0.248 75.371 0.968 -14.35 0.968 -14.35 0.248 75.371
6139.833 0.249 75.301 0.967 -14.421 0.967 -14.421 0.249 75.301
6164.792 0.25 75.231 0.967 -14.492 0.967 -14.492 0.25 75.231
6189.75 0.251 75.161 0.967 -14.563 0.967 -14.563 0.251 75.161
6214.708 0.253 75.092 0.966 -14.634 0.966 -14.634 0.253 75.092
6239.667 0.254 75.022 0.966 -14.705 0.966 -14.705 0.254 75.022
6264.625 0.255 74.953 0.966 -14.776 0.966 -14.776 0.255 74.953
6289.583 0.256 74.883 0.965 -14.847 0.965 -14.847 0.256 74.883
6314.542 0.257 74.814 0.965 -14.917 0.965 -14.917 0.257 74.814
6339.5 0.259 74.745 0.965 -14.988 0.965 -14.988 0.259 74.745
6364.458 0.26 74.676 0.964 -15.058 0.964 -15.058 0.26 74.676
6389.417 0.261 74.607 0.964 -15.128 0.964 -15.128 0.261 74.607
6414.375 0.262 74.538 0.964 -15.199 0.964 -15.199 0.262 74.538
6439.333 0.263 74.469 0.963 -15.269 0.963 -15.269 0.263 74.469
6464.292 0.265 74.4 0.963 -15.339 0.963 -15.339 0.265 74.4
6489.25 0.266 74.332 0.963 -15.409 0.963 -15.409 0.266 74.332
6514.208 0.267 74.263 0.963 -15.478 0.963 -15.478 0.267 74.263
6539.167 0.268 74.195 0.962 -15.548 0.962 -15.548 0.268 74.195
6564.125 0.269 74.126 0.962 -15.618 0.962 -15.618 0.269 74.126
6589.083 0.27 74.058 0.962 -15.687 0.962 -15.687 0.27 74.058
6614.042 0.272 73.99 0.961 -15.756 0.961 -15.756 0.272 73.99
6639 0.273 73.922 0.961 -15.826 0.961 -15.826 0.273 73.922
6663.958 0.274 73.854 0.961 -15.895 0.961 -15.895 0.274 73.854
6688.917 0.275 73.786 0.96 -15.964 0.96 -15.964 0.275 73.786
6713.875 0.276 73.718 0.96 -16.033 0.96 -16.033 0.276 73.718
6738.833 0.277 73.65 0.96 -16.102 0.96 -16.102 0.277 73.65
6763.792 0.279 73.582 0.959 -16.171 0.959 -16.171 0.279 73.582
6788.75 0.28 73.515 0.959 -16.24 0.959 -16.24 0.28 73.515
6813.708 0.281 73.447 0.959 -16.308 0.959 -16.308 0.281 73.447
6838.667 0.282 73.38 0.958 -16.377 0.958 -16.377 0.282 73.38
6863.625 0.283 73.312 0.958 -16.445 0.958 -16.445 0.283 73.312
6888.583 0.284 73.245 0.958 -16.514 0.958 -16.514 0.284 73.245
6913.542 0.285 73.178 0.957 -16.582 0.957 -16.582 0.285 73.178
6938.5 0.287 73.111 0.957 -16.65 0.957 -16.65 0.287 73.111
6963.458 0.288 73.044 0.957 -16.718 0.957 -16.718 0.288 73.044
6988.417 0.289 72.977 0.956 -16.786 0.956 -16.786 0.289 72.977
7013.375 0.29 72.91 0.956 -16.854 0.956 -16.854 0.29 72.91
7038.333 0.291 72.843 0.956 -16.922 0.956 -16.922 0.291 72.843
7063.292 0.292 72.776 0.955 -16.99 0.955 -16.99 0.292 72.776
7088.25 0.293 72.71 0.955 -17.057 0.955 -17.057 0.293 72.71
7113.208 0.294 72.643 0.954 -17.125 0.954 -17.125 0.294 72.643
7138.167 0.296 72.577 0.954 -17.192 0.954 -17.192 0.296 72.577
7163.125 0.297 72.51 0.954 -17.26 0.954 -17.26 0.297 72.51
7188.083 0.298 72.444 0.953 -17.327 0.953 -17.327 0.298 72.444
7213.042 0.299 72.378 0.953 -17.394 0.953 -17.394 0.299 72.378
7238 0.3 72.311 0.953 -17.461 0.953 -17.461 0.3 72.311
7262.958 0.301 72.245 0.952 -17.528 0.952 -17.528 0.301 72.245
7287.917 0.302 72.179 0.952 -17.595 0.952 -17.595 0.302 72.179
7312.875 0.303 72.113 0.952 -17.662 0.952 -17.662 0.303 72.113
7337.833 0.305 72.047 0.951 -17.729 0.951 -17.729 0.305 72.047
7362.792 0.306 71.982 0.951 -17.796 0.951 -17.796 0.306 71.982
7387.75 0.307 71.916 0.951 -17.862 0.951 -17.862 0.307 71.916
7412.708 0.308 71.85 0.95 -17.929 0.95 -17.929 0.308 71.85
7437.667 0.309 71.785 0.95 -17.995 0.95 -17.995 0.309 71.785
7462.625 0.31 71.719 0.95 -18.061 0.95 -18.061 0.31 71.719
7487.583 0.311 71.654 0.949 -18.128 0.949 -18.128 0.311 71.654
7512.542 0.312 71.588 0.949 -18.194 0.949 -18.194 0.312 71.588
7537.5 0.313 71.523 0.948 -18.26 0.948 -18.26 0.313 71.523
7562.458 0.314 71.458 0.948 -18.326 0.948 -18.326 0.314 71.458
7587.417 0.316 71.393 0.948 -18.392 0.948 -18.392 0.316 71.393
7612.375 0.317 71.328 0.947 -18.458 0.947 -18.458 0.317 71.328
7637.333 0.318 71.263 0.947 -18.524 0.947 -18.524 0.318 71.263
7662.292 0.319 71.198 0.947 -18.589 0.947 -18.589 0.319 71.198
7687.25 0.32 71.133 0.946 -18.655 0.946 -18.655 0.32 71.133
7712.208 0.321 71.068 0.946 -18.721 0.946 -18.721 0.321 71.068
7737.167 0.322 71.004 0.946 -18.786 0.946 -18.786 0.322 71.004
7762.125 0.323 70.939 0.945 -18.851 0.945 -18.851 0.323 70.939
7787.083 0.324 70.874 0.945 -18.917 0.945 -18.917 0.324 70.874
7812.042 0.325 70.81 0.944 -18.982 0.944 -18.982 0.325 70.81
7837 0.326 70.746 0.944 -19.047 0.944 -19.047 0.326 70.746
7861.958 0.327 70.681 0.944 -19.112 0.944 -19.112 0.327 70.681
7886.917 0.328 70.617 0.943 -19.177 0.943 -19.177 0.328 70.617
7911.875 0.33 70.553 0.943 -19.242 0.943 -19.242 0.33 70.553
7936.833 0.331 70.489 0.943 -19.307 0.943 -19.307 0.331 70.489
7961.792 0.332 70.425 0.942 -19.372 0.942 -19.372 0.332 70.425
7986.75 0.333 70.361 0.942 -19.436 0.942 -19.436 0.333 70.361
8011.708 0.334 70.297 0.941 -19.501 0.941 -19.501 0.334 70.297
8036.667 0.335 70.233 0.941 -19.565 0.941 -19.565 0.335 70.233
8061.625 0.336 70.17 0.941 -19.63 0.941 -19.63 0.336 70.17
8086.583 0.337 70.106 0.94 -19.694 0.94 -19.694 0.337 70.106
8111.542 0.338 70.042 0.94 -19.759 0.94 -19.759 0.338 70.042
8136.5 0.339 69.979 0.94 -19.823 0.94 -19.823 0.339 69.979
8161.458 0.34 69.915 0.939 -19.887 0.939 -19.887 0.34 69.915
8186.417 0.341 69.852 0.939 -19.951 0.939 -19.951 0.341 69.852
8211.375 0.342 69.789 0.938 -20.015 0.938 -20.015 0.342 69.789
8236.333 0.343 69.725 0.938 -20.079 0.938 -20.079 0.343 69.725
8261.292 0.344 69.662 0.938 -20.143 0.938 -20.143 0.344 69.662
8286.25 0.345 69.599 0.937 -20.206 0.937 -20.206 0.345 69.599
8311.208 0.346 69.536 0.937 -20.27 0.937 -20.27 0.346 69.536
8336.167 0.347 69.473 0.937 -20.334 0.937 -20.334 0.347 69.473
8361.125 0.349 69.41 0.936 -20.397 0.936 -20.397 0.349 69.41
8386.083 0.35 69.348 0.936 -20.461 0.936 -20.461 0.35 69.348
8411.042 0.351 69.285 0.935 -20.524 0.935 -20.524 0.351 69.285
8436 0.352 69.222 0.935 -20.587 0.935 -20.587 0.352 69.222
8460.958 0.353 69.16 0.935 -20.651 0.935 -20.651 0.353 69.16
8485.917 0.354 69.097 0.934 -20.714 0.934 -20.714 0.354 69.097
8510.875 0.355 69.035 0.934 -20.777 0.934 -20.777 0.355 69.035
8535.833 0.356 68.972 0.933 -20.84 0.933 -20.84 0.356 68.972
8560.792 0.357 68.91 0.933 -20.903 0.933 -20.903 0.357 68.91
8585.75 0.358 68.848 0.933 -20.966 0.933 -20.966 0.358 68.848
8610.708 0.359 68.786 0.932 -21.028 0.932 -21.028 0.359 68.786
8635.667 0.36 68.723 0.932 -21.091 0.932 -21.091 0.36 68.723
8660.625 0.361 68.661 0.931 -21.154 0.931 -21.154 0.361 68.661
8685.583 0.362 68.599 0.931 -21.216 0.931 -21.216 0.362 68.599
8710.542 0.363 68.538 0.931 -21.279 0.931 -21.279 0.363 68.538
8735.5 0.364 68.476 0.93 -21.341 0.93 -21.341 0.364 68.476
8760.458 0.365 68.414 0.93 -21.404 0.93 -21.404 0.365 68.414
8785.417 0.366 68.352 0.929 -21.466 0.929 -21.466 0.366 68.352
8810.375 0.367 68.291 0.929 -21.528 0.929 -21.528 0.367 68.291
8835.333 0.368 68.229 0.929 -21.59 0.929 -21.59 0.368 68.229
8860.292 0.369 68.168 0.928 -21.652 0.928 -21.652 0.369 68.168
8885.25 0.37 68.106 0.928 -21.714 0.928 -21.714 0.37 68.106
8910.208 0.371 68.045 0.927 -21.776 0.927 -21.776 0.371 68.045
8935.167 0.372 67.984 0.927 -21.838 0.927 -21.838 0.372 67.984
8960.125 0.373 67.922 0.927 -21.9 0.927 -21.9 0.373 67.922
8985.083 0.374 67.861 0.926 -21.961 0.926 -21.961 0.374 67.861
9010.042 0.375 67.8 0.926 -22.023 0.926 -22.023 0.375 67.8
9035 0.376 67.739 0.925 -22.085 0.925 -22.085 0.376 67.739
9059.958 0.377 67.678 0.925 -22.146 0.925 -22.146 0.377 67.678
9084.917 0.378 67.617 0.925 -22.207 0.925 -22.207 0.378 67.617
9109.875 0.379 67.556 0.924 -22.269 0.924 -22.269 0.379 67.556
9134.833 0.38 67.496 0.924 -22.33 0.924 -22.33 0.38 67.496
9159.792 0.381 67.435 0.923 -22.391 0.923 -22.391 0.381 67.435
9184.75 0.382 67.374 0.923 -22.452 0.923 -22.452 0.382 67.374
9209.708 0.383 67.314 0.923 -22.513 0.923 -22.513 0.383 67.314
9234.667 0.384 67.253 0.922 -22.574 0.922 -22.574 0.384 67.253
9259.625 0.385 67.193 0.922 -22.635 0.922 -22.635 0.385 67.193
9284.583 0.386 67.133 0.921 -22.696 0.921 -22.696 0.386 67.133
9309.542 0.387 67.072 0.921 -22.757 0.921 -22.757 0.387 67.072
9334.5 0.388 67.012 0.921 -22.818 0.921 -22.818 0.388 67.012
9359.458 0.389 66.952 0.92 -22.878 0.92 -22.878 0.389 66.952
9384.417 0.39 66.892 0.92 -22.939 0.92 -22.939 0.39 66.892
9409.375 0.391 66.832 0.919 -22.999 0.919 -22.999 0.391 66.832
9434.333 0.392 66.772 0.919 -23.06 0.919 -23.06 0.392 66.772
9459.292 0.393 66.712 0.919 -23.12 0.919 -23.12 0.393 66.712
9484.25 0.394 66.652 0.918 -23.18 0.918 -23.18 0.394 66.652
9509.208 0.395 66.593 0.918 -23.241 0.918 -23.241 0.395 66.593
9534.167 0.396 66.533 0.917 -23.301 0.917 -23.301 0.396 66.533
9559.125 0.397 66.473 0.917 -23.361 0.917 -23.361 0.397 66.473
9584.083 0.397 66.414 0.916 -23.421 0.916 -23.421 0.397 66.414
9609.042 0.398 66.354 0.916 -23.481 0.916 -23.481 0.398 66.354
9634 0.399 66.295 0.916 -23.541 0.916 -23.541 0.399 66.295
9658.958 0.4 66.236 0.915 -23.601 0.915 -23.601 0.4 66.236
9683.917 0.401 66.176 0.915 -23.66 0.915 -23.66 0.401 66.176
9708.875 0.402 66.117 0.914 -23.72 0.914 -23.72 0.402 66.117
9733.833 0.403 66.058 0.914 -23.78 0.914 -23.78 0.403 66.058
9758.792 0.404 65.999 0.914 -23.839 0.914 -23.839 0.404 65.999
9783.75 0.405 65.94 0.913 -23.898 0.913 -23.898 0.405 65.94
9808.708 0.406 65.881 0.913 -23.958 0.913 -23.958 0.406 65.881
9833.667 0.407 65.822 0.912 -24.017 0.912 -24.017 0.407 65.822
9858.625 0.408 65.763 0.912 -24.076 0.912 -24.076 0.408 65.763
9883.583 0.409 65.705 0.911 -24.136 0.911 -24.136 0.409 65.705
9908.542 0.41 65.646 0.911 -24.195 0.911 -24.195 0.41 65.646
9933.5 0.411 65.587 0.911 -24.254 0.911 -24.254 0.411 65.587
9958.458 0.412 65.529 0.91 -24.313 0.91 -24.313 0.412 65.529
9983.417 0.413 65.47 0.91 -24.372 0.91 -24.372 0.413 65.47
10008.375 0.414 65.412 0.909 -24.431 0.909 -24.431 0.414 65.412
10033.333 0.415 65.354 0.909 -24.489 0.909 -24.489 0.415 65.354
10058.292 0.415 65.295 0.908 -24.548 0.908 -24.548 0.415 65.295
10083.25 0.416 65.237 0.908 -24.607 0.908 -24.607 0.416 65.237
10108.208 0.417 65.179 0.908 -24.665 0.908 -24.665 0.417 65.179
10133.167 0.418 65.121 0.907 -24.724 0.907 -24.724 0.418 65.121
10158.125 0.419 65.063 0.907 -24.782 0.907 -24.782 0.419 65.063
10183.083 0.42 65.005 0.906 -24.841 0.906 -24.841 0.42 65.005
10208.042 0.421 64.947 0.906 -24.899 0.906 -24.899 0.421 64.947
10233 0.422 64.889 0.905 -24.957 0.905 -24.957 0.422 64.889
10257.958 0.423 64.831 0.905 -25.015 0.905 -25.015 0.423 64.831
10282.917 0.424 64.773 0.905 -25.074 0.905 -25.074 0.424 64.773
10307.875 0.425 64.716 0.904 -25.132 0.904 -25.132 0.425 64.716
10332.833 0.426 64.658 0.904 -25.19 0.904 -25.19 0.426 64.658
10357.792 0.427 64.601 0.903 -25.248 0.903 -25.248 0.427 64.601
10382.75 0.427 64.543 0.903 -25.305 0.903 -25.305 0.427 64.543
10407.708 0.428 64.486 0.902 -25.363 0.902 -25.363 0.428 64.486
10432.667 0.429 64.429 0.902 -25.421 0.902 -25.421 0.429 64.429
10457.625 0.43 64.371 0.902 -25.479 0.902 -25.479 0.43 64.371
10482.583 0.431 64.314 0.901 -25.536 0.901 -25.536 0.431 64.314
10507.542 0.432 64.257 0.901 -25.594 0.901 -25.594 0.432 64.257
10532.5 0.433 64.2 0.9 -25.651 0.9 -25.651 0.433 64.2
10557.458 0.434 64.143 0.9 -25.708 0.9 -25.708 0.434 64.143
10582.417 0.435 64.086 0.899 -25.766 0.899 -25.766 0.435 64.086
10607.375 0.436 64.029 0.899 -25.823 0.899 -25.823 0.436 64.029
10632.333 0.436 63.972 0.899 -25.88 0.899 -25.88 0.436 63.972
10657.292 0.437 63.915 0.898 -25.937 0.898 -25.937 0.437 63.915
10682.25 0.438 63.859 0.898 -25.994 0.898 -25.994 0.438 63.859
10707.208 0.439 63.802 0.897 -26.051 0.897 -26.051 0.439 63.802
10732.167 0.44 63.746 0.897 -26.108 0.897 -26.108 0.44 63.746
10757.125 0.441 63.689 0.896 -26.165 0.896 -26.165 0.441 63.689
10782.083 0.442 63.633 0.896 -26.222 0.896 -26.222 0.442 63.633
10807.042 0.443 63.576 0.896 -26.279 0.896 -26.279 0.443 63.576
10832 0.444 63.52 0.895 -26.335 0.895 -26.335 0.444 63.52
10856.958 0.445 63.464 0.895 -26.392 0.895 -26.392 0.445 63.464
10881.917 0.445 63.408 0.894 -26.449 0.894 -26.449 0.445 63.408
10906.875 0.446 63.351 0.894 -26.505 0.894 -26.505 0.446 63.351
10931.833 0.447 63.295 0.893 -26.561 0.893 -26.561 0.447 63.295
10956.792 0.448 63.239 0.893 -26.618 0.893 -26.618 0.448 63.239
10981.75 0.449 63.183 0.892 -26.674 0.892 -26.674 0.449 63.183
11006.708 0.45 63.128 0.892 -26.73 0.892 -26.73 0.45 63.128
11031.667 0.451 63.072 0.892 -26.786 0.892 -26.786 0.451 63.072
11056.625 0.452 63.016 0.891 -26.843 0.891 -26.843 0.452 63.016
11081.583 0.452 62.96 0.891 -26.899 0.891 -26.899 0.452 62.96
11106.542 0.453 62.905 0.89 -26.955 0.89 -26.955 0.453 62.905
11131.5 0.454 62.849 0.89 -27.01 0.89 -27.01 0.454 62.849
11156.458 0.455 62.794 0.889 -27.066 0.889 -27.066 0.455 62.794
11181.417 0.456 62.738 0.889 -27.122 0.889 -27.122 0.456 62.738
11206.375 0.457 62.683 0.888 -27.178 0.888 -27.178 0.457 62.683
11231.333 0.458 62.628 0.888 -27.233 0.888 -27.233 0.458 62.628
11256.292 0.458 62.572 0.888 -27.289 0.888 -27.289 0.458 62.572
11281.25 0.459 62.517 0.887 -27.344 0.887 -27.344 0.459 62.517
11306.208 0.46 62.462 0.887 -27.4 0.887 -27.4 0.46 62.462
11331.167 0.461 62.407 0.886 -27.455 0.886 -27.455 0.461 62.407
11356.125 0.462 62.352 0.886 -27.511 0.886 -27.511 0.462 62.352
11381.083 0.463 62.297 0.885 -27.566 0.885 -27.566 0.463 62.297
11406.042 0.464 62.242 0.885 -27.621 0.885 -27.621 0.464 62.242
11431 0.464 62.187 0.884 -27.676 0.884 -27.676 0.464 62.187
11455.958 0.465 62.133 0.884 -27.731 0.884 -27.731 0.465 62.133
11480.917 0.466 62.078 0.884 -27.786 0.884 -27.786 0.466 62.078
11505.875 0.467 62.023 0.883 -27.841 0.883 -27.841 0.467 62.023
11530.833 0.468 61.969 0.883 -27.896 0.883 -27.896 0.468 61.969
11555.792 0.469 61.914 0.882 -27.951 0.882 -27.951 0.469 61.914
11580.75 0.47 61.86 0.882 -28.006 0.882 -28.006 0.47 61.86
11605.708 0.47 61.805 0.881 -28.06 0.881 -28.06 0.47 61.805
11630.667 0.471 61.751 0.881 -28.115 0.881 -28.115 0.471 61.751
11655.625 0.472 61.697 0.88 -28.169 0.88 -28.169 0.472 61.697
11680.583 0.473 61.643 0.88 -28.224 0.88 -28.224 0.473 61.643
11705.542 0.474 61.589 0.88 -28.278 0.88 -28.278 0.474 61.589
11730.5 0.475 61.535 0.879 -28.333 0.879 -28.333 0.475 61.535
11755.458 0.475 61.481 0.879 -28.387 0.879 -28.387 0.475 61.481
11780.417 0.476 61.427 0.878 -28.441 0.878 -28.441 0.476 61.427
11805.375 0.477 61.373 0.878 -28.495 0.878 -28.495 0.477 61.373
11830.333 0.478 61.319 0.877 -28.55 0.877 -28.55 0.478 61.319
11855.292 0.479 61.265 0.877 -28.604 0.877 -28.604 0.479 61.265
11880.25 0.48 61.211 0.876 -28.658 0.876 -28.658 0.48 61.211
11905.208 0.48 61.158 0.876 -28.712 0.876 -28.712 0.48 61.158
11930.167 0.481 61.104 0.876 -28.765 0.876 -28.765 0.481 61.104
11955.125 0.482 61.051 0.875 -28.819 0.875 -28.819 0.482 61.051
11980.083 0.483 60.997 0.875 -28.873 0.875 -28.873 0.483 60.997
12005.042 0.484 60.944 0.874 -28.927 0.874 -28.927 0.484 60.944
12030 0.485 60.891 0.874 -28.98 0.874 -28.98 0.485 60.891
12054.958 0.485 60.837 0.873 -29.034 0.873 -29.034 0.485 60.837
12079.917 0.486 60.784 0.873 -29.087 0.873 -29.087 0.486 60.784
12104.875 0.487 60.731 0.872 -29.141 0.872 -29.141 0.487 60.731
12129.833 0.488 60.678 0.872 -29.194 0.872 -29.194 0.488 60.678
12154.792 0.489 60.625 0.871 -29.247 0.871 -29.247 0.489 60.625
12179.75 0.489 60.572 0.871 -29.301 0.871 -29.301 0.489 60.572
12204.708 0.49 60.519 0.871 -29.354 0.871 -29.354 0.49 60.519
12229.667 0.491 60.466 0.87 -29.407 0.87 -29.407 0.491 60.466
12254.625 0.492 60.413 0.87 -29.46 0.87 -29.46 0.492 60.413
12279.583 0.493 60.361 0.869 -29.513 0.869 -29.513 0.493 60.361
12304.542 0.493 60.308 0.869 -29.566 0.869 -29.566 0.493 60.308
12329.5 0.494 60.255 0.868 -29.619 0.868 -29.619 0.494 60.255
12354.458 0.495 60.203 0.868 -29.672 0.868 -29.672 0.495 60.203
12379.417 0.496 60.15 0.867 -29.724 0.867 -29.724 0.496 60.15
12404.375 0.497 60.098 0.867 -29.777 0.867 -29.777 0.497 60.098
12429.333 0.497 60.045 0.866 -29.83 0.866 -29.83 0.497 60.045
12454.292 0.498 59.993 0.866 -29.882 0.866 -29.882 0.498 59.993
12479.25 0.499 59.941 0.866 -29.935 0.866 -29.935 0.499 59.941
12504.208 0.5 59.889 0.865 -29.987 0.865 -29.987 0.5 59.889
12529.167 0.501 59.837 0.865 -30.04 0.865 -30.04 0.501 59.837
12554.125 0.501 59.785 0.864 -30.092 0.864 -30.092 0.501 59.785
12579.083 0.502 59.733 0.864 -30.144 0.864 -30.144 0.502 59.733
12604.042 0.503 59.681 0.863 -30.196 0.863 -30.196 0.503 59.681
12629 0.504 59.629 0.863 -30.249 0.863 -30.249 0.504 59.629
12653.958 0.505 59.577 0.862 -30.301 0.862 -30.301 0.505 59.577
12678.917 0.505 59.525 0.862 -30.353 0.862 -30.353 0.505 59.525
12703.875 0.506 59.473 0.861 -30.405 0.861 -30.405 0.506 59.473
12728.833 0.507 59.422 0.861 -30.457 0.861 -30.457 0.507 59.422
12753.792 0.508 59.37 0.86 -30.508 0.86 -30.508 0.508 59.37
12778.75 0.508 59.319 0.86 -30.56 0.86 -30.56 0.508 59.319
12803.708 0.509 59.267 0.86 -30.612 0.86 -30.612 0.509 59.267
12828.667 0.51 59.216 0.859 -30.664 0.859 -30.664 0.51 59.216
12853.625 0.511 59.164 0.859 -30.715 0.859 -30.715 0.511 59.164
12878.583 0.512 59.113 0.858 -30.767 0.858 -30.767 0.512 59.113
12903.542 0.512 59.062 0.858 -30.818 0.858 -30.818 0.512 59.062
12928.5 0.513 59.011 0.857 -30.87 0.857 -30.87 0.513 59.011
12953.458 0.514 58.96 0.857 -30.921 0.857 -30.921 0.514 58.96
12978.417 0.515 58.909 0.856 -30.972 0.856 -30.972 0.515 58.909
13003.375 0.515 58.858 0.856 -31.023 0.856 -31.023 0.515 58.858
13028.333 0.516 58.807 0.855 -31.075 0.855 -31.075 0.516 58.807
13053.292 0.517 58.756 0.855 -31.126 0.855 -31.126 0.517 58.756
13078.25 0.518 58.705 0.855 -31.177 0.855 -31.177 0.518 58.705
13103.208 0.518 58.654 0.854 -31.228 0.854 -31.228 0.518 58.654
13128.167 0.519 58.603 0.854 -31.279 0.854 -31.279 0.519 58.603
13153.125 0.52 58.553 0.853 -31.33 0.853 -31.33 0.52 58.553
13178.083 0.521 58.502 0.853 -31.38 0.853 -31.38 0.521 58.502
13203.042 0.521 58.452 0.852 -31.431 0.852 -31.431 0.521 58.452
13228 0.522 58.401 0.852 -31.482 0.852 -31.482 0.522 58.401
13252.958 0.523 58.351 0.851 -31.532 0.851 -31.532 0.523 58.351
13277.917 0.524 58.301 0.851 -31.583 0.851 -31.583 0.524 58.301
13302.875 0.524 58.25 0.85 -31.634 0.85 -31.634 0.524 58.25
13327.833 0.525 58.2 0.85 -31.684 0.85 -31.684 0.525 58.2
13352.792 0.526 58.15 0.849 -31.734 0.849 -31.734 0.526 58.15
13377.75 0.527 58.1 0.849 -31.785 0.849 -31.785 0.527 58.1
13402.708 0.527 58.05 0.849 -31.835 0.849 -31.835 0.527 58.05
13427.667 0.528 58 0.848 -31.885 0.848 -31.885 0.528 58
13452.625 0.529 57.95 0.848 -31.935 0.848 -31.935 0.529 57.95
13477.583 0.53 57.9 0.847 -31.986 0.847 -31.986 0.53 57.9
13502.542 0.53 57.85 0.847 -32.036 0.847 -32.036 0.53 57.85
13527.5 0.531 57.8 0.846 -32.086 0.846 -32.086 0.531 57.8
13552.458 0.532 57.751 0.846 -32.135 0.846 -32.135 0.532 57.751
13577.417 0.533 57.701 0.845 -32.185 0.845 -32.185 0.533 57.701
13602.375 0.533 57.651 0.845 -32.235 0.845 -32.235 0.533 57.651
13627.333 0.534 57.602 0.844 -32.285 0.844 -32.285 0.534 57.602
13652.292 0.535 57.552 0.844 -32.335 0.844 -32.335 0.535 57.552
13677.25 0.536 57.503 0.843 -32.384 0.843 -32.384 0.536 57.503
13702.208 0.536 57.454 0.843 -32.434 0.843 -32.434 0.536 57.454
13727.167 0.537 57.404 0.842 -32.483 0.842 -32.483 0.537 57.404
13752.125 0.538 57.355 0.842 -32.533 0.842 -32.533 0.538 57.355
13777.083 0.539 57.306 0.842 -32.582 0.842 -32.582 0.539 57.306
13802.042 0.539 57.257 0.841 -32.631 0.841 -32.631 0.539 57.257
13827 0.54 57.208 0.841 -32.681 0.841 -32.681 0.54 57.208
13851.958 0.541 57.159 0.84 -32.73 0.84 -32.73 0.541 57.159
13876.917 0.541 57.11 0.84 -32.779 0.84 -32.779 0.541 57.11
13901.875 0.542 57.061 0.839 -32.828 0.839 -32.828 0.542 57.061
13926.833 0.543 57.012 0.839 -32.877 0.839 -32.877 0.543 57.012
13951.792 0.544 56.963 0.838 -32.926 0.838 -32.926 0.544 56.963
13976.75 0.544 56.915 0.838 -32.975 0.838 -32.975 0.544 56.915
14001.708 0.545 56.866 0.837 -33.024 0.837 -33.024 0.545 56.866
14026.667 0.546 56.817 0.837 -33.073 0.837 -33.073 0.546 56.817
14051.625 0.546 56.769 0.836 -33.122 0.836 -33.122 0.546 56.769
14076.583 0.547 56.72 0.836 -33.17 0.836 -33.17 0.547 56.72
14101.542 0.548 56.672 0.836 -33.219 0.836 -33.219 0.548 56.672
14126.5 0.549 56.623 0.835 -33.268 0.835 -33.268 0.549 56.623
14151.458 0.549 56.575 0.835 -33.316 0.835 -33.316 0.549 56.575
14176.417 0.55 56.527 0.834 -33.365 0.834 -33.365 0.55 56.527
14201.375 0.551 56.479 0.834 -33.413 0.834 -33.413 0.551 56.479
14226.333 0.551 56.43 0.833 -33.461 0.833 -33.461 0.551 56.43
14251.292 0.552 56.382 0.833 -33.51 0.833 -33.51 0.552 56.382
14276.25 0.553 56.334 0.832 -33.558 0.832 -33.558 0.553 56.334
14301.208 0.553 56.286 0.832 -33.606 0.832 -33.606 0.553 56.286
14326.167 0.554 56.238 0.831 -33.654 0.831 -33.654 0.554 56.238
14351.125 0.555 56.191 0.831 -33.702 0.831 -33.702 0.555 56.191
14376.083 0.556 56.143 0.83 -33.75 0.83 -33.75 0.556 56.143
14401.042 0.556 56.095 0.83 -33.798 0.83 -33.798 0.556 56.095
14426 0.557 56.047 0.829 -33.846 0.829 -33.846 0.557 56.047
14450.958 0.558 56 0.829 -33.894 0.829 -33.894 0.558 56
14475.917 0.558 55.952 0.829 -33.942 0.829 -33.942 0.558 55.952
14500.875 0.559 55.904 0.828 -33.989 0.828 -33.989 0.559 55.904
14525.833 0.56 55.857 0.828 -34.037 0.828 -34.037 0.56 55.857
14550.792 0.56 55.81 0.827 -34.085 0.827 -34.085 0.56 55.81
14575.75 0.561 55.762 0.827 -34.132 0.827 -34.132 0.561 55.762
14600.708 0.562 55.715 0.826 -34.18 0.826 -34.18 0.562 55.715
14625.667 0.562 55.668 0.826 -34.227 0.826 -34.227 0.562 55.668
14650.625 0.563 55.621 0.825 -34.274 0.825 -34.274 0.563 55.621
14675.583 0.564 55.573 0.825 -34.322 0.825 -34.322 0.564 55.573
14700.542 0.565 55.526 0.824 -34.369 0.824 -34.369 0.565 55.526
14725.5 0.565 55.479 0.824 -34.416 0.824 -34.416 0.565 55.479
14750.458 0.566 55.432 0.823 -34.463 0.823 -34.463 0.566 55.432
14775.417 0.567 55.385 0.823 -34.511 0.823 -34.511 0.567 55.385
14800.375 0.567 55.339 0.823 -34.558 0.823 -34.558 0.567 55.339
14825.333 0.568 55.292 0.822 -34.605 0.822 -34.605 0.568 55.292
14850.292 0.569 55.245 0.822 -34.651 0.822 -34.651 0.569 55.245
14875.25 0.569 55.198 0.821 -34.698 0.821 -34.698 0.569 55.198
14900.208 0.57 55.152 0.821 -34.745 0.821 -34.745 0.57 55.152
14925.167 0.571 55.105 0.82 -34.792 0.82 -34.792 0.571 55.105
14950.125 0.571 55.059 0.82 -34.839 0.82 -34.839 0.571 55.059
14975.083 0.572 55.012 0.819 -34.885 0.819 -34.885 0.572 55.012
15000.042 0.573 54.966 0.819 -34.932 0.819 -34.932 0.573 54.966
15025 0.573 54.919 0.818 -34.978 0.818 -34.978 0.573 54.919
15049.958 0.574 54.873 0.818 -35.025 0.818 -35.025 0.574 54.873
15074.917 0.575 54.827 0.817 -35.071 0.817 -35.071 0.575 54.827
15099.875 0.575 54.781 0.817 -35.118 0.817 -35.118 0.575 54.781
15124.833 0.576 54.734 0.816 -35.164 0.816 -35.164 0.576 54.734
15149.792 0.577 54.688 0.816 -35.21 0.816 -35.21 0.577 54.688
15174.75 0.577 54.642 0.816 -35.256 0.816 -35.256 0.577 54.642
15199.708 0.578 54.596 0.815 -35.303 0.815 -35.303 0.578 54.596
15224.667 0.579 54.55 0.815 -35.349 0.815 -35.349 0.579 54.55
15249.625 0.579 54.505 0.814 -35.395 0.814 -35.395 0.579 54.505
15274.583 0.58 54.459 0.814 -35.441 0.814 -35.441 0.58 54.459
15299.542 0.581 54.413 0.813 -35.487 0.813 -35.487 0.581 54.413
15324.5 0.581 54.367 0.813 -35.533 0.813 -35.533 0.581 54.367
15349.458 0.582 54.322 0.812 -35.578 0.812 -35.578 0.582 54.322
15374.417 0.582 54.276 0.812 -35.624 0.812 -35.624 0.582 54.276
15399.375 0.583 54.231 0.811 -35.67 0.811 -35.67 0.583 54.231
15424.333 0.584 54.185 0.811 -35.715 0.811 -35.715 0.584 54.185
15449.292 0.584 54.14 0.81 -35.761 0.81 -35.761 0.584 54.14
15474.25 0.585 54.094 0.81 -35.807 0.81 -35.807 0.585 54.094
15499.208 0.586 54.049 0.81 -35.852 0.81 -35.852 0.586 54.049
15524.167 0.586 54.004 0.809 -35.897 0.809 -35.897 0.586 54.004
15549.125 0.587 53.958 0.809 -35.943 0.809 -35.943 0.587 53.958
15574.083 0.588 53.913 0.808 -35.988 0.808 -35.988 0.588 53.913
15599.042 0.588 53.868 0.808 -36.033 0.808 -36.033 0.588 53.868
15624 0.589 53.823 0.807 -36.079 0.807 -36.079 0.589 53.823
15648.958 0.59 53.778 0.807 -36.124 0.807 -36.124 0.59 53.778
15673.917 0.59 53.733 0.806 -36.169 0.806 -36.169 0.59 53.733
15698.875 0.591 53.688 0.806 -36.214 0.806 -36.214 0.591 53.688
15723.833 0.591 53.643 0.805 -36.259 0.805 -36.259 0.591 53.643
15748.792 0.592 53.599 0.805 -36.304 0.805 -36.304 0.592 53.599
15773.75 0.593 53.554 0.804 -36.349 0.804 -36.349 0.593 53.554
15798.708 0.593 53.509 0.804 -36.394 0.804 -36.394 0.593 53.509
15823.667 0.594 53.465 0.803 -36.438 0.803 -36.438 0.594 53.465
15848.625 0.595 53.42 0.803 -36.483 0.803 -36.483 0.595 53.42
15873.583 0.595 53.376 0.803 -36.528 0.803 -36.528 0.595 53.376
15898.542 0.596 53.331 0.802 -36.572 0.802 -36.572 0.596 53.331
15923.5 0.596 53.287 0.802 -36.617 0.802 -36.617 0.596 53.287
15948.458 0.597 53.242 0.801 -36.661 0.801 -36.661 0.597 53.242
15973.417 0.598 53.198 0.801 -36.706 0.801 -36.706 0.598 53.198
15998.375 0.598 53.154 0.8 -36.75 0.8 -36.75 0.598 53.154
16023.333 0.599 53.11 0.8 -36.795 0.8 -36.795 0.599 53.11
16048.292 0.6 53.066 0.799 -36.839 0.799 -36.839 0.6 53.066
16073.25 0.6 53.021 0.799 -36.883 0.799 -36.883 0.6 53.021
16098.208 0.601 52.977 0.798 -36.927 0.798 -36.927 0.601 52.977
16123.167 0.601 52.933 0.798 -36.972 0.798 -36.972 0.601 52.933
16148.125 0.602 52.889 0.797 -37.016 0.797 -37.016 0.602 52.889
16173.083 0.603 52.846 0.797 -37.06 0.797 -37.06 0.603 52.846
16198.042 0.603 52.802 0.797 -37.104 0.797 -37.104 0.603 52.802
16223 0.604 52.758 0.796 -37.147 0.796 -37.147 0.604 52.758
16247.958 0.604 52.714 0.796 -37.191 0.796 -37.191 0.604 52.714
16272.917 0.605 52.671 0.795 -37.235 0.795 -37.235 0.605 52.671
16297.875 0.606 52.627 0.795 -37.279 0.795 -37.279 0.606 52.627
16322.833 0.606 52.583 0.794 -37.323 0.794 -37.323 0.606 52.583
16347.792 0.607 52.54 0.794 -37.366 0.794 -37.366 0.607 52.54
16372.75 0.608 52.497 0.793 -37.41 0.793 -37.41 0.608 52.497
16397.708 0.608 52.453 0.793 -37.453 0.793 -37.453 0.608 52.453
16422.667 0.609 52.41 0.792 -37.497 0.792 -37.497 0.609 52.41
16447.625 0.609 52.366 0.792 -37.54 0.792 -37.54 0.609 52.366
16472.583 0.61 52.323 0.791 -37.584 0.791 -37.584 0.61 52.323
16497.542 0.611 52.28 0.791 -37.627 0.791 -37.627 0.611 52.28
16522.5 0.611 52.237 0.791 -37.67 0.791 -37.67 0.611 52.237
16547.458 0.612 52.194 0.79 -37.714 0.79 -37.714 0.612 52.194
16572.417 0.612 52.151 0.79 -37.757 0.79 -37.757 0.612 52.151
16597.375 0.613 52.108 0.789 -37.8 0.789 -37.8 0.613 52.108
16622.333 0.614 52.065 0.789 -37.843 0.789 -37.843 0.614 52.065
16647.292 0.614 52.022 0.788 -37.886 0.788 -37.886 0.614 52.022
16672.25 0.615 51.979 0.788 -37.929 0.788 -37.929 0.615 51.979
16697.208 0.615 51.936 0.787 -37.972 0.787 -37.972 0.615 51.936
16722.167 0.616 51.894 0.787 -38.015 0.787 -38.015 0.616 51.894
16747.125 0.616 51.851 0.786 -38.058 0.786 -38.058 0.616 51.851
16772.083 0.617 51.808 0.786 -38.1 0.786 -38.1 0.617 51.808
16797.042 0.618 51.766 0.785 -38.143 0.785 -38.143 0.618 51.766
16822 0.618 51.723 0.785 -38.186 0.785 -38.186 0.618 51.723
16846.958 0.619 51.681 0.785 -38.228 0.785 -38.228 0.619 51.681
16871.917 0.619 51.638 0.784 -38.271 0.784 -38.271 0.619 51.638
16896.875 0.62 51.596 0.784 -38.313 0.784 -38.313 0.62 51.596
16921.833 0.621 51.554 0.783 -38.356 0.783 -38.356 0.621 51.554
16946.792 0.621 51.511 0.783 -38.398 0.783 -38.398 0.621 51.511
16971.75 0.622 51.469 0.782 -38.441 0.782 -38.441 0.622 51.469
16996.708 0.622 51.427 0.782 -38.483 0.782 -38.483 0.622 51.427
17021.667 0.623 51.385 0.781 -38.525 0.781 -38.525 0.623 51.385
17046.625 0.623 51.343 0.781 -38.567 0.781 -38.567 0.623 51.343
17071.583 0.624 51.301 0.78 -38.609 0.78 -38.609 0.624 51.301
17096.542 0.625 51.259 0.78 -38.652 0.78 -38.652 0.625 51.259
17121.5 0.625 51.217 0.78 -38.694 0.78 -38.694 0.625 51.217
17146.458 0.626 51.175 0.779 -38.736 0.779 -38.736 0.626 51.175
17171.417 0.626 51.133 0.779 -38.777 0.779 -38.777 0.626 51.133
17196.375 0.627 51.092 0.778 -38.819 0.778 -38.819 0.627 51.092
17221.333 0.627 51.05 0.778 -38.861 0.778 -38.861 0.627 51.05
17246.292 0.628 51.008 0.777 -38.903 0.777 -38.903 0.628 51.008
17271.25 0.629 50.967 0.777 -38.945 0.777 -38.945 0.629 50.967
17296.208 0.629 50.925 0.776 -38.986 0.776 -38.986 0.629 50.925
17321.167 0.63 50.884 0.776 -39.028 0.776 -39.028 0.63 50.884
17346.125 0.63 50.842 0.775 -39.07 0.775 -39.07 0.63 50.842
17371.083 0.631 50.801 0.775 -39.111 0.775 -39.111 0.631 50.801
17396.042 0.631 50.759 0.774 -39.153 0.774 -39.153 0.631 50.759
17421 0.632 50.718 0.774 -39.194 0.774 -39.194 0.632 50.718
17445.958 0.633 50.677 0.774 -39.235 0.774 -39.235 0.633 50.677
17470.917 0.633 50.636 0.773 -39.277 0.773 -39.277 0.633 50.636
17495.875 0.634 50.595 0.773 -39.318 0.773 -39.318 0.634 50.595
17520.833 0.634 50.554 0.772 -39.359 0.772 -39.359 0.634 50.554
17545.792 0.635 50.512 0.772 -39.4 0.772 -39.4 0.635 50.512
17570.75 0.635 50.471 0.771 -39.442 0.771 -39.442 0.635 50.471
17595.708 0.636 50.431 0.771 -39.483 0.771 -39.483 0.636 50.431
17620.667 0.636 50.39 0.77 -39.524 0.77 -39.524 0.636 50.39
17645.625 0.637 50.349 0.77 -39.565 0.77 -39.565 0.637 50.349
17670.583 0.637 50.308 0.769 -39.606 0.769 -39.606 0.637 50.308
17695.542 0.638 50.267 0.769 -39.646 0.769 -39.646 0.638 50.267
17720.5 0.639 50.227 0.769 -39.687 0.769 -39.687 0.639 50.227
17745.458 0.639 50.186 0.768 -39.728 0.768 -39.728 0.639 50.186
17770.417 0.64 50.145 0.768 -39.769 0.768 -39.769 0.64 50.145
17795.375 0.64 50.105 0.767 -39.809 0.767 -39.809 0.64 50.105
17820.333 0.641 50.064 0.767 -39.85 0.767 -39.85 0.641 50.064
17845.292 0.641 50.024 0.766 -39.891 0.766 -39.891 0.641 50.024
17870.25 0.642 49.983 0.766 -39.931 0.766 -39.931 0.642 49.983
17895.208 0.642 49.943 0.765 -39.972 0.765 -39.972 0.642 49.943
17920.167 0.643 49.903 0.765 -40.012 0.765 -40.012 0.643 49.903
17945.125 0.643 49.862 0.764 -40.052 0.764 -40.052 0.643 49.862
17970.083 0.644 49.822 0.764 -40.093 0.764 -40.093 0.644 49.822
17995.042 0.645 49.782 0.764 -40.133 0.764 -40.133 0.645 49.782
18020 0.645 49.742 0.763 -40.173 0.763 -40.173 0.645 49.742
18044.958 0.646 49.702 0.763 -40.213 0.763 -40.213 0.646 49.702
18069.917 0.646 49.662 0.762 -40.254 0.762 -40.254 0.646 49.662
18094.875 0.647 49.622 0.762 -40.294 0.762 -40.294 0.647 49.622
18119.833 0.647 49.582 0.761 -40.334 0.761 -40.334 0.647 49.582
18144.792 0.648 49.542 0.761 -40.374 0.761 -40.374 0.648 49.542
18169.75 0.648 49.502 0.76 -40.414 0.76 -40.414 0.648 49.502
18194.708 0.649 49.463 0.76 -40.454 0.76 -40.454 0.649 49.463
18219.667 0.649 49.423 0.76 -40.493 0.76 -40.493 0.649 49.423
18244.625 0.65 49.383 0.759 -40.533 0.759 -40.533 0.65 49.383
18269.583 0.65 49.344 0.759 -40.573 0.759 -40.573 0.65 49.344
18294.542 0.651 49.304 0.758 -40.613 0.758 -40.613 0.651 49.304
18319.5 0.651 49.264 0.758 -40.652 0.758 -40.652 0.651 49.264
18344.458 0.652 49.225 0.757 -40.692 0.757 -40.692 0.652 49.225
18369.417 0.653 49.186 0.757 -40.731 0.757 -40.731 0.653 49.186
18394.375 0.653 49.146 0.756 -40.771 0.756 -40.771 0.653 49.146
18419.333 0.654 49.107 0.756 -40.81 0.756 -40.81 0.654 49.107
18444.292 0.654 49.068 0.755 -40.85 0.755 -40.85 0.654 49.068
18469.25 0.655 49.028 0.755 -40.889 0.755 -40.889 0.655 49.028
18494.208 0.655 48.989 0.755 -40.928 0.755 -40.928 0.655 48.989
18519.167 0.656 48.95 0.754 -40.968 0.754 -40.968 0.656 48.95
18544.125 0.656 48.911 0.754 -41.007 0.754 -41.007 0.656 48.911
18569.083 0.657 48.872 0.753 -41.046 0.753 -41.046 0.657 48.872
18594.042 0.657 48.833 0.753 -41.085 0.753 -41.085 0.657 48.833
18619 0.658 48.794 0.752 -41.124 0.752 -41.124 0.658 48.794
18643.958 0.658 48.755 0.752 -41.163 0.752 -41.163 0.658 48.755
18668.917 0.659 48.716 0.751 -41.202 0.751 -41.202 0.659 48.716
18693.875 0.659 48.677 0.751 -41.241 0.751 -41.241 0.659 48.677
18718.833 0.66 48.638 0.751 -41.28 0.751 -41.28 0.66 48.638
18743.792 0.66 48.6 0.75 -41.319 0.75 -41.319 0.66 48.6
18768.75 0.661 48.561 0.75 -41.358 0.75 -41.358 0.661 48.561
18793.708 0.661 48.522 0.749 -41.396 0.749 -41.396 0.661 48.522
18818.667 0.662 48.484 0.749 -41.435 0.749 -41.435 0.662 48.484
18843.625 0.662 48.445 0.748 -41.474 0.748 -41.474 0.662 48.445
18868.583 0.663 48.407 0.748 -41.512 0.748 -41.512 0.663 48.407
18893.542 0.663 48.368 0.747 -41.551 0.747 -41.551 0.663 48.368
18918.5 0.664 48.33 0.747 -41.589 0.747 -41.589 0.664 48.33
18943.458 0.664 48.292 0.747 -41.628 0.747 -41.628 0.664 48.292
18968.417 0.665 48.253 0.746 -41.666 0.746 -41.666 0.665 48.253
18993.375 0.665 48.215 0.746 -41.704 0.746 -41.704 0.665 48.215
19018.333 0.666 48.177 0.745 -41.743 0.745 -41.743 0.666 48.177
19043.292 0.666 48.139 0.745 -41.781 0.745 -41.781 0.666 48.139
19068.25 0.667 48.101 0.744 -41.819 0.744 -41.819 0.667 48.101
19093.208 0.667 48.063 0.744 -41.857 0.744 -41.857 0.667 48.063
19118.167 0.668 48.025 0.743 -41.896 0.743 -41.896 0.668 48.025
19143.125 0.668 47.987 0.743 -41.934 0.743 -41.934 0.668 47.987
19168.083 0.669 47.949 0.743 -41.972 0.743 -41.972 0.669 47.949
19193.042 0.669 47.911 0.742 -42.01 0.742 -42.01 0.669 47.911
19218 0.67 47.873 0.742 -42.048 0.742 -42.048 0.67 47.873
19242.958 0.67 47.835 0.741 -42.085 0.741 -42.085 0.67 47.835
19267.917 0.671 47.798 0.741 -42.123 0.741 -42.123 0.671 47.798
19292.875 0.671 47.76 0.74 -42.161 0.74 -42.161 0.671 47.76
19317.833 0.672 47.722 0.74 -42.199 0.74 -42.199 0.672 47.722
19342.792 0.672 47.685 0.739 -42.237 0.739 -42.237 0.672 47.685
19367.75 0.673 47.647 0.739 -42.274 0.739 -42.274 0.673 47.647
19392.708 0.673 47.61 0.739 -42.312 0.739 -42.312 0.673 47.61
19417.667 0.674 47.572 0.738 -42.349 0.738 -42.349 0.674 47.572
19442.625 0.674 47.535 0.738 -42.387 0.738 -42.387 0.674 47.535
19467.583 0.675 47.497 0.737 -42.424 0.737 -42.424 0.675 47.497
19492.542 0.675 47.46 0.737 -42.462 0.737 -42.462 0.675 47.46
19517.5 0.676 47.423 0.736 -42.499 0.736 -42.499 0.676 47.423
19542.458 0.676 47.385 0.736 -42.537 0.736 -42.537 0.676 47.385
19567.417 0.677 47.348 0.735 -42.574 0.735 -42.574 0.677 47.348
19592.375 0.677 47.311 0.735 -42.611 0.735 -42.611 0.677 47.311
19617.333 0.677 47.274 0.735 -42.648 0.735 -42.648 0.677 47.274
19642.292 0.678 47.237 0.734 -42.685 0.734 -42.685 0.678 47.237
19667.25 0.678 47.2 0.734 -42.723 0.734 -42.723 0.678 47.2
19692.208 0.679 47.163 0.733 -42.76 0.733 -42.76 0.679 47.163
19717.167 0.679 47.126 0.733 -42.797 0.733 -42.797 0.679 47.126
19742.125 0.68 47.089 0.732 -42.834 0.732 -42.834 0.68 47.089
19767.083 0.68 47.052 0.732 -42.871 0.732 -42.871 0.68 47.052
19792.042 0.681 47.016 0.732 -42.907 0.732 -42.907 0.681 47.016
19817 0.681 46.979 0.731 -42.944 0.731 -42.944 0.681 46.979
19841.958 0.682 46.942 0.731 -42.981 0.731 -42.981 0.682 46.942
19866.917 0.682 46.905 0.73 -43.018 0.73 -43.018 0.682 46.905
19891.875 0.683 46.869 0.73 -43.054 0.73 -43.054 0.683 46.869
19916.833 0.683 46.832 0.729 -43.091 0.729 -43.091 0.683 46.832
19941.792 0.684 46.796 0.729 -43.128 0.729 -43.128 0.684 46.796
19966.75 0.684 46.759 0.728 -43.164 0.728 -43.164 0.684 46.759
19991.708 0.685 46.723 0.728 -43.201 0.728 -43.201 0.685 46.723
20016.667 0.685 46.687 0.728 -43.237 0.728 -43.237 0.685 46.687
20041.625 0.685 46.65 0.727 -43.274 0.727 -43.274 0.685 46.65
20066.583 0.686 46.614 0.727 -43.31 0.727 -43.31 0.686 46.614
20091.542 0.686 46.578 0.726 -43.346 0.726 -43.346 0.686 46.578
20116.5 0.687 46.541 0.726 -43.383 0.726 -43.383 0.687 46.541
20141.458 0.687 46.505 0.725 -43.419 0.725 -43.419 0.687 46.505
20166.417 0.688 46.469 0.725 -43.455 0.725 -43.455 0.688 46.469
20191.375 0.688 46.433 0.725 -43.491 0.725 -43.491 0.688 46.433
20216.333 0.689 46.397 0.724 -43.528 0.724 -43.528 0.689 46.397
20241.292 0.689 46.361 0.724 -43.564 0.724 -43.564 0.689 46.361
20266.25 0.69 46.325 0.723 -43.6 0.723 -43.6 0.69 46.325
20291.208 0.69 46.289 0.723 -43.636 0.723 -43.636 0.69 46.289
20316.167 0.691 46.253 0.722 -43.672 0.722 -43.672 0.691 46.253
20341.125 0.691 46.218 0.722 -43.708 0.722 -43.708 0.691 46.218
20366.083 0.691 46.182 0.722 -43.743 0.722 -43.743 0.691 46.182
20391.042 0.692 46.146 0.721 -43.779 0.721 -43.779 0.692 46.146
20416 0.692 46.11 0.721 -43.815 0.721 -43.815 0.692 46.11
20440.958 0.693 46.075 0.72 -43.851 0.72 -43.851 0.693 46.075
20465.917 0.693 46.039 0.72 -43.886 0.72 -43.886 0.693 46.039
20490.875 0.694 46.004 0.719 -43.922 0.719 -43.922 0.694 46.004
20515.833 0.694 45.968 0.719 -43.958 0.719 -43.958 0.694 45.968
20540.792 0.695 45.933 0.719 -43.993 0.719 -43.993 0.695 45.933
20565.75 0.695 45.897 0.718 -44.029 0.718 -44.029 0.695 45.897
20590.708 0.695 45.862 0.718 -44.064 0.718 -44.064 0.695 45.862
20615.667 0.696 45.827 0.717 -44.1 0.717 -44.1 0.696 45.827
20640.625 0.696 45.791 0.717 -44.135 0.717 -44.135 0.696 45.791
20665.583 0.697 45.756 0.716 -44.17 0.716 -44.17 0.697 45.756
20690.542 0.697 45.721 0.716 -44.206 0.716 -44.206 0.697 45.721
20715.5 0.698 45.686 0.716 -44.241 0.716 -44.241 0.698 45.686
20740.458 0.698 45.651 0.715 -44.276 0.715 -44.276 0.698 45.651
20765.417 0.699 45.616 0.715 -44.311 0.715 -44.311 0.699 45.616
20790.375 0.699 45.58 0.714 -44.346 0.714 -44.346 0.699 45.58
20815.333 0.699 45.545 0.714 -44.381 0.714 -44.381 0.699 45.545
20840.292 0.7 45.511 0.713 -44.416 0.713 -44.416 0.7 45.511
20865.25 0.7 45.476 0.713 -44.451 0.713 -44.451 0.7 45.476
20890.208 0.701 45.441 0.713 -44.486 0.713 -44.486 0.701 45.441
20915.167 0.701 45.406 0.712 -44.521 0.712 -44.521 0.701 45.406
20940.125 0.702 45.371 0.712 -44.556 0.712 -44.556 0.702 45.371
20965.083 0.702 45.336 0.711 -44.591 0.711 -44.591 0.702 45.336
20990.042 0.702 45.302 0.711 -44.626 0.711 -44.626 0.702 45.302
21015 0.703 45.267 0.71 -44.66 0.71 -44.66 0.703 45.267
21039.958 0.703 45.232 0.71 -44.695 0.71 -44.695 0.703 45.232
21064.917 0.704 45.198 0.71 -44.73 0.71 -44.73 0.704 45.198
21089.875 0.704 45.163 0.709 -44.764 0.709 -44.764 0.704 45.163
21114.833 0.705 45.129 0.709 -44.799 0.709 -44.799 0.705 45.129
21139.792 0.705 45.094 0.708 -44.834 0.708 -44.834 0.705 45.094
21164.75 0.705 45.06 0.708 -44.868 0.708 -44.868 0.705 45.06
21189.708 0.706 45.026 0.707 -44.902 0.707 -44.902 0.706 45.026
21214.667 0.706 44.991 0.707 -44.937 0.707 -44.937 0.706 44.991
21239.625 0.707 44.957 0.707 -44.971 0.707 -44.971 0.707 44.957
21264.583 0.707 44.923 0.706 -45.005 0.706 -45.005 0.707 44.923
21289.542 0.708 44.889 0.706 -45.04 0.706 -45.04 0.708 44.889
21314.5 0.708 44.855 0.705 -45.074 0.705 -45.074 0.708 44.855
21339.458 0.708 44.82 0.705 -45.108 0.705 -45.108 0.708 44.82
21364.417 0.709 44.786 0.704 -45.142 0.704 -45.142 0.709 44.786
21389.375 0.709 44.752 0.704 -45.176 0.704 -45.176 0.709 44.752
21414.333 0.71 44.718 0.704 -45.211 0.704 -45.211 0.71 44.718
21439.292 0.71 44.684 0.703 -45.245 0.703 -45.245 0.71 44.684
21464.25 0.711 44.651 0.703 -45.279 0.703 -45.279 0.711 44.651
21489.208 0.711 44.617 0.702 -45.312 0.702 -45.312 0.711 44.617
21514.167 0.711 44.583 0.702 -45.346 0.702 -45.346 0.711 44.583
21539.125 0.712 44.549 0.702 -45.38 0.702 -45.38 0.712 44.549
21564.083 0.712 44.515 0.701 -45.414 0.701 -45.414 0.712 44.515
21589.042 0.713 44.482 0.701 -45.448 0.701 -45.448 0.713 44.482
21614 0.713 44.448 0.7 -45.482 0.7 -45.482 0.713 44.448
21638.958 0.713 44.414 0.7 -45.515 0.7 -45.515 0.713 44.414
21663.917 0.714 44.381 0.699 -45.549 0.699 -45.549 0.714 44.381
21688.875 0.714 44.347 0.699 -45.582 0.699 -45.582 0.714 44.347
21713.833 0.715 44.314 0.699 -45.616 0.699 -45.616 0.715 44.314
21738.792 0.715 44.28 0.698 -45.65 0.698 -45.65 0.715 44.28
21763.75 0.715 44.247 0.698 -45.683 0.698 -45.683 0.715 44.247
21788.708 0.716 44.214 0.697 -45.717 0.697 -45.717 0.716 44.214
21813.667 0.716 44.18 0.697 -45.75 0.697 -45.75 0.716 44.18
21838.625 0.717 44.147 0.697 -45.783 0.697 -45.783 0.717 44.147
21863.583 0.717 44.114 0.696 -45.817 0.696 -45.817 0.717 44.114
21888.542 0.718 44.081 0.696 -45.85 0.696 -45.85 0.718 44.081
21913.5 0.718 44.047 0.695 -45.883 0.695 -45.883 0.718 44.047
21938.458 0.718 44.014 0.695 -45.916 0.695 -45.916 0.718 44.014
21963.417 0.719 43.981 0.694 -45.95 0.694 -45.95 0.719 43.981
21988.375 0.719 43.948 0.694 -45.983 0.694 -45.983 0.719 43.948
22013.333 0.72 43.915 0.694 -46.016 0.694 -46.016 0.72 43.915
22038.292 0.72 43.882 0.693 -46.049 0.693 -46.049 0.72 43.882
22063.25 0.72 43.849 0.693 -46.082 0.693 -46.082 0.72 43.849
22088.208 0.721 43.816 0.692 -46.115 0.692 -46.115 0.721 43.816
22113.167 0.721 43.784 0.692 -46.148 0.692 -46.148 0.721 43.784
22138.125 0.722 43.751 0.692 -46.181 0.692 -46.181 0.722 43.751
22163.083 0.722 43.718 0.691 -46.213 0.691 -46.213 0.722 43.718
22188.042 0.722 43.685 0.691 -46.246 0.691 -46.246 0.722 43.685
22213 0.723 43.653 0.69 -46.279 0.69 -46.279 0.723 43.653
22237.958 0.723 43.62 0.69 -46.312 0.69 -46.312 0.723 43.62
22262.917 0.724 43.587 0.689 -46.344 0.689 -46.344 0.724 43.587
22287.875 0.724 43.555 0.689 -46.377 0.689 -46.377 0.724 43.555
22312.833 0.724 43.522 0.689 -46.41 0.689 -46.41 0.724 43.522
22337.792 0.725 43.49 0.688 -46.442 0.688 -46.442 0.725 43.49
22362.75 0.725 43.457 0.688 -46.475 0.688 -46.475 0.725 43.457
22387.708 0.725 43.425 0.687 -46.507 0.687 -46.507 0.725 43.425
22412.667 0.726 43.393 0.687 -46.54 0.687 -46.54 0.726 43.393
22437.625 0.726 43.36 0.687 -46.572 0.687 -46.572 0.726 43.36
22462.583 0.727 43.328 0.686 -46.604 0.686 -46.604 0.727 43.328
22487.542 0.727 43.296 0.686 -46.637 0.686 -46.637 0.727 43.296
22512.5 0.727 43.263 0.685 -46.669 0.685 -46.669 0.727 43.263
22537.458 0.728 43.231 0.685 -46.701 0.685 -46.701 0.728 43.231
22562.417 0.728 43.199 0.685 -46.733 0.685 -46.733 0.728 43.199
22587.375 0.729 43.167 0.684 -46.766 0.684 -46.766 0.729 43.167
22612.333 0.729 43.135 0.684 -46.798 0.684 -46.798 0.729 43.135
22637.292 0.729 43.103 0.683 -46.83 0.683 -46.83 0.729 43.103
22662.25 0.73 43.071 0.683 -46.862 0.683 -46.862 0.73 43.071
22687.208 0.73 43.039 0.682 -46.894 0.682 -46.894 0.73 43.039
22712.167 0.73 43.007 0.682 -46.926 0.682 -46.926 0.73 43.007
22737.125 0.731 42.975 0.682 -46.958 0.682 -46.958 0.731 42.975
22762.083 0.731 42.943 0.681 -46.99 0.681 -46.99 0.731 42.943
22787.042 0.732 42.912 0.681 -47.022 0.681 -47.022 0.732 42.912
22812 0.732 42.88 0.68 -47.053 0.68 -47.053 0.732 42.88
22836.958 0.732 42.848 0.68 -47.085 0.68 -47.085 0.732 42.848
22861.917 0.733 42.817 0.68 -47.117 0.68 -47.117 0.733 42.817
22886.875 0.733 42.785 0.679 -47.149 0.679 -47.149 0.733 42.785
22911.833 0.733 42.753 0.679 -47.18 0.679 -47.18 0.733 42.753
22936.792 0.734 42.722 0.678 -47.212 0.678 -47.212 0.734 42.722
22961.75 0.734 42.69 0.678 -47.244 0.678 -47.244 0.734 42.69
22986.708 0.735 42.659 0.678 -47.275 0.678 -47.275 0.735 42.659
23011.667 0.735 42.627 0.677 -47.307 0.677 -47.307 0.735 42.627
23036.625 0.735 42.596 0.677 -47.338 0.677 -47.338 0.735 42.596
23061.583 0.736 42.565 0.676 -47.37 0.676 -47.37 0.736 42.565
23086.542 0.736 42.533 0.676 -47.401 0.676 -47.401 0.736 42.533
23111.5 0.736 42.502 0.676 -47.432 0.676 -47.432 0.736 42.502
23136.458 0.737 42.471 0.675 -47.464 0.675 -47.464 0.737 42.471
23161.417 0.737 42.439 0.675 -47.495 0.675 -47.495 0.737 42.439
23186.375 0.738 42.408 0.674 -47.526 0.674 -47.526 0.738 42.408
23211.333 0.738 42.377 0.674 -47.557 0.674 -47.557 0.738 42.377
23236.292 0.738 42.346 0.674 -47.589 0.674 -47.589 0.738 42.346
23261.25 0.739 42.315 0.673 -47.62 0.673 -47.62 0.739 42.315
23286.208 0.739 42.284 0.673 -47.651 0.673 -47.651 0.739 42.284
23311.167 0.739 42.253 0.672 -47.682 0.672 -47.682 0.739 42.253
23336.125 0.74 42.222 0.672 -47.713 0.672 -47.713 0.74 42.222
23361.083 0.74 42.191 0.672 -47.744 0.672 -47.744 0.74 42.191
23386.042 0.741 42.16 0.671 -47.775 0.671 -47.775 0.741 42.16
23411 0.741 42.129 0.671 -47.806 0.671 -47.806 0.741 42.129
23435.958 0.741 42.099 0.67 -47.837 0.67 -47.837 0.741 42.099
23460.917 0.742 42.068 0.67 -47.867 0.67 -47.867 0.742 42.068
23485.875 0.742 42.037 0.67 -47.898 0.67 -47.898 0.742 42.037
23510.833 0.742 42.006 0.669 -47.929 0.669 -47.929 0.742 42.006
23535.792 0.743 41.976 0.669 -47.96 0.669 -47.96 0.743 41.976
23560.75 0.743 41.945 0.668 -47.99 0.668 -47.99 0.743 41.945
23585.708 0.743 41.914 0.668 -48.021 0.668 -48.021 0.743 41.914
23610.667 0.744 41.884 0.668 -48.052 0.668 -48.052 0.744 41.884
23635.625 0.744 41.853 0.667 -48.082 0.667 -48.082 0.744 41.853
23660.583 0.744 41.823 0.667 -48.113 0.667 -48.113 0.744 41.823
23685.542 0.745 41.792 0.666 -48.143 0.666 -48.143 0.745 41.792
23710.5 0.745 41.762 0.666 -48.174 0.666 -48.174 0.745 41.762
23735.458 0.746 41.732 0.666 -48.204 0.666 -48.204 0.746 41.732
23760.417 0.746 41.701 0.665 -48.235 0.665 -48.235 0.746 41.701
23785.375 0.746 41.671 0.665 -48.265 0.665 -48.265 0.746 41.671
23810.333 0.747 41.641 0.664 -48.295 0.664 -48.295 0.747 41.641
23835.292 0.747 41.611 0.664 -48.326 0.664 -48.326 0.747 41.611
23860.25 0.747 41.58 0.664 -48.356 0.664 -48.356 0.747 41.58
23885.208 0.748 41.55 0.663 -48.386 0.663 -48.386 0.748 41.55
23910.167 0.748 41.52 0.663 -48.416 0.663 -48.416 0.748 41.52
23935.125 0.748 41.49 0.662 -48.446 0.662 -48.446 0.748 41.49
23960.083 0.749 41.46 0.662 -48.477 0.662 -48.477 0.749 41.46
23985.042 0.749 41.43 0.662 -48.507 0.662 -48.507 0.749 41.43
24010 0.749 41.4 0.661 -48.537 0.661 -48.537 0.749 41.4
24034.958 0.75 41.37 0.661 -48.567 0.661 -48.567 0.75 41.37
24059.917 0.75 41.34 0.661 -48.597 0.661 -48.597 0.75 41.34
24084.875 0.75 41.31 0.66 -48.626 0.66 -48.626 0.75 41.31
24109.833 0.751 41.281 0.66 -48.656 0.66 -48.656 0.751 41.281
24134.792 0.751 41.251 0.659 -48.686 0.659 -48.686 0.751 41.251
24159.75 0.751 41.221 0.659 -48.716 0.659 -48.716 0.751 41.221
24184.708 0.752 41.191 0.659 -48.746 0.659 -48.746 0.752 41.191
24209.667 0.752 41.162 0.658 -48.776 0.658 -48.776 0.752 41.162
24234.625 0.752 41.132 0.658 -48.805 0.658 -48.805 0.752 41.132
24259.583 0.753 41.102 0.657 -48.835 0.657 -48.835 0.753 41.102
24284.542 0.753 41.073 0.657 -48.865 0.657 -48.865 0.753 41.073
24309.5 0.753 41.043 0.657 -48.894 0.657 -48.894 0.753 41.043
24334.458 0.754 41.014 0.656 -48.924 0.656 -48.924 0.754 41.014
24359.417 0.754 40.984 0.656 -48.953 0.656 -48.953 0.754 40.984
24384.375 0.755 40.955 0.655 -48.983 0.655 -48.983 0.755 40.955
24409.333 0.755 40.926 0.655 -49.012 0.655 -49.012 0.755 40.926
24434.292 0.755 40.896 0.655 -49.042 0.655 -49.042 0.755 40.896
24459.25 0.756 40.867 0.654 -49.071 0.654 -49.071 0.756 40.867
24484.208 0.756 40.838 0.654 -49.1 0.654 -49.1 0.756 40.838
24509.167 0.756 40.808 0.654 -49.13 0.654 -49.13 0.756 40.808
24534.125 0.757 40.779 0.653 -49.159 0.653 -49.159 0.757 40.779
24559.083 0.757 40.75 0.653 -49.188 0.653 -49.188 0.757 40.75
24584.042 0.757 40.721 0.652 -49.217 0.652 -49.217 0.757 40.721
24609 0.758 40.692 0.652 -49.247 0.652 -49.247 0.758 40.692
24633.958 0.758 40.663 0.652 -49.276 0.652 -49.276 0.758 40.663
24658.917 0.758 40.634 0.651 -49.305 0.651 -49.305 0.758 40.634
24683.875 0.759 40.604 0.651 -49.334 0.651 -49.334 0.759 40.604
24708.833 0.759 40.576 0.65 -49.363 0.65 -49.363 0.759 40.576
24733.792 0.759 40.547 0.65 -49.392 0.65 -49.392 0.759 40.547
24758.75 0.76 40.518 0.65 -49.421 0.65 -49.421 0.76 40.518
24783.708 0.76 40.489 0.649 -49.45 0.649 -49.45 0.76 40.489
24808.667 0.76 40.46 0.649 -49.479 0.649 -49.479 0.76 40.46
24833.625 0.76 40.431 0.649 -49.508 0.649 -49.508 0.76 40.431
24858.583 0.761 40.402 0.648 -49.537 0.648 -49.537 0.761 40.402
24883.542 0.761 40.374 0.648 -49.565 0.648 -49.565 0.761 40.374
24908.5 0.761 40.345 0.647 -49.594 0.647 -49.594 0.761 40.345
24933.458 0.762 40.316 0.647 -49.623 0.647 -49.623 0.762 40.316
24958.417 0.762 40.288 0.647 -49.652 0.647 -49.652 0.762 40.288
24983.375 0.762 40.259 0.646 -49.68 0.646 -49.68 0.762 40.259
25008.333 0.763 40.23 0.646 -49.709 0.646 -49.709 0.763 40.23
25033.292 0.763 40.202 0.645 -49.737 0.645 -49.737 0.763 40.202
25058.25 0.763 40.173 0.645 -49.766 0.645 -49.766 0.763 40.173
25083.208 0.764 40.145 0.645 -49.795 0.645 -49.795 0.764 40.145
25108.167 0.764 40.117 0.644 -49.823 0.644 -49.823 0.764 40.117
25133.125 0.764 40.088 0.644 -49.851 0.644 -49.851 0.764 40.088
25158.083 0.765 40.06 0.644 -49.88 0.644 -49.88 0.765 40.06
25183.042 0.765 40.031 0.643 -49.908 0.643 -49.908 0.765 40.031
25208 0.765 40.003 0.643 -49.937 0.643 -49.937 0.765 40.003
25232.958 0.766 39.975 0.642 -49.965 0.642 -49.965 0.766 39.975
25257.917 0.766 39.947 0.642 -49.993 0.642 -49.993 0.766 39.947
25282.875 0.766 39.918 0.642 -50.021 0.642 -50.021 0.766 39.918
25307.833 0.767 39.89 0.641 -50.05 0.641 -50.05 0.767 39.89
25332.792 0.767 39.862 0.641 -50.078 0.641 -50.078 0.767 39.862
25357.75 0.767 39.834 0.641 -50.106 0.641 -50.106 0.767 39.834
25382.708 0.768 39.806 0.64 -50.134 0.64 -50.134 0.768 39.806
25407.667 0.768 39.778 0.64 -50.162 0.64 -50.162 0.768 39.778
25432.625 0.768 39.75 0.639 -50.19 0.639 -50.19 0.768 39.75
25457.583 0.768 39.722 0.639 -50.218 0.639 -50.218 0.768 39.722
25482.542 0.769 39.694 0.639 -50.246 0.639 -50.246 0.769 39.694
25507.5 0.769 39.666 0.638 -50.274 0.638 -50.274 0.769 39.666
25532.458 0.769 39.638 0.638 -50.302 0.638 -50.302 0.769 39.638
25557.417 0.77 39.611 0.638 -50.33 0.638 -50.33 0.77 39.611
25582.375 0.77 39.583 0.637 -50.358 0.637 -50.358 0.77 39.583
25607.333 0.77 39.555 0.637 -50.386 0.637 -50.386 0.77 39.555
25632.292 0.771 39.527 0.636 -50.414 0.636 -50.414 0.771 39.527
25657.25 0.771 39.5 0.636 -50.441 0.636 -50.441 0.771 39.5
25682.208 0.771 39.472 0.636 -50.469 0.636 -50.469 0.771 39.472
25707.167 0.772 39.444 0.635 -50.497 0.635 -50.497 0.772 39.444
25732.125 0.772 39.417 0.635 -50.524 0.635 -50.524 0.772 39.417
25757.083 0.772 39.389 0.635 -50.552 0.635 -50.552 0.772 39.389
25782.042 0.773 39.362 0.634 -50.58 0.634 -50.58 0.773 39.362
25807 0.773 39.334 0.634 -50.607 0.634 -50.607 0.773 39.334
25831.958 0.773 39.307 0.633 -50.635 0.633 -50.635 0.773 39.307
25856.917 0.773 39.279 0.633 -50.662 0.633 -50.662 0.773 39.279
25881.875 0.774 39.252 0.633 -50.69 0.633 -50.69 0.774 39.252
25906.833 0.774 39.224 0.632 -50.717 0.632 -50.717 0.774 39.224
25931.792 0.774 39.197 0.632 -50.744 0.632 -50.744 0.774 39.197
25956.75 0.775 39.17 0.632 -50.772 0.632 -50.772 0.775 39.17
25981.708 0.775 39.142 0.631 -50.799 0.631 -50.799 0.775 39.142
26006.667 0.775 39.115 0.631 -50.826 0.631 -50.826 0.775 39.115
26031.625 0.776 39.088 0.631 -50.854 0.631 -50.854 0.776 39.088
26056.583 0.776 39.061 0.63 -50.881 0.63 -50.881 0.776 39.061
26081.542 0.776 39.034 0.63 -50.908 0.63 -50.908 0.776 39.034
26106.5 0.776 39.007 0.629 -50.935 0.629 -50.935 0.776 39.007
26131.458 0.777 38.979 0.629 -50.962 0.629 -50.962 0.777 38.979
26156.417 0.777 38.952 0.629 -50.99 0.629 -50.99 0.777 38.952
26181.375 0.777 38.925 0.628 -51.017 0.628 -51.017 0.777 38.925
26206.333 0.778 38.898 0.628 -51.044 0.628 -51.044 0.778 38.898
26231.292 0.778 38.871 0.628 -51.071 0.628 -51.071 0.778 38.871
26256.25 0.778 38.845 0.627 -51.098 0.627 -51.098 0.778 38.845
26281.208 0.779 38.818 0.627 -51.125 0.627 -51.125 0.779 38.818
26306.167 0.779 38.791 0.626 -51.152 0.626 -51.152 0.779 38.791
26331.125 0.779 38.764 0.626 -51.178 0.626 -51.178 0.779 38.764
26356.083 0.779 38.737 0.626 -51.205 0.626 -51.205 0.779 38.737
26381.042 0.78 38.71 0.625 -51.232 0.625 -51.232 0.78 38.71
26406 0.78 38.684 0.625 -51.259 0.625 -51.259 0.78 38.684
26430.958 0.78 38.657 0.625 -51.286 0.625 -51.286 0.78 38.657
26455.917 0.781 38.63 0.624 -51.312 0.624 -51.312 0.781 38.63
26480.875 0.781 38.604 0.624 -51.339 0.624 -51.339 0.781 38.604
26505.833 0.781 38.577 0.624 -51.366 0.624 -51.366 0.781 38.577
26530.792 0.781 38.55 0.623 -51.392 0.623 -51.392 0.781 38.55
26555.75 0.782 38.524 0.623 -51.419 0.623 -51.419 0.782 38.524
26580.708 0.782 38.497 0.622 -51.446 0.622 -51.446 0.782 38.497
26605.667 0.782 38.471 0.622 -51.472 0.622 -51.472 0.782 38.471
26630.625 0.783 38.444 0.622 -51.499 0.622 -51.499 0.783 38.444
26655.583 0.783 38.418 0.621 -51.525 0.621 -51.525 0.783 38.418
26680.542 0.783 38.392 0.621 -51.552 0.621 -51.552 0.783 38.392
26705.5 0.783 38.365 0.621 -51.578 0.621 -51.578 0.783 38.365
26730.458 0.784 38.339 0.62 -51.604 0.62 -51.604 0.784 38.339
26755.417 0.784 38.313 0.62 -51.631 0.62 -51.631 0.784 38.313
26780.375 0.784 38.286 0.62 -51.657 0.62 -51.657 0.784 38.286
26805.333 0.785 38.26 0.619 -51.683 0.619 -51.683 0.785 38.26
26830.292 0.785 38.234 0.619 -51.71 0.619 -51.71 0.785 38.234
26855.25 0.785 38.208 0.619 -51.736 0.619 -51.736 0.785 38.208
26880.208 0.785 38.182 0.618 -51.762 0.618 -51.762 0.785 38.182
26905.167 0.786 38.155 0.618 -51.788 0.618 -51.788 0.786 38.155
26930.125 0.786 38.129 0.617 -51.814 0.617 -51.814 0.786 38.129
26955.083 0.786 38.103 0.617 -51.84 0.617 -51.84 0.786 38.103
26980.042 0.787 38.077 0.617 -51.866 0.617 -51.866 0.787 38.077
27005 0.787 38.051 0.616 -51.893 0.616 -51.893 0.787 38.051
27029.958 0.787 38.025 0.616 -51.919 0.616 -51.919 0.787 38.025
27054.917 0.787 37.999 0.616 -51.945 0.616 -51.945 0.787 37.999
27079.875 0.788 37.974 0.615 -51.97 0.615 -51.97 0.788 37.974
27104.833 0.788 37.948 0.615 -51.996 0.615 -51.996 0.788 37.948
27129.792 0.788 37.922 0.615 -52.022 0.615 -52.022 0.788 37.922
27154.75 0.789 37.896 0.614 -52.048 0.614 -52.048 0.789 37.896
27179.708 0.789 37.87 0.614 -52.074 0.614 -52.074 0.789 37.87
27204.667 0.789 37.844 0.614 -52.1 0.614 -52.1 0.789 37.844
27229.625 0.789 37.819 0.613 -52.126 0.613 -52.126 0.789 37.819
27254.583 0.79 37.793 0.613 -52.151 0.613 -52.151 0.79 37.793
27279.542 0.79 37.767 0.612 -52.177 0.612 -52.177 0.79 37.767
27304.5 0.79 37.742 0.612 -52.203 0.612 -52.203 0.79 37.742
27329.458 0.79 37.716 0.612 -52.228 0.612 -52.228 0.79 37.716
27354.417 0.791 37.691 0.611 -52.254 0.611 -52.254 0.791 37.691
27379.375 0.791 37.665 0.611 -52.28 0.611 -52.28 0.791 37.665
27404.333 0.791 37.64 0.611 -52.305 0.611 -52.305 0.791 37.64
27429.292 0.792 37.614 0.61 -52.331 0.61 -52.331 0.792 37.614
27454.25 0.792 37.589 0.61 -52.356 0.61 -52.356 0.792 37.589
27479.208 0.792 37.563 0.61 -52.382 0.61 -52.382 0.792 37.563
27504.167 0.792 37.538 0.609 -52.407 0.609 -52.407 0.792 37.538
27529.125 0.793 37.512 0.609 -52.433 0.609 -52.433 0.793 37.512
27554.083 0.793 37.487 0.609 -52.458 0.609 -52.458 0.793 37.487
27579.042 0.793 37.462 0.608 -52.483 0.608 -52.483 0.793 37.462
27604 0.793 37.436 0.608 -52.509 0.608 -52.509 0.793 37.436
27628.958 0.794 37.411 0.608 -52.534 0.608 -52.534 0.794 37.411
27653.917 0.794 37.386 0.607 -52.559 0.607 -52.559 0.794 37.386
27678.875 0.794 37.361 0.607 -52.584 0.607 -52.584 0.794 37.361
27703.833 0.795 37.336 0.606 -52.61 0.606 -52.61 0.795 37.336
27728.792 0.795 37.311 0.606 -52.635 0.606 -52.635 0.795 37.311
27753.75 0.795 37.285 0.606 -52.66 0.606 -52.66 0.795 37.285
27778.708 0.795 37.26 0.605 -52.685 0.605 -52.685 0.795 37.26
27803.667 0.796 37.235 0.605 -52.71 0.605 -52.71 0.796 37.235
27828.625 0.796 37.21 0.605 -52.735 0.605 -52.735 0.796 37.21
27853.583 0.796 37.185 0.604 -52.76 0.604 -52.76 0.796 37.185
27878.542 0.796 37.16 0.604 -52.785 0.604 -52.785 0.796 37.16
27903.5 0.797 37.135 0.604 -52.81 0.604 -52.81 0.797 37.135
27928.458 0.797 37.111 0.603 -52.835 0.603 -52.835 0.797 37.111
27953.417 0.797 37.086 0.603 -52.86 0.603 -52.86 0.797 37.086
27978.375 0.797 37.061 0.603 -52.885 0.603 -52.885 0.797 37.061
28003.333 0.798 37.036 0.602 -52.91 0.602 -52.91 0.798 37.036
28028.292 0.798 37.011 0.602 -52.935 0.602 -52.935 0.798 37.011
28053.25 0.798 36.986 0.602 -52.959 0.602 -52.959 0.798 36.986
28078.208 0.798 36.962 0.601 -52.984 0.601 -52.984 0.798 36.962
28103.167 0.799 36.937 0.601 -53.009 0.601 -53.009 0.799 36.937
28128.125 0.799 36.912 0.601 -53.034 0.601 -53.034 0.799 36.912
28153.083 0.799 36.888 0.6 -53.058 0.6 -53.058 0.799 36.888
28178.042 0.8 36.863 0.6 -53.083 0.6 -53.083 0.8 36.863
28203 0.8 36.839 0.6 -53.108 0.6 -53.108 0.8 36.839
28227.958 0.8 36.814 0.599 -53.132 0.599 -53.132 0.8 36.814
28252.917 0.8 36.789 0.599 -53.157 0.599 -53.157 0.8 36.789
28277.875 0.801 36.765 0.599 -53.181 0.599 -53.181 0.801 36.765
28302.833 0.801 36.74 0.598 -53.206 0.598 -53.206 0.801 36.74
28327.792 0.801 36.716 0.598 -53.23 0.598 -53.23 0.801 36.716
28352.75 0.801 36.692 0.598 -53.255 0.598 -53.255 0.801 36.692
28377.708 0.802 36.667 0.597 -53.279 0.597 -53.279 0.802 36.667
28402.667 0.802 36.643 0.597 -53.304 0.597 -53.304 0.802 36.643
28427.625 0.802 36.619 0.596 -53.328 0.596 -53.328 0.802 36.619
28452.583 0.802 36.594 0.596 -53.352 0.596 -53.352 0.802 36.594
28477.542 0.803 36.57 0.596 -53.377 0.596 -53.377 0.803 36.57
28502.5 0.803 36.546 0.595 -53.401 0.595 -53.401 0.803 36.546
28527.458 0.803 36.522 0.595 -53.425 0.595 -53.425 0.803 36.522
28552.417 0.803 36.497 0.595 -53.45 0.595 -53.45 0.803 36.497
28577.375 0.804 36.473 0.594 -53.474 0.594 -53.474 0.804 36.473
28602.333 0.804 36.449 0.594 -53.498 0.594 -53.498 0.804 36.449
28627.292 0.804 36.425 0.594 -53.522 0.594 -53.522 0.804 36.425
28652.25 0.804 36.401 0.593 -53.546 0.593 -53.546 0.804 36.401
28677.208 0.805 36.377 0.593 -53.57 0.593 -53.57 0.805 36.377
28702.167 0.805 36.353 0.593 -53.594 0.593 -53.594 0.805 36.353
28727.125 0.805 36.329 0.592 -53.618 0.592 -53.618 0.805 36.329
28752.083 0.805 36.305 0.592 -53.642 0.592 -53.642 0.805 36.305
28777.042 0.806 36.281 0.592 -53.666 0.592 -53.666 0.806 36.281
28802 0.806 36.257 0.591 -53.69 0.591 -53.69 0.806 36.257
28826.958 0.806 36.233 0.591 -53.714 0.591 -53.714 0.806 36.233
28851.917 0.806 36.209 0.591 -53.738 0.591 -53.738 0.806 36.209
28876.875 0.807 36.185 0.59 -53.762 0.59 -53.762 0.807 36.185
28901.833 0.807 36.162 0.59 -53.786 0.59 -53.786 0.807 36.162
28926.792 0.807 36.138 0.59 -53.81 0.59 -53.81 0.807 36.138
28951.75 0.807 36.114 0.589 -53.834 0.589 -53.834 0.807 36.114
28976.708 0.808 36.09 0.589 -53.857 0.589 -53.857 0.808 36.09
29001.667 0.808 36.067 0.589 -53.881 0.589 -53.881 0.808 36.067
29026.625 0.808 36.043 0.588 -53.905 0.588 -53.905 0.808 36.043
29051.583 0.808 36.019 0.588 -53.929 0.588 -53.929 0.808 36.019
29076.542 0.809 35.996 0.588 -53.952 0.588 -53.952 0.809 35.996
29101.5 0.809 35.972 0.587 -53.976 0.587 -53.976 0.809 35.972
29126.458 0.809 35.949 0.587 -53.999 0.587 -53.999 0.809 35.949
29151.417 0.809 35.925 0.587 -54.023 0.587 -54.023 0.809 35.925
29176.375 0.809 35.901 0.586 -54.047 0.586 -54.047 0.809 35.901
29201.333 0.81 35.878 0.586 -54.07 0.586 -54.07 0.81 35.878
29226.292 0.81 35.855 0.586 -54.094 0.586 -54.094 0.81 35.855
29251.25 0.81 35.831 0.585 -54.117 0.585 -54.117 0.81 35.831
29276.208 0.81 35.808 0.585 -54.141 0.585 -54.141 0.81 35.808
29301.167 0.811 35.784 0.585 -54.164 0.585 -54.164 0.811 35.784
29326.125 0.811 35.761 0.584 -54.187 0.584 -54.187 0.811 35.761
29351.083 0.811 35.738 0.584 -54.211 0.584 -54.211 0.811 35.738
29376.042 0.811 35.714 0.584 -54.234 0.584 -54.234 0.811 35.714
29401 0.812 35.691 0.583 -54.257 0.583 -54.257 0.812 35.691
29425.958 0.812 35.668 0.583 -54.281 0.583 -54.281 0.812 35.668
29450.917 0.812 35.645 0.583 -54.304 0.583 -54.304 0.812 35.645
29475.875 0.812 35.621 0.582 -54.327 0.582 -54.327 0.812 35.621
29500.833 0.813 35.598 0.582 -54.35 0.582 -54.35 0.813 35.598
29525.792 0.813 35.575 0.582 -54.374 0.582 -54.374 0.813 35.575
29550.75 0.813 35.552 0.581 -54.397 0.581 -54.397 0.813 35.552
29575.708 0.813 35.529 0.581 -54.42 0.581 -54.42 0.813 35.529
29600.667 0.814 35.506 0.581 -54.443 0.581 -54.443 0.814 35.506
29625.625 0.814 35.483 0.58 -54.466 0.58 -54.466 0.814 35.483
29650.583 0.814 35.46 0.58 -54.489 0.58 -54.489 0.814 35.46
29675.542 0.814 35.437 0.58 -54.512 0.58 -54.512 0.814 35.437
29700.5 0.814 35.414 0.579 -54.535 0.579 -54.535 0.814 35.414
29725.458 0.815 35.391 0.579 -54.558 0.579 -54.558 0.815 35.391
29750.417 0.815 35.368 0.579 -54.581 0.579 -54.581 0.815 35.368
29775.375 0.815 35.345 0.579 -54.604 0.579 -54.604 0.815 35.345
29800.333 0.815 35.322 0.578 -54.627 0.578 -54.627 0.815 35.322
29825.292 0.816 35.3 0.578 -54.65 0.578 -54.65 0.816 35.3
29850.25 0.816 35.277 0.578 -54.672 0.578 -54.672 0.816 35.277
29875.208 0.816 35.254 0.577 -54.695 0.577 -54.695 0.816 35.254
29900.167 0.816 35.231 0.577 -54.718 0.577 -54.718 0.816 35.231
29925.125 0.817 35.209 0.577 -54.741 0.577 -54.741 0.817 35.209
29950.083 0.817 35.186 0.576 -54.764 0.576 -54.764 0.817 35.186
29975.042 0.817 35.163 0.576 -54.786 0.576 -54.786 0.817 35.163
30000 0.817 35.14 0.576 -54.809 0.576 -54.809 0.817 35.14
