!	AVX Thin Film Operation 	Date: April 2014		
!	Description: Accu-P® Series, Thin Film  SMD RF Capacitor
!	Part Number: 06031J0R7PBSTR					
!								
# MHZ S MA R 50

50 1 -1.26 0.022 88.736 0.022 88.736 1 -1.26
74.958 0.999 -1.888 0.033 88.106 0.033 88.106 0.999 -1.888
99.917 0.999 -2.517 0.044 87.476 0.044 87.476 0.999 -2.517
124.875 0.998 -3.145 0.055 86.846 0.055 86.846 0.998 -3.145
149.833 0.998 -3.772 0.066 86.217 0.066 86.217 0.998 -3.772
174.792 0.997 -4.399 0.077 85.588 0.077 85.588 0.997 -4.399
199.75 0.996 -5.025 0.088 84.961 0.088 84.961 0.996 -5.025
224.708 0.995 -5.65 0.098 84.333 0.098 84.333 0.995 -5.65
249.667 0.994 -6.275 0.109 83.707 0.109 83.707 0.994 -6.275
274.625 0.993 -6.898 0.12 83.082 0.12 83.082 0.993 -6.898
299.583 0.991 -7.52 0.131 82.458 0.131 82.458 0.991 -7.52
324.542 0.99 -8.142 0.142 81.835 0.142 81.835 0.99 -8.142
349.5 0.988 -8.761 0.152 81.213 0.152 81.213 0.988 -8.761
374.458 0.987 -9.38 0.163 80.593 0.163 80.593 0.987 -9.38
399.417 0.985 -9.997 0.174 79.974 0.174 79.974 0.985 -9.997
424.375 0.983 -10.612 0.184 79.357 0.184 79.357 0.983 -10.612
449.333 0.981 -11.226 0.195 78.742 0.195 78.742 0.981 -11.226
474.292 0.979 -11.838 0.205 78.128 0.205 78.128 0.979 -11.838
499.25 0.976 -12.448 0.216 77.516 0.216 77.516 0.976 -12.448
524.208 0.974 -13.057 0.226 76.905 0.226 76.905 0.974 -13.057
549.167 0.972 -13.663 0.236 76.297 0.236 76.297 0.972 -13.663
574.125 0.969 -14.267 0.246 75.691 0.246 75.691 0.969 -14.267
599.083 0.966 -14.87 0.257 75.087 0.257 75.087 0.966 -14.87
624.042 0.964 -15.47 0.267 74.485 0.267 74.485 0.964 -15.47
649 0.961 -16.067 0.277 73.885 0.277 73.885 0.961 -16.067
673.958 0.958 -16.663 0.287 73.288 0.287 73.288 0.958 -16.663
698.917 0.955 -17.256 0.297 72.693 0.297 72.693 0.955 -17.256
723.875 0.952 -17.846 0.306 72.101 0.306 72.101 0.952 -17.846
748.833 0.948 -18.434 0.316 71.511 0.316 71.511 0.948 -18.434
773.792 0.945 -19.02 0.326 70.924 0.326 70.924 0.945 -19.02
798.75 0.942 -19.602 0.335 70.339 0.335 70.339 0.942 -19.602
823.708 0.938 -20.182 0.345 69.758 0.345 69.758 0.938 -20.182
848.667 0.935 -20.759 0.354 69.179 0.354 69.179 0.935 -20.759
873.625 0.931 -21.334 0.364 68.602 0.364 68.602 0.931 -21.334
898.583 0.927 -21.905 0.373 68.029 0.373 68.029 0.927 -21.905
923.542 0.924 -22.474 0.382 67.458 0.382 67.458 0.924 -22.474
948.5 0.92 -23.039 0.391 66.891 0.391 66.891 0.92 -23.039
973.458 0.916 -23.602 0.4 66.327 0.4 66.327 0.916 -23.602
998.417 0.912 -24.162 0.409 65.765 0.409 65.765 0.912 -24.162
1023.375 0.908 -24.718 0.418 65.207 0.418 65.207 0.908 -24.718
1048.333 0.904 -25.271 0.427 64.652 0.427 64.652 0.904 -25.271
1073.292 0.9 -25.821 0.436 64.099 0.436 64.099 0.9 -25.821
1098.25 0.895 -26.368 0.444 63.551 0.444 63.551 0.895 -26.368
1123.208 0.891 -26.912 0.453 63.005 0.453 63.005 0.891 -26.912
1148.167 0.887 -27.453 0.461 62.463 0.461 62.463 0.887 -27.453
1173.125 0.882 -27.99 0.469 61.923 0.469 61.923 0.882 -27.99
1198.083 0.878 -28.524 0.478 61.388 0.478 61.388 0.878 -28.524
1223.042 0.873 -29.054 0.486 60.855 0.486 60.855 0.873 -29.054
1248 0.869 -29.581 0.494 60.326 0.494 60.326 0.869 -29.581
1272.958 0.864 -30.105 0.502 59.8 0.502 59.8 0.864 -30.105
1297.917 0.86 -30.625 0.509 59.278 0.509 59.278 0.86 -30.625
1322.875 0.855 -31.142 0.517 58.759 0.517 58.759 0.855 -31.142
1347.833 0.85 -31.656 0.525 58.243 0.525 58.243 0.85 -31.656
1372.792 0.846 -32.166 0.532 57.731 0.532 57.731 0.846 -32.166
1397.75 0.841 -32.673 0.54 57.222 0.54 57.222 0.841 -32.673
1422.708 0.836 -33.176 0.547 56.717 0.547 56.717 0.836 -33.176
1447.667 0.831 -33.676 0.554 56.215 0.554 56.215 0.831 -33.676
1472.625 0.826 -34.173 0.562 55.716 0.562 55.716 0.826 -34.173
1497.583 0.821 -34.666 0.569 55.221 0.569 55.221 0.821 -34.666
1522.542 0.816 -35.155 0.576 54.73 0.576 54.73 0.816 -35.155
1547.5 0.811 -35.641 0.583 54.242 0.583 54.242 0.811 -35.641
1572.458 0.807 -36.124 0.59 53.757 0.59 53.757 0.807 -36.124
1597.417 0.802 -36.603 0.596 53.276 0.596 53.276 0.802 -36.603
1622.375 0.797 -37.079 0.603 52.798 0.603 52.798 0.797 -37.079
1647.333 0.791 -37.551 0.609 52.323 0.609 52.323 0.791 -37.551
1672.292 0.786 -38.02 0.616 51.852 0.616 51.852 0.786 -38.02
1697.25 0.781 -38.485 0.622 51.385 0.622 51.385 0.781 -38.485
1722.208 0.776 -38.947 0.629 50.921 0.629 50.921 0.776 -38.947
1747.167 0.771 -39.406 0.635 50.46 0.635 50.46 0.771 -39.406
1772.125 0.766 -39.861 0.641 50.003 0.641 50.003 0.766 -39.861
1797.083 0.761 -40.312 0.647 49.549 0.647 49.549 0.761 -40.312
1822.042 0.756 -40.761 0.653 49.098 0.653 49.098 0.756 -40.761
1847 0.751 -41.206 0.659 48.651 0.659 48.651 0.751 -41.206
1871.958 0.746 -41.648 0.665 48.207 0.665 48.207 0.746 -41.648
1896.917 0.74 -42.086 0.67 47.766 0.67 47.766 0.74 -42.086
1921.875 0.735 -42.521 0.676 47.329 0.676 47.329 0.735 -42.521
1946.833 0.73 -42.953 0.681 46.895 0.681 46.895 0.73 -42.953
1971.792 0.725 -43.381 0.687 46.464 0.687 46.464 0.725 -43.381
1996.75 0.72 -43.806 0.692 46.037 0.692 46.037 0.72 -43.806
2021.708 0.715 -44.228 0.698 45.612 0.698 45.612 0.715 -44.228
2046.667 0.709 -44.647 0.703 45.191 0.703 45.191 0.709 -44.647
2071.625 0.704 -45.062 0.708 44.773 0.708 44.773 0.704 -45.062
2096.583 0.699 -45.475 0.713 44.359 0.713 44.359 0.699 -45.475
2121.542 0.694 -45.884 0.718 43.947 0.718 43.947 0.694 -45.884
2146.5 0.689 -46.29 0.723 43.539 0.723 43.539 0.689 -46.29
2171.458 0.684 -46.693 0.728 43.133 0.728 43.133 0.684 -46.693
2196.417 0.679 -47.093 0.732 42.731 0.732 42.731 0.679 -47.093
2221.375 0.673 -47.489 0.737 42.332 0.737 42.332 0.673 -47.489
2246.333 0.668 -47.883 0.742 41.936 0.742 41.936 0.668 -47.883
2271.292 0.663 -48.273 0.746 41.543 0.746 41.543 0.663 -48.273
2296.25 0.658 -48.661 0.751 41.153 0.751 41.153 0.658 -48.661
2321.208 0.653 -49.046 0.755 40.765 0.755 40.765 0.653 -49.046
2346.167 0.648 -49.427 0.76 40.381 0.76 40.381 0.648 -49.427
2371.125 0.643 -49.806 0.764 40 0.764 40 0.643 -49.806
2396.083 0.638 -50.182 0.768 39.622 0.768 39.622 0.638 -50.182
2421.042 0.633 -50.555 0.772 39.246 0.772 39.246 0.633 -50.555
2446 0.628 -50.925 0.776 38.873 0.776 38.873 0.628 -50.925
2470.958 0.623 -51.292 0.78 38.504 0.78 38.504 0.623 -51.292
2495.917 0.618 -51.656 0.784 38.137 0.784 38.137 0.618 -51.656
2520.875 0.613 -52.018 0.788 37.772 0.788 37.772 0.613 -52.018
2545.833 0.608 -52.376 0.792 37.411 0.792 37.411 0.608 -52.376
2570.792 0.603 -52.732 0.796 37.052 0.796 37.052 0.603 -52.732
2595.75 0.598 -53.086 0.8 36.696 0.8 36.696 0.598 -53.086
2620.708 0.593 -53.436 0.803 36.342 0.803 36.342 0.593 -53.436
2645.667 0.588 -53.784 0.807 35.992 0.807 35.992 0.588 -53.784
2670.625 0.583 -54.129 0.81 35.644 0.81 35.644 0.583 -54.129
2695.583 0.578 -54.472 0.814 35.298 0.814 35.298 0.578 -54.472
2720.542 0.573 -54.812 0.817 34.955 0.817 34.955 0.573 -54.812
2745.5 0.568 -55.149 0.821 34.615 0.821 34.615 0.568 -55.149
2770.458 0.563 -55.484 0.824 34.277 0.824 34.277 0.563 -55.484
2795.417 0.558 -55.817 0.827 33.941 0.827 33.941 0.558 -55.817
2820.375 0.554 -56.146 0.83 33.609 0.83 33.609 0.554 -56.146
2845.333 0.549 -56.474 0.834 33.278 0.834 33.278 0.549 -56.474
2870.292 0.544 -56.799 0.837 32.95 0.837 32.95 0.544 -56.799
2895.25 0.539 -57.121 0.84 32.624 0.84 32.624 0.539 -57.121
2920.208 0.534 -57.441 0.843 32.301 0.843 32.301 0.534 -57.441
2945.167 0.53 -57.759 0.846 31.98 0.846 31.98 0.53 -57.759
2970.125 0.525 -58.074 0.849 31.662 0.849 31.662 0.525 -58.074
2995.083 0.52 -58.387 0.852 31.345 0.852 31.345 0.52 -58.387
3020.042 0.516 -58.698 0.854 31.032 0.854 31.032 0.516 -58.698
3045 0.511 -59.006 0.857 30.72 0.857 30.72 0.511 -59.006
3069.958 0.506 -59.312 0.86 30.41 0.86 30.41 0.506 -59.312
3094.917 0.502 -59.616 0.863 30.103 0.863 30.103 0.502 -59.616
3119.875 0.497 -59.918 0.865 29.798 0.865 29.798 0.497 -59.918
3144.833 0.492 -60.217 0.868 29.495 0.868 29.495 0.492 -60.217
3169.792 0.488 -60.514 0.87 29.194 0.87 29.194 0.488 -60.514
3194.75 0.483 -60.809 0.873 28.896 0.873 28.896 0.483 -60.809
3219.708 0.479 -61.102 0.875 28.599 0.875 28.599 0.479 -61.102
3244.667 0.474 -61.393 0.878 28.305 0.878 28.305 0.474 -61.393
3269.625 0.47 -61.682 0.88 28.012 0.88 28.012 0.47 -61.682
3294.583 0.465 -61.968 0.883 27.722 0.883 27.722 0.465 -61.968
3319.542 0.461 -62.253 0.885 27.433 0.885 27.433 0.461 -62.253
3344.5 0.456 -62.535 0.887 27.147 0.887 27.147 0.456 -62.535
3369.458 0.452 -62.816 0.89 26.863 0.89 26.863 0.452 -62.816
3394.417 0.447 -63.094 0.892 26.58 0.892 26.58 0.447 -63.094
3419.375 0.443 -63.371 0.894 26.3 0.894 26.3 0.443 -63.371
3444.333 0.439 -63.645 0.896 26.021 0.896 26.021 0.439 -63.645
3469.292 0.434 -63.918 0.898 25.744 0.898 25.744 0.434 -63.918
3494.25 0.43 -64.189 0.9 25.469 0.9 25.469 0.43 -64.189
3519.208 0.426 -64.458 0.902 25.196 0.902 25.196 0.426 -64.458
3544.167 0.421 -64.725 0.904 24.925 0.904 24.925 0.421 -64.725
3569.125 0.417 -64.99 0.906 24.656 0.906 24.656 0.417 -64.99
3594.083 0.413 -65.253 0.908 24.388 0.908 24.388 0.413 -65.253
3619.042 0.409 -65.514 0.91 24.122 0.91 24.122 0.409 -65.514
3644 0.404 -65.774 0.912 23.858 0.912 23.858 0.404 -65.774
3668.958 0.4 -66.032 0.914 23.596 0.914 23.596 0.4 -66.032
3693.917 0.396 -66.288 0.916 23.335 0.916 23.335 0.396 -66.288
3718.875 0.392 -66.542 0.917 23.076 0.917 23.076 0.392 -66.542
3743.833 0.388 -66.794 0.919 22.818 0.919 22.818 0.388 -66.794
3768.792 0.384 -67.045 0.921 22.563 0.921 22.563 0.384 -67.045
3793.75 0.38 -67.294 0.923 22.309 0.923 22.309 0.38 -67.294
3818.708 0.376 -67.542 0.924 22.056 0.924 22.056 0.376 -67.542
3843.667 0.371 -67.787 0.926 21.806 0.926 21.806 0.371 -67.787
3868.625 0.367 -68.031 0.927 21.556 0.927 21.556 0.367 -68.031
3893.583 0.363 -68.274 0.929 21.309 0.929 21.309 0.363 -68.274
3918.542 0.359 -68.515 0.931 21.062 0.931 21.062 0.359 -68.515
3943.5 0.355 -68.754 0.932 20.818 0.932 20.818 0.355 -68.754
3968.458 0.351 -68.991 0.934 20.575 0.934 20.575 0.351 -68.991
3993.417 0.347 -69.227 0.935 20.333 0.935 20.333 0.347 -69.227
4018.375 0.344 -69.462 0.936 20.093 0.936 20.093 0.344 -69.462
4043.333 0.34 -69.694 0.938 19.855 0.938 19.855 0.34 -69.694
4068.292 0.336 -69.926 0.939 19.617 0.939 19.617 0.336 -69.926
4093.25 0.332 -70.155 0.941 19.382 0.941 19.382 0.332 -70.155
4118.208 0.328 -70.384 0.942 19.147 0.942 19.147 0.328 -70.384
4143.167 0.324 -70.61 0.943 18.914 0.943 18.914 0.324 -70.61
4168.125 0.32 -70.835 0.945 18.683 0.945 18.683 0.32 -70.835
4193.083 0.317 -71.059 0.946 18.453 0.946 18.453 0.317 -71.059
4218.042 0.313 -71.281 0.947 18.224 0.947 18.224 0.313 -71.281
4243 0.309 -71.502 0.948 17.997 0.948 17.997 0.309 -71.502
4267.958 0.305 -71.721 0.95 17.77 0.95 17.77 0.305 -71.721
4292.917 0.301 -71.939 0.951 17.546 0.951 17.546 0.301 -71.939
4317.875 0.298 -72.156 0.952 17.322 0.952 17.322 0.298 -72.156
4342.833 0.294 -72.371 0.953 17.1 0.953 17.1 0.294 -72.371
4367.792 0.29 -72.584 0.954 16.879 0.954 16.879 0.29 -72.584
4392.75 0.287 -72.796 0.955 16.66 0.955 16.66 0.287 -72.796
4417.708 0.283 -73.007 0.956 16.441 0.956 16.441 0.283 -73.007
4442.667 0.279 -73.216 0.957 16.224 0.957 16.224 0.279 -73.216
4467.625 0.276 -73.424 0.958 16.008 0.958 16.008 0.276 -73.424
4492.583 0.272 -73.631 0.96 15.793 0.96 15.793 0.272 -73.631
4517.542 0.269 -73.836 0.961 15.58 0.961 15.58 0.269 -73.836
4542.5 0.265 -74.04 0.962 15.368 0.962 15.368 0.265 -74.04
4567.458 0.261 -74.242 0.962 15.156 0.962 15.156 0.261 -74.242
4592.417 0.258 -74.443 0.963 14.946 0.963 14.946 0.258 -74.443
4617.375 0.254 -74.643 0.964 14.738 0.964 14.738 0.254 -74.643
4642.333 0.251 -74.842 0.965 14.53 0.965 14.53 0.251 -74.842
4667.292 0.247 -75.039 0.966 14.323 0.966 14.323 0.247 -75.039
4692.25 0.244 -75.235 0.967 14.118 0.967 14.118 0.244 -75.235
4717.208 0.24 -75.429 0.968 13.914 0.968 13.914 0.24 -75.429
4742.167 0.237 -75.622 0.969 13.71 0.969 13.71 0.237 -75.622
4767.125 0.234 -75.814 0.97 13.508 0.97 13.508 0.234 -75.814
4792.083 0.23 -76.004 0.97 13.307 0.97 13.307 0.23 -76.004
4817.042 0.227 -76.193 0.971 13.107 0.971 13.107 0.227 -76.193
4842 0.223 -76.381 0.972 12.908 0.972 12.908 0.223 -76.381
4866.958 0.22 -76.568 0.973 12.71 0.973 12.71 0.22 -76.568
4891.917 0.217 -76.753 0.973 12.513 0.973 12.513 0.217 -76.753
4916.875 0.213 -76.937 0.974 12.317 0.974 12.317 0.213 -76.937
4941.833 0.21 -77.119 0.975 12.122 0.975 12.122 0.21 -77.119
4966.792 0.207 -77.301 0.976 11.929 0.976 11.929 0.207 -77.301
4991.75 0.203 -77.48 0.976 11.736 0.976 11.736 0.203 -77.48
5016.708 0.2 -77.659 0.977 11.544 0.977 11.544 0.2 -77.659
5041.667 0.197 -77.836 0.978 11.353 0.978 11.353 0.197 -77.836
5066.625 0.194 -78.012 0.978 11.163 0.978 11.163 0.194 -78.012
5091.583 0.19 -78.186 0.979 10.974 0.979 10.974 0.19 -78.186
5116.542 0.187 -78.359 0.98 10.786 0.98 10.786 0.187 -78.359
5141.5 0.184 -78.531 0.98 10.598 0.98 10.598 0.184 -78.531
5166.458 0.181 -78.702 0.981 10.412 0.981 10.412 0.181 -78.702
5191.417 0.178 -78.87 0.981 10.227 0.981 10.227 0.178 -78.87
5216.375 0.174 -79.038 0.982 10.042 0.982 10.042 0.174 -79.038
5241.333 0.171 -79.204 0.982 9.859 0.982 9.859 0.171 -79.204
5266.292 0.168 -79.369 0.983 9.676 0.983 9.676 0.168 -79.369
5291.25 0.165 -79.532 0.983 9.495 0.983 9.495 0.165 -79.532
5316.208 0.162 -79.693 0.984 9.314 0.984 9.314 0.162 -79.693
5341.167 0.159 -79.854 0.985 9.134 0.985 9.134 0.159 -79.854
5366.125 0.156 -80.012 0.985 8.954 0.985 8.954 0.156 -80.012
5391.083 0.153 -80.169 0.985 8.776 0.985 8.776 0.153 -80.169
5416.042 0.15 -80.324 0.986 8.599 0.986 8.599 0.15 -80.324
5441 0.146 -80.478 0.986 8.422 0.986 8.422 0.146 -80.478
5465.958 0.143 -80.63 0.987 8.246 0.987 8.246 0.143 -80.63
5490.917 0.14 -80.781 0.987 8.071 0.987 8.071 0.14 -80.781
5515.875 0.137 -80.929 0.988 7.897 0.988 7.897 0.137 -80.929
5540.833 0.134 -81.076 0.988 7.723 0.988 7.723 0.134 -81.076
5565.792 0.131 -81.221 0.989 7.551 0.989 7.551 0.131 -81.221
5590.75 0.128 -81.364 0.989 7.379 0.989 7.379 0.128 -81.364
5615.708 0.126 -81.505 0.989 7.208 0.989 7.208 0.126 -81.505
5640.667 0.123 -81.643 0.99 7.038 0.99 7.038 0.123 -81.643
5665.625 0.12 -81.78 0.99 6.868 0.99 6.868 0.12 -81.78
5690.583 0.117 -81.914 0.99 6.699 0.99 6.699 0.117 -81.914
5715.542 0.114 -82.046 0.991 6.531 0.991 6.531 0.114 -82.046
5740.5 0.111 -82.176 0.991 6.364 0.991 6.364 0.111 -82.176
5765.458 0.108 -82.303 0.991 6.197 0.991 6.197 0.108 -82.303
5790.417 0.105 -82.427 0.992 6.032 0.992 6.032 0.105 -82.427
5815.375 0.102 -82.549 0.992 5.867 0.992 5.867 0.102 -82.549
5840.333 0.099 -82.667 0.992 5.702 0.992 5.702 0.099 -82.667
5865.292 0.097 -82.782 0.993 5.539 0.993 5.539 0.097 -82.782
5890.25 0.094 -82.894 0.993 5.376 0.993 5.376 0.094 -82.894
5915.208 0.091 -83.002 0.993 5.213 0.993 5.213 0.091 -83.002
5940.167 0.088 -83.106 0.993 5.052 0.993 5.052 0.088 -83.106
5965.125 0.085 -83.207 0.994 4.891 0.994 4.891 0.085 -83.207
5990.083 0.083 -83.302 0.994 4.731 0.994 4.731 0.083 -83.302
6015.042 0.08 -83.393 0.994 4.571 0.994 4.571 0.08 -83.393
6040 0.077 -83.478 0.994 4.412 0.994 4.412 0.077 -83.478
6064.958 0.074 -83.557 0.994 4.254 0.994 4.254 0.074 -83.557
6089.917 0.071 -83.631 0.995 4.097 0.995 4.097 0.071 -83.631
6114.875 0.069 -83.697 0.995 3.94 0.995 3.94 0.069 -83.697
6139.833 0.066 -83.755 0.995 3.783 0.995 3.783 0.066 -83.755
6164.792 0.063 -83.805 0.995 3.628 0.995 3.628 0.063 -83.805
6189.75 0.061 -83.845 0.995 3.473 0.995 3.473 0.061 -83.845
6214.708 0.058 -83.875 0.995 3.319 0.995 3.319 0.058 -83.875
6239.667 0.055 -83.892 0.996 3.165 0.996 3.165 0.055 -83.892
6264.625 0.053 -83.896 0.996 3.012 0.996 3.012 0.053 -83.896
6289.583 0.05 -83.883 0.996 2.859 0.996 2.859 0.05 -83.883
6314.542 0.047 -83.853 0.996 2.707 0.996 2.707 0.047 -83.853
6339.5 0.045 -83.801 0.996 2.556 0.996 2.556 0.045 -83.801
6364.458 0.042 -83.723 0.996 2.405 0.996 2.405 0.042 -83.723
6389.417 0.039 -83.616 0.996 2.255 0.996 2.255 0.039 -83.616
6414.375 0.037 -83.474 0.996 2.106 0.996 2.106 0.037 -83.474
6439.333 0.034 -83.287 0.997 1.957 0.997 1.957 0.034 -83.287
6464.292 0.032 -83.047 0.997 1.809 0.997 1.809 0.032 -83.047
6489.25 0.029 -82.74 0.997 1.661 0.997 1.661 0.029 -82.74
6514.208 0.027 -82.346 0.997 1.514 0.997 1.514 0.027 -82.346
6539.167 0.024 -81.84 0.997 1.367 0.997 1.367 0.024 -81.84
6564.125 0.021 -81.182 0.997 1.221 0.997 1.221 0.021 -81.182
6589.083 0.019 -80.314 0.997 1.075 0.997 1.075 0.019 -80.314
6614.042 0.016 -79.143 0.997 0.931 0.997 0.931 0.016 -79.143
6639 0.014 -77.51 0.997 0.786 0.997 0.786 0.014 -77.51
6663.958 0.012 -75.129 0.997 0.642 0.997 0.642 0.012 -75.129
6688.917 9.161e-3 -71.424 0.997 0.499 0.997 0.499 9.161e-3 -71.424
6713.875 6.835e-3 -65.071 0.997 0.356 0.997 0.356 6.835e-3 -65.071
6738.833 4.693e-3 -52.503 0.997 0.214 0.997 0.214 4.693e-3 -52.503
6763.792 3.109e-3 -23.833 0.997 0.072 0.997 0.072 3.109e-3 -23.833
6788.75 3.087e-3 22.896 0.997 -0.069 0.997 -0.069 3.087e-3 22.896
6813.708 4.634e-3 51.956 0.997 -0.21 0.997 -0.21 4.634e-3 51.956
6838.667 6.736e-3 64.689 0.997 -0.35 0.997 -0.35 6.736e-3 64.689
6863.625 9.004e-3 71.109 0.997 -0.49 0.997 -0.49 9.004e-3 71.109
6888.583 0.011 74.848 0.997 -0.629 0.997 -0.629 0.011 74.848
6913.542 0.014 77.25 0.997 -0.767 0.997 -0.767 0.014 77.25
6938.5 0.016 78.899 0.997 -0.906 0.997 -0.906 0.016 78.899
6963.458 0.018 80.084 0.997 -1.043 0.997 -1.043 0.018 80.084
6988.417 0.021 80.965 0.997 -1.18 0.997 -1.18 0.021 80.965
7013.375 0.023 81.635 0.997 -1.317 0.997 -1.317 0.023 81.635
7038.333 0.026 82.154 0.997 -1.453 0.997 -1.453 0.026 82.154
7063.292 0.028 82.56 0.997 -1.589 0.997 -1.589 0.028 82.56
7088.25 0.03 82.881 0.997 -1.724 0.997 -1.724 0.03 82.881
7113.208 0.033 83.136 0.997 -1.859 0.997 -1.859 0.033 83.136
7138.167 0.035 83.337 0.997 -1.993 0.997 -1.993 0.035 83.337
7163.125 0.037 83.496 0.996 -2.127 0.996 -2.127 0.037 83.496
7188.083 0.04 83.621 0.996 -2.26 0.996 -2.26 0.04 83.621
7213.042 0.042 83.716 0.996 -2.393 0.996 -2.393 0.042 83.716
7238 0.044 83.787 0.996 -2.526 0.996 -2.526 0.044 83.787
7262.958 0.046 83.838 0.996 -2.658 0.996 -2.658 0.046 83.838
7287.917 0.049 83.872 0.996 -2.789 0.996 -2.789 0.049 83.872
7312.875 0.051 83.89 0.996 -2.92 0.996 -2.92 0.051 83.89
7337.833 0.053 83.896 0.996 -3.051 0.996 -3.051 0.053 83.896
7362.792 0.056 83.891 0.996 -3.181 0.996 -3.181 0.056 83.891
7387.75 0.058 83.876 0.995 -3.311 0.995 -3.311 0.058 83.876
7412.708 0.06 83.852 0.995 -3.441 0.995 -3.441 0.06 83.852
7437.667 0.062 83.821 0.995 -3.569 0.995 -3.569 0.062 83.821
7462.625 0.065 83.784 0.995 -3.698 0.995 -3.698 0.065 83.784
7487.583 0.067 83.74 0.995 -3.826 0.995 -3.826 0.067 83.74
7512.542 0.069 83.691 0.995 -3.954 0.995 -3.954 0.069 83.691
7537.5 0.071 83.638 0.995 -4.081 0.995 -4.081 0.071 83.638
7562.458 0.073 83.58 0.994 -4.208 0.994 -4.208 0.073 83.58
7587.417 0.076 83.518 0.994 -4.334 0.994 -4.334 0.076 83.518
7612.375 0.078 83.453 0.994 -4.46 0.994 -4.46 0.078 83.453
7637.333 0.08 83.385 0.994 -4.586 0.994 -4.586 0.08 83.385
7662.292 0.082 83.314 0.994 -4.711 0.994 -4.711 0.082 83.314
7687.25 0.084 83.24 0.994 -4.836 0.994 -4.836 0.084 83.24
7712.208 0.087 83.164 0.993 -4.96 0.993 -4.96 0.087 83.164
7737.167 0.089 83.086 0.993 -5.084 0.993 -5.084 0.089 83.086
7762.125 0.091 83.006 0.993 -5.208 0.993 -5.208 0.091 83.006
7787.083 0.093 82.924 0.993 -5.331 0.993 -5.331 0.093 82.924
7812.042 0.095 82.841 0.993 -5.454 0.993 -5.454 0.095 82.841
7837 0.097 82.756 0.992 -5.576 0.992 -5.576 0.097 82.756
7861.958 0.099 82.67 0.992 -5.698 0.992 -5.698 0.099 82.67
7886.917 0.101 82.583 0.992 -5.82 0.992 -5.82 0.101 82.583
7911.875 0.104 82.494 0.992 -5.941 0.992 -5.941 0.104 82.494
7936.833 0.106 82.405 0.992 -6.062 0.992 -6.062 0.106 82.405
7961.792 0.108 82.314 0.991 -6.182 0.991 -6.182 0.108 82.314
7986.75 0.11 82.223 0.991 -6.302 0.991 -6.302 0.11 82.223
8011.708 0.112 82.131 0.991 -6.422 0.991 -6.422 0.112 82.131
8036.667 0.114 82.038 0.991 -6.542 0.991 -6.542 0.114 82.038
8061.625 0.116 81.945 0.99 -6.661 0.99 -6.661 0.116 81.945
8086.583 0.118 81.851 0.99 -6.779 0.99 -6.779 0.118 81.851
8111.542 0.12 81.756 0.99 -6.898 0.99 -6.898 0.12 81.756
8136.5 0.122 81.661 0.99 -7.016 0.99 -7.016 0.122 81.661
8161.458 0.124 81.566 0.989 -7.133 0.989 -7.133 0.124 81.566
8186.417 0.126 81.47 0.989 -7.251 0.989 -7.251 0.126 81.47
8211.375 0.128 81.373 0.989 -7.367 0.989 -7.367 0.128 81.373
8236.333 0.13 81.276 0.989 -7.484 0.989 -7.484 0.13 81.276
8261.292 0.132 81.179 0.988 -7.6 0.988 -7.6 0.132 81.179
8286.25 0.134 81.082 0.988 -7.716 0.988 -7.716 0.134 81.082
8311.208 0.136 80.984 0.988 -7.832 0.988 -7.832 0.136 80.984
8336.167 0.138 80.887 0.988 -7.947 0.988 -7.947 0.138 80.887
8361.125 0.14 80.789 0.987 -8.062 0.987 -8.062 0.14 80.789
8386.083 0.142 80.69 0.987 -8.176 0.987 -8.176 0.142 80.69
8411.042 0.144 80.592 0.987 -8.29 0.987 -8.29 0.144 80.592
8436 0.146 80.494 0.986 -8.404 0.986 -8.404 0.146 80.494
8460.958 0.148 80.395 0.986 -8.518 0.986 -8.518 0.148 80.395
8485.917 0.15 80.296 0.986 -8.631 0.986 -8.631 0.15 80.296
8510.875 0.152 80.197 0.986 -8.744 0.986 -8.744 0.152 80.197
8535.833 0.154 80.099 0.985 -8.856 0.985 -8.856 0.154 80.099
8560.792 0.156 80 0.985 -8.968 0.985 -8.968 0.156 80
8585.75 0.158 79.901 0.985 -9.08 0.985 -9.08 0.158 79.901
8610.708 0.16 79.802 0.984 -9.192 0.984 -9.192 0.16 79.802
8635.667 0.162 79.703 0.984 -9.303 0.984 -9.303 0.162 79.703
8660.625 0.164 79.604 0.984 -9.414 0.984 -9.414 0.164 79.604
8685.583 0.165 79.505 0.983 -9.525 0.983 -9.525 0.165 79.505
8710.542 0.167 79.406 0.983 -9.635 0.983 -9.635 0.167 79.406
8735.5 0.169 79.307 0.983 -9.745 0.983 -9.745 0.169 79.307
8760.458 0.171 79.208 0.982 -9.855 0.982 -9.855 0.171 79.208
8785.417 0.173 79.109 0.982 -9.964 0.982 -9.964 0.173 79.109
8810.375 0.175 79.01 0.982 -10.073 0.982 -10.073 0.175 79.01
8835.333 0.177 78.911 0.981 -10.182 0.981 -10.182 0.177 78.911
8860.292 0.179 78.813 0.981 -10.29 0.981 -10.29 0.179 78.813
8885.25 0.181 78.714 0.981 -10.399 0.981 -10.399 0.181 78.714
8910.208 0.182 78.615 0.98 -10.506 0.98 -10.506 0.182 78.615
8935.167 0.184 78.517 0.98 -10.614 0.98 -10.614 0.184 78.517
8960.125 0.186 78.418 0.98 -10.721 0.98 -10.721 0.186 78.418
8985.083 0.188 78.32 0.979 -10.828 0.979 -10.828 0.188 78.32
9010.042 0.19 78.222 0.979 -10.935 0.979 -10.935 0.19 78.222
9035 0.192 78.124 0.979 -11.041 0.979 -11.041 0.192 78.124
9059.958 0.193 78.026 0.978 -11.148 0.978 -11.148 0.193 78.026
9084.917 0.195 77.928 0.978 -11.253 0.978 -11.253 0.195 77.928
9109.875 0.197 77.83 0.978 -11.359 0.978 -11.359 0.197 77.83
9134.833 0.199 77.733 0.977 -11.464 0.977 -11.464 0.199 77.733
9159.792 0.201 77.635 0.977 -11.569 0.977 -11.569 0.201 77.635
9184.75 0.202 77.538 0.977 -11.674 0.977 -11.674 0.202 77.538
9209.708 0.204 77.441 0.976 -11.778 0.976 -11.778 0.204 77.441
9234.667 0.206 77.343 0.976 -11.883 0.976 -11.883 0.206 77.343
9259.625 0.208 77.246 0.975 -11.986 0.975 -11.986 0.208 77.246
9284.583 0.209 77.15 0.975 -12.09 0.975 -12.09 0.209 77.15
9309.542 0.211 77.053 0.975 -12.193 0.975 -12.193 0.211 77.053
9334.5 0.213 76.956 0.974 -12.296 0.974 -12.296 0.213 76.956
9359.458 0.215 76.86 0.974 -12.399 0.974 -12.399 0.215 76.86
9384.417 0.216 76.764 0.974 -12.502 0.974 -12.502 0.216 76.764
9409.375 0.218 76.668 0.973 -12.604 0.973 -12.604 0.218 76.668
9434.333 0.22 76.572 0.973 -12.706 0.973 -12.706 0.22 76.572
9459.292 0.222 76.476 0.972 -12.808 0.972 -12.808 0.222 76.476
9484.25 0.223 76.38 0.972 -12.909 0.972 -12.909 0.223 76.38
9509.208 0.225 76.285 0.972 -13.01 0.972 -13.01 0.225 76.285
9534.167 0.227 76.19 0.971 -13.111 0.971 -13.111 0.227 76.19
9559.125 0.229 76.094 0.971 -13.212 0.971 -13.212 0.229 76.094
9584.083 0.23 75.999 0.97 -13.312 0.97 -13.312 0.23 75.999
9609.042 0.232 75.905 0.97 -13.412 0.97 -13.412 0.232 75.905
9634 0.234 75.81 0.97 -13.512 0.97 -13.512 0.234 75.81
9658.958 0.235 75.715 0.969 -13.612 0.969 -13.612 0.235 75.715
9683.917 0.237 75.621 0.969 -13.711 0.969 -13.711 0.237 75.621
9708.875 0.239 75.527 0.968 -13.811 0.968 -13.811 0.239 75.527
9733.833 0.24 75.433 0.968 -13.909 0.968 -13.909 0.24 75.433
9758.792 0.242 75.339 0.968 -14.008 0.968 -14.008 0.242 75.339
9783.75 0.244 75.245 0.967 -14.106 0.967 -14.106 0.244 75.245
9808.708 0.245 75.152 0.967 -14.205 0.967 -14.205 0.245 75.152
9833.667 0.247 75.059 0.966 -14.302 0.966 -14.302 0.247 75.059
9858.625 0.249 74.966 0.966 -14.4 0.966 -14.4 0.249 74.966
9883.583 0.25 74.873 0.965 -14.498 0.965 -14.498 0.25 74.873
9908.542 0.252 74.78 0.965 -14.595 0.965 -14.595 0.252 74.78
9933.5 0.254 74.687 0.965 -14.692 0.965 -14.692 0.254 74.687
9958.458 0.255 74.595 0.964 -14.788 0.964 -14.788 0.255 74.595
9983.417 0.257 74.503 0.964 -14.885 0.964 -14.885 0.257 74.503
10008.375 0.259 74.41 0.963 -14.981 0.963 -14.981 0.259 74.41
10033.333 0.26 74.319 0.963 -15.077 0.963 -15.077 0.26 74.319
10058.292 0.262 74.227 0.962 -15.173 0.962 -15.173 0.262 74.227
10083.25 0.263 74.135 0.962 -15.268 0.962 -15.268 0.263 74.135
10108.208 0.265 74.044 0.962 -15.363 0.962 -15.363 0.265 74.044
10133.167 0.267 73.953 0.961 -15.458 0.961 -15.458 0.267 73.953
10158.125 0.268 73.862 0.961 -15.553 0.961 -15.553 0.268 73.862
10183.083 0.27 73.771 0.96 -15.648 0.96 -15.648 0.27 73.771
10208.042 0.271 73.68 0.96 -15.742 0.96 -15.742 0.271 73.68
10233 0.273 73.59 0.959 -15.836 0.959 -15.836 0.273 73.59
10257.958 0.274 73.499 0.959 -15.93 0.959 -15.93 0.274 73.499
10282.917 0.276 73.409 0.958 -16.024 0.958 -16.024 0.276 73.409
10307.875 0.278 73.319 0.958 -16.117 0.958 -16.117 0.278 73.319
10332.833 0.279 73.229 0.958 -16.21 0.958 -16.21 0.279 73.229
10357.792 0.281 73.14 0.957 -16.303 0.957 -16.303 0.281 73.14
10382.75 0.282 73.05 0.957 -16.396 0.957 -16.396 0.282 73.05
10407.708 0.284 72.961 0.956 -16.489 0.956 -16.489 0.284 72.961
10432.667 0.285 72.872 0.956 -16.581 0.956 -16.581 0.285 72.872
10457.625 0.287 72.783 0.955 -16.673 0.955 -16.673 0.287 72.783
10482.583 0.288 72.694 0.955 -16.765 0.955 -16.765 0.288 72.694
10507.542 0.29 72.606 0.954 -16.857 0.954 -16.857 0.29 72.606
10532.5 0.292 72.517 0.954 -16.948 0.954 -16.948 0.292 72.517
10557.458 0.293 72.429 0.953 -17.039 0.953 -17.039 0.293 72.429
10582.417 0.295 72.341 0.953 -17.13 0.953 -17.13 0.295 72.341
10607.375 0.296 72.253 0.952 -17.221 0.952 -17.221 0.296 72.253
10632.333 0.298 72.166 0.952 -17.312 0.952 -17.312 0.298 72.166
10657.292 0.299 72.078 0.952 -17.402 0.952 -17.402 0.299 72.078
10682.25 0.301 71.991 0.951 -17.492 0.951 -17.492 0.301 71.991
10707.208 0.302 71.904 0.951 -17.582 0.951 -17.582 0.302 71.904
10732.167 0.304 71.817 0.95 -17.672 0.95 -17.672 0.304 71.817
10757.125 0.305 71.73 0.95 -17.762 0.95 -17.762 0.305 71.73
10782.083 0.307 71.643 0.949 -17.851 0.949 -17.851 0.307 71.643
10807.042 0.308 71.557 0.949 -17.94 0.949 -17.94 0.308 71.557
10832 0.31 71.471 0.948 -18.029 0.948 -18.029 0.31 71.471
10856.958 0.311 71.384 0.948 -18.118 0.948 -18.118 0.311 71.384
10881.917 0.312 71.299 0.947 -18.206 0.947 -18.206 0.312 71.299
10906.875 0.314 71.213 0.947 -18.295 0.947 -18.295 0.314 71.213
10931.833 0.315 71.127 0.946 -18.383 0.946 -18.383 0.315 71.127
10956.792 0.317 71.042 0.946 -18.471 0.946 -18.471 0.317 71.042
10981.75 0.318 70.957 0.945 -18.558 0.945 -18.558 0.318 70.957
11006.708 0.32 70.871 0.945 -18.646 0.945 -18.646 0.32 70.871
11031.667 0.321 70.787 0.944 -18.733 0.944 -18.733 0.321 70.787
11056.625 0.323 70.702 0.944 -18.82 0.944 -18.82 0.323 70.702
11081.583 0.324 70.617 0.943 -18.907 0.943 -18.907 0.324 70.617
11106.542 0.325 70.533 0.943 -18.994 0.943 -18.994 0.325 70.533
11131.5 0.327 70.449 0.942 -19.08 0.942 -19.08 0.327 70.449
11156.458 0.328 70.365 0.942 -19.167 0.942 -19.167 0.328 70.365
11181.417 0.33 70.281 0.941 -19.253 0.941 -19.253 0.33 70.281
11206.375 0.331 70.197 0.941 -19.339 0.941 -19.339 0.331 70.197
11231.333 0.333 70.114 0.94 -19.425 0.94 -19.425 0.333 70.114
11256.292 0.334 70.03 0.94 -19.51 0.94 -19.51 0.334 70.03
11281.25 0.335 69.947 0.939 -19.595 0.939 -19.595 0.335 69.947
11306.208 0.337 69.864 0.939 -19.681 0.939 -19.681 0.337 69.864
11331.167 0.338 69.781 0.938 -19.766 0.938 -19.766 0.338 69.781
11356.125 0.34 69.698 0.938 -19.85 0.938 -19.85 0.34 69.698
11381.083 0.341 69.616 0.937 -19.935 0.937 -19.935 0.341 69.616
11406.042 0.342 69.534 0.937 -20.019 0.937 -20.019 0.342 69.534
11431 0.344 69.451 0.936 -20.104 0.936 -20.104 0.344 69.451
11455.958 0.345 69.369 0.936 -20.188 0.936 -20.188 0.345 69.369
11480.917 0.346 69.287 0.935 -20.272 0.935 -20.272 0.346 69.287
11505.875 0.348 69.206 0.935 -20.355 0.935 -20.355 0.348 69.206
11530.833 0.349 69.124 0.934 -20.439 0.934 -20.439 0.349 69.124
11555.792 0.351 69.043 0.934 -20.522 0.934 -20.522 0.351 69.043
11580.75 0.352 68.962 0.933 -20.605 0.933 -20.605 0.352 68.962
11605.708 0.353 68.881 0.933 -20.688 0.933 -20.688 0.353 68.881
11630.667 0.355 68.8 0.932 -20.771 0.932 -20.771 0.355 68.8
11655.625 0.356 68.719 0.932 -20.854 0.932 -20.854 0.356 68.719
11680.583 0.357 68.638 0.931 -20.936 0.931 -20.936 0.357 68.638
11705.542 0.359 68.558 0.931 -21.018 0.931 -21.018 0.359 68.558
11730.5 0.36 68.478 0.93 -21.1 0.93 -21.1 0.36 68.478
11755.458 0.361 68.398 0.93 -21.182 0.93 -21.182 0.361 68.398
11780.417 0.363 68.318 0.929 -21.264 0.929 -21.264 0.363 68.318
11805.375 0.364 68.238 0.929 -21.345 0.929 -21.345 0.364 68.238
11830.333 0.365 68.158 0.928 -21.427 0.928 -21.427 0.365 68.158
11855.292 0.367 68.079 0.928 -21.508 0.928 -21.508 0.367 68.079
11880.25 0.368 68 0.927 -21.589 0.927 -21.589 0.368 68
11905.208 0.369 67.921 0.927 -21.67 0.927 -21.67 0.369 67.921
11930.167 0.371 67.842 0.926 -21.75 0.926 -21.75 0.371 67.842
11955.125 0.372 67.763 0.926 -21.831 0.926 -21.831 0.372 67.763
11980.083 0.373 67.684 0.925 -21.911 0.925 -21.911 0.373 67.684
12005.042 0.374 67.606 0.925 -21.991 0.925 -21.991 0.374 67.606
12030 0.376 67.527 0.924 -22.071 0.924 -22.071 0.376 67.527
12054.958 0.377 67.449 0.924 -22.151 0.924 -22.151 0.377 67.449
12079.917 0.378 67.371 0.923 -22.23 0.923 -22.23 0.378 67.371
12104.875 0.38 67.293 0.923 -22.31 0.923 -22.31 0.38 67.293
12129.833 0.381 67.215 0.922 -22.389 0.922 -22.389 0.381 67.215
12154.792 0.382 67.138 0.921 -22.468 0.921 -22.468 0.382 67.138
12179.75 0.383 67.06 0.921 -22.547 0.921 -22.547 0.383 67.06
12204.708 0.385 66.983 0.92 -22.626 0.92 -22.626 0.385 66.983
12229.667 0.386 66.906 0.92 -22.705 0.92 -22.705 0.386 66.906
12254.625 0.387 66.829 0.919 -22.783 0.919 -22.783 0.387 66.829
12279.583 0.389 66.752 0.919 -22.861 0.919 -22.861 0.389 66.752
12304.542 0.39 66.676 0.918 -22.939 0.918 -22.939 0.39 66.676
12329.5 0.391 66.599 0.918 -23.017 0.918 -23.017 0.391 66.599
12354.458 0.392 66.523 0.917 -23.095 0.917 -23.095 0.392 66.523
12379.417 0.394 66.447 0.917 -23.173 0.917 -23.173 0.394 66.447
12404.375 0.395 66.371 0.916 -23.25 0.916 -23.25 0.395 66.371
12429.333 0.396 66.295 0.916 -23.328 0.916 -23.328 0.396 66.295
12454.292 0.397 66.219 0.915 -23.405 0.915 -23.405 0.397 66.219
12479.25 0.398 66.143 0.915 -23.482 0.915 -23.482 0.398 66.143
12504.208 0.4 66.068 0.914 -23.559 0.914 -23.559 0.4 66.068
12529.167 0.401 65.993 0.914 -23.635 0.914 -23.635 0.401 65.993
12554.125 0.402 65.917 0.913 -23.712 0.913 -23.712 0.402 65.917
12579.083 0.403 65.842 0.912 -23.788 0.912 -23.788 0.403 65.842
12604.042 0.405 65.768 0.912 -23.864 0.912 -23.864 0.405 65.768
12629 0.406 65.693 0.911 -23.94 0.911 -23.94 0.406 65.693
12653.958 0.407 65.618 0.911 -24.016 0.911 -24.016 0.407 65.618
12678.917 0.408 65.544 0.91 -24.092 0.91 -24.092 0.408 65.544
12703.875 0.409 65.47 0.91 -24.168 0.91 -24.168 0.409 65.47
12728.833 0.411 65.395 0.909 -24.243 0.909 -24.243 0.411 65.395
12753.792 0.412 65.321 0.909 -24.318 0.909 -24.318 0.412 65.321
12778.75 0.413 65.248 0.908 -24.393 0.908 -24.393 0.413 65.248
12803.708 0.414 65.174 0.908 -24.468 0.908 -24.468 0.414 65.174
12828.667 0.415 65.1 0.907 -24.543 0.907 -24.543 0.415 65.1
12853.625 0.417 65.027 0.907 -24.618 0.907 -24.618 0.417 65.027
12878.583 0.418 64.954 0.906 -24.692 0.906 -24.692 0.418 64.954
12903.542 0.419 64.88 0.905 -24.766 0.905 -24.766 0.419 64.88
12928.5 0.42 64.807 0.905 -24.841 0.905 -24.841 0.42 64.807
12953.458 0.421 64.735 0.904 -24.915 0.904 -24.915 0.421 64.735
12978.417 0.422 64.662 0.904 -24.989 0.904 -24.989 0.422 64.662
13003.375 0.424 64.589 0.903 -25.062 0.903 -25.062 0.424 64.589
13028.333 0.425 64.517 0.903 -25.136 0.903 -25.136 0.425 64.517
13053.292 0.426 64.445 0.902 -25.209 0.902 -25.209 0.426 64.445
13078.25 0.427 64.372 0.902 -25.283 0.902 -25.283 0.427 64.372
13103.208 0.428 64.3 0.901 -25.356 0.901 -25.356 0.428 64.3
13128.167 0.429 64.229 0.901 -25.429 0.901 -25.429 0.429 64.229
13153.125 0.431 64.157 0.9 -25.502 0.9 -25.502 0.431 64.157
13178.083 0.432 64.085 0.899 -25.574 0.899 -25.574 0.432 64.085
13203.042 0.433 64.014 0.899 -25.647 0.899 -25.647 0.433 64.014
13228 0.434 63.942 0.898 -25.719 0.898 -25.719 0.434 63.942
13252.958 0.435 63.871 0.898 -25.792 0.898 -25.792 0.435 63.871
13277.917 0.436 63.8 0.897 -25.864 0.897 -25.864 0.436 63.8
13302.875 0.437 63.729 0.897 -25.936 0.897 -25.936 0.437 63.729
13327.833 0.438 63.659 0.896 -26.008 0.896 -26.008 0.438 63.659
13352.792 0.44 63.588 0.896 -26.079 0.896 -26.079 0.44 63.588
13377.75 0.441 63.517 0.895 -26.151 0.895 -26.151 0.441 63.517
13402.708 0.442 63.447 0.895 -26.222 0.895 -26.222 0.442 63.447
13427.667 0.443 63.377 0.894 -26.294 0.894 -26.294 0.443 63.377
13452.625 0.444 63.307 0.893 -26.365 0.893 -26.365 0.444 63.307
13477.583 0.445 63.237 0.893 -26.436 0.893 -26.436 0.445 63.237
13502.542 0.446 63.167 0.892 -26.506 0.892 -26.506 0.446 63.167
13527.5 0.447 63.097 0.892 -26.577 0.892 -26.577 0.447 63.097
13552.458 0.449 63.028 0.891 -26.648 0.891 -26.648 0.449 63.028
13577.417 0.45 62.958 0.891 -26.718 0.891 -26.718 0.45 62.958
13602.375 0.451 62.889 0.89 -26.788 0.89 -26.788 0.451 62.889
13627.333 0.452 62.82 0.89 -26.859 0.89 -26.859 0.452 62.82
13652.292 0.453 62.751 0.889 -26.929 0.889 -26.929 0.453 62.751
13677.25 0.454 62.682 0.888 -26.999 0.888 -26.999 0.454 62.682
13702.208 0.455 62.613 0.888 -27.068 0.888 -27.068 0.455 62.613
13727.167 0.456 62.544 0.887 -27.138 0.887 -27.138 0.456 62.544
13752.125 0.457 62.476 0.887 -27.207 0.887 -27.207 0.457 62.476
13777.083 0.458 62.407 0.886 -27.277 0.886 -27.277 0.458 62.407
13802.042 0.459 62.339 0.886 -27.346 0.886 -27.346 0.459 62.339
13827 0.46 62.271 0.885 -27.415 0.885 -27.415 0.46 62.271
13851.958 0.462 62.203 0.885 -27.484 0.885 -27.484 0.462 62.203
13876.917 0.463 62.135 0.884 -27.553 0.884 -27.553 0.463 62.135
13901.875 0.464 62.067 0.884 -27.621 0.884 -27.621 0.464 62.067
13926.833 0.465 62 0.883 -27.69 0.883 -27.69 0.465 62
13951.792 0.466 61.932 0.882 -27.758 0.882 -27.758 0.466 61.932
13976.75 0.467 61.865 0.882 -27.827 0.882 -27.827 0.467 61.865
14001.708 0.468 61.798 0.881 -27.895 0.881 -27.895 0.468 61.798
14026.667 0.469 61.731 0.881 -27.963 0.881 -27.963 0.469 61.731
14051.625 0.47 61.664 0.88 -28.031 0.88 -28.031 0.47 61.664
14076.583 0.471 61.597 0.88 -28.098 0.88 -28.098 0.471 61.597
14101.542 0.472 61.53 0.879 -28.166 0.879 -28.166 0.472 61.53
14126.5 0.473 61.463 0.879 -28.233 0.879 -28.233 0.473 61.463
14151.458 0.474 61.397 0.878 -28.301 0.878 -28.301 0.474 61.397
14176.417 0.475 61.33 0.877 -28.368 0.877 -28.368 0.475 61.33
14201.375 0.476 61.264 0.877 -28.435 0.877 -28.435 0.476 61.264
14226.333 0.477 61.198 0.876 -28.502 0.876 -28.502 0.477 61.198
14251.292 0.478 61.132 0.876 -28.569 0.876 -28.569 0.478 61.132
14276.25 0.479 61.066 0.875 -28.635 0.875 -28.635 0.479 61.066
14301.208 0.48 61 0.875 -28.702 0.875 -28.702 0.48 61
14326.167 0.481 60.935 0.874 -28.769 0.874 -28.769 0.481 60.935
14351.125 0.482 60.869 0.874 -28.835 0.874 -28.835 0.482 60.869
14376.083 0.483 60.804 0.873 -28.901 0.873 -28.901 0.483 60.804
14401.042 0.484 60.739 0.872 -28.967 0.872 -28.967 0.484 60.739
14426 0.485 60.674 0.872 -29.033 0.872 -29.033 0.485 60.674
14450.958 0.486 60.608 0.871 -29.099 0.871 -29.099 0.486 60.608
14475.917 0.487 60.544 0.871 -29.165 0.871 -29.165 0.487 60.544
14500.875 0.488 60.479 0.87 -29.23 0.87 -29.23 0.488 60.479
14525.833 0.489 60.414 0.87 -29.296 0.87 -29.296 0.489 60.414
14550.792 0.49 60.35 0.869 -29.361 0.869 -29.361 0.49 60.35
14575.75 0.491 60.285 0.869 -29.426 0.869 -29.426 0.491 60.285
14600.708 0.492 60.221 0.868 -29.491 0.868 -29.491 0.492 60.221
14625.667 0.493 60.157 0.867 -29.556 0.867 -29.556 0.493 60.157
14650.625 0.494 60.093 0.867 -29.621 0.867 -29.621 0.494 60.093
14675.583 0.495 60.029 0.866 -29.686 0.866 -29.686 0.495 60.029
14700.542 0.496 59.965 0.866 -29.75 0.866 -29.75 0.496 59.965
14725.5 0.497 59.901 0.865 -29.815 0.865 -29.815 0.497 59.901
14750.458 0.498 59.837 0.865 -29.879 0.865 -29.879 0.498 59.837
14775.417 0.499 59.774 0.864 -29.943 0.864 -29.943 0.499 59.774
14800.375 0.5 59.711 0.863 -30.007 0.863 -30.007 0.5 59.711
14825.333 0.501 59.647 0.863 -30.071 0.863 -30.071 0.501 59.647
14850.292 0.502 59.584 0.862 -30.135 0.862 -30.135 0.502 59.584
14875.25 0.503 59.521 0.862 -30.199 0.862 -30.199 0.503 59.521
14900.208 0.504 59.458 0.861 -30.263 0.861 -30.263 0.504 59.458
14925.167 0.505 59.395 0.861 -30.326 0.861 -30.326 0.505 59.395
14950.125 0.506 59.333 0.86 -30.389 0.86 -30.389 0.506 59.333
14975.083 0.507 59.27 0.86 -30.453 0.86 -30.453 0.507 59.27
15000.042 0.508 59.208 0.859 -30.516 0.859 -30.516 0.508 59.208
15025 0.509 59.145 0.858 -30.579 0.858 -30.579 0.509 59.145
15049.958 0.51 59.083 0.858 -30.642 0.858 -30.642 0.51 59.083
15074.917 0.511 59.021 0.857 -30.705 0.857 -30.705 0.511 59.021
15099.875 0.512 58.959 0.857 -30.767 0.857 -30.767 0.512 58.959
15124.833 0.512 58.897 0.856 -30.83 0.856 -30.83 0.512 58.897
15149.792 0.513 58.835 0.856 -30.892 0.856 -30.892 0.513 58.835
15174.75 0.514 58.774 0.855 -30.955 0.855 -30.955 0.514 58.774
15199.708 0.515 58.712 0.855 -31.017 0.855 -31.017 0.515 58.712
15224.667 0.516 58.651 0.854 -31.079 0.854 -31.079 0.516 58.651
15249.625 0.517 58.589 0.853 -31.141 0.853 -31.141 0.517 58.589
15274.583 0.518 58.528 0.853 -31.203 0.853 -31.203 0.518 58.528
15299.542 0.519 58.467 0.852 -31.265 0.852 -31.265 0.519 58.467
15324.5 0.52 58.406 0.852 -31.326 0.852 -31.326 0.52 58.406
15349.458 0.521 58.345 0.851 -31.388 0.851 -31.388 0.521 58.345
15374.417 0.522 58.284 0.851 -31.449 0.851 -31.449 0.522 58.284
15399.375 0.523 58.224 0.85 -31.511 0.85 -31.511 0.523 58.224
15424.333 0.524 58.163 0.85 -31.572 0.85 -31.572 0.524 58.163
15449.292 0.524 58.103 0.849 -31.633 0.849 -31.633 0.524 58.103
15474.25 0.525 58.042 0.848 -31.694 0.848 -31.694 0.525 58.042
15499.208 0.526 57.982 0.848 -31.755 0.848 -31.755 0.526 57.982
15524.167 0.527 57.922 0.847 -31.815 0.847 -31.815 0.527 57.922
15549.125 0.528 57.862 0.847 -31.876 0.847 -31.876 0.528 57.862
15574.083 0.529 57.802 0.846 -31.937 0.846 -31.937 0.529 57.802
15599.042 0.53 57.742 0.846 -31.997 0.846 -31.997 0.53 57.742
15624 0.531 57.683 0.845 -32.057 0.845 -32.057 0.531 57.683
15648.958 0.532 57.623 0.845 -32.117 0.845 -32.117 0.532 57.623
15673.917 0.533 57.564 0.844 -32.178 0.844 -32.178 0.533 57.564
15698.875 0.533 57.504 0.843 -32.238 0.843 -32.238 0.533 57.504
15723.833 0.534 57.445 0.843 -32.297 0.843 -32.297 0.534 57.445
15748.792 0.535 57.386 0.842 -32.357 0.842 -32.357 0.535 57.386
15773.75 0.536 57.327 0.842 -32.417 0.842 -32.417 0.536 57.327
15798.708 0.537 57.268 0.841 -32.476 0.841 -32.476 0.537 57.268
15823.667 0.538 57.209 0.841 -32.536 0.841 -32.536 0.538 57.209
15848.625 0.539 57.15 0.84 -32.595 0.84 -32.595 0.539 57.15
15873.583 0.54 57.092 0.84 -32.654 0.84 -32.654 0.54 57.092
15898.542 0.54 57.033 0.839 -32.713 0.839 -32.713 0.54 57.033
15923.5 0.541 56.975 0.838 -32.772 0.838 -32.772 0.541 56.975
15948.458 0.542 56.916 0.838 -32.831 0.838 -32.831 0.542 56.916
15973.417 0.543 56.858 0.837 -32.89 0.837 -32.89 0.543 56.858
15998.375 0.544 56.8 0.837 -32.949 0.837 -32.949 0.544 56.8
16023.333 0.545 56.742 0.836 -33.007 0.836 -33.007 0.545 56.742
16048.292 0.546 56.684 0.836 -33.066 0.836 -33.066 0.546 56.684
16073.25 0.546 56.626 0.835 -33.124 0.835 -33.124 0.546 56.626
16098.208 0.547 56.568 0.835 -33.183 0.835 -33.183 0.547 56.568
16123.167 0.548 56.511 0.834 -33.241 0.834 -33.241 0.548 56.511
16148.125 0.549 56.453 0.833 -33.299 0.833 -33.299 0.549 56.453
16173.083 0.55 56.396 0.833 -33.357 0.833 -33.357 0.55 56.396
16198.042 0.551 56.339 0.832 -33.415 0.832 -33.415 0.551 56.339
16223 0.552 56.281 0.832 -33.472 0.832 -33.472 0.552 56.281
16247.958 0.552 56.224 0.831 -33.53 0.831 -33.53 0.552 56.224
16272.917 0.553 56.167 0.831 -33.587 0.831 -33.587 0.553 56.167
16297.875 0.554 56.11 0.83 -33.645 0.83 -33.645 0.554 56.11
16322.833 0.555 56.054 0.83 -33.702 0.83 -33.702 0.555 56.054
16347.792 0.556 55.997 0.829 -33.76 0.829 -33.76 0.556 55.997
16372.75 0.557 55.94 0.828 -33.817 0.828 -33.817 0.557 55.94
16397.708 0.557 55.884 0.828 -33.874 0.828 -33.874 0.557 55.884
16422.667 0.558 55.827 0.827 -33.931 0.827 -33.931 0.558 55.827
16447.625 0.559 55.771 0.827 -33.987 0.827 -33.987 0.559 55.771
16472.583 0.56 55.715 0.826 -34.044 0.826 -34.044 0.56 55.715
16497.542 0.561 55.659 0.826 -34.101 0.826 -34.101 0.561 55.659
16522.5 0.561 55.603 0.825 -34.157 0.825 -34.157 0.561 55.603
16547.458 0.562 55.547 0.825 -34.214 0.825 -34.214 0.562 55.547
16572.417 0.563 55.491 0.824 -34.27 0.824 -34.27 0.563 55.491
16597.375 0.564 55.435 0.823 -34.326 0.823 -34.326 0.564 55.435
16622.333 0.565 55.38 0.823 -34.382 0.823 -34.382 0.565 55.38
16647.292 0.566 55.324 0.822 -34.438 0.822 -34.438 0.566 55.324
16672.25 0.566 55.269 0.822 -34.494 0.822 -34.494 0.566 55.269
16697.208 0.567 55.213 0.821 -34.55 0.821 -34.55 0.567 55.213
16722.167 0.568 55.158 0.821 -34.606 0.821 -34.606 0.568 55.158
16747.125 0.569 55.103 0.82 -34.662 0.82 -34.662 0.569 55.103
16772.083 0.57 55.048 0.82 -34.717 0.82 -34.717 0.57 55.048
16797.042 0.57 54.993 0.819 -34.773 0.819 -34.773 0.57 54.993
16822 0.571 54.938 0.819 -34.828 0.819 -34.828 0.571 54.938
16846.958 0.572 54.883 0.818 -34.883 0.818 -34.883 0.572 54.883
16871.917 0.573 54.829 0.817 -34.938 0.817 -34.938 0.573 54.829
16896.875 0.573 54.774 0.817 -34.993 0.817 -34.993 0.573 54.774
16921.833 0.574 54.72 0.816 -35.048 0.816 -35.048 0.574 54.72
16946.792 0.575 54.665 0.816 -35.103 0.816 -35.103 0.575 54.665
16971.75 0.576 54.611 0.815 -35.158 0.815 -35.158 0.576 54.611
16996.708 0.577 54.557 0.815 -35.213 0.815 -35.213 0.577 54.557
17021.667 0.577 54.503 0.814 -35.267 0.814 -35.267 0.577 54.503
17046.625 0.578 54.449 0.814 -35.322 0.814 -35.322 0.578 54.449
17071.583 0.579 54.395 0.813 -35.376 0.813 -35.376 0.579 54.395
17096.542 0.58 54.341 0.813 -35.43 0.813 -35.43 0.58 54.341
17121.5 0.58 54.287 0.812 -35.484 0.812 -35.484 0.58 54.287
17146.458 0.581 54.233 0.811 -35.539 0.811 -35.539 0.581 54.233
17171.417 0.582 54.18 0.811 -35.593 0.811 -35.593 0.582 54.18
17196.375 0.583 54.126 0.81 -35.646 0.81 -35.646 0.583 54.126
17221.333 0.584 54.073 0.81 -35.7 0.81 -35.7 0.584 54.073
17246.292 0.584 54.02 0.809 -35.754 0.809 -35.754 0.584 54.02
17271.25 0.585 53.967 0.809 -35.808 0.809 -35.808 0.585 53.967
17296.208 0.586 53.913 0.808 -35.861 0.808 -35.861 0.586 53.913
17321.167 0.587 53.86 0.808 -35.915 0.808 -35.915 0.587 53.86
17346.125 0.587 53.808 0.807 -35.968 0.807 -35.968 0.587 53.808
17371.083 0.588 53.755 0.806 -36.021 0.806 -36.021 0.588 53.755
17396.042 0.589 53.702 0.806 -36.074 0.806 -36.074 0.589 53.702
17421 0.59 53.649 0.805 -36.127 0.805 -36.127 0.59 53.649
17445.958 0.59 53.597 0.805 -36.18 0.805 -36.18 0.59 53.597
17470.917 0.591 53.544 0.804 -36.233 0.804 -36.233 0.591 53.544
17495.875 0.592 53.492 0.804 -36.286 0.804 -36.286 0.592 53.492
17520.833 0.593 53.44 0.803 -36.339 0.803 -36.339 0.593 53.44
17545.792 0.593 53.388 0.803 -36.391 0.803 -36.391 0.593 53.388
17570.75 0.594 53.335 0.802 -36.444 0.802 -36.444 0.594 53.335
17595.708 0.595 53.283 0.802 -36.496 0.802 -36.496 0.595 53.283
17620.667 0.596 53.231 0.801 -36.549 0.801 -36.549 0.596 53.231
17645.625 0.596 53.18 0.801 -36.601 0.801 -36.601 0.596 53.18
17670.583 0.597 53.128 0.8 -36.653 0.8 -36.653 0.597 53.128
17695.542 0.598 53.076 0.799 -36.705 0.799 -36.705 0.598 53.076
17720.5 0.598 53.025 0.799 -36.757 0.799 -36.757 0.598 53.025
17745.458 0.599 52.973 0.798 -36.809 0.798 -36.809 0.599 52.973
17770.417 0.6 52.922 0.798 -36.861 0.798 -36.861 0.6 52.922
17795.375 0.601 52.87 0.797 -36.913 0.797 -36.913 0.601 52.87
17820.333 0.601 52.819 0.797 -36.964 0.797 -36.964 0.601 52.819
17845.292 0.602 52.768 0.796 -37.016 0.796 -37.016 0.602 52.768
17870.25 0.603 52.717 0.796 -37.067 0.796 -37.067 0.603 52.717
17895.208 0.603 52.666 0.795 -37.119 0.795 -37.119 0.603 52.666
17920.167 0.604 52.615 0.795 -37.17 0.795 -37.17 0.604 52.615
17945.125 0.605 52.564 0.794 -37.221 0.794 -37.221 0.605 52.564
17970.083 0.606 52.514 0.794 -37.272 0.794 -37.272 0.606 52.514
17995.042 0.606 52.463 0.793 -37.323 0.793 -37.323 0.606 52.463
18020 0.607 52.412 0.792 -37.374 0.792 -37.374 0.607 52.412
18044.958 0.608 52.362 0.792 -37.425 0.792 -37.425 0.608 52.362
18069.917 0.608 52.312 0.791 -37.476 0.791 -37.476 0.608 52.312
18094.875 0.609 52.261 0.791 -37.527 0.791 -37.527 0.609 52.261
18119.833 0.61 52.211 0.79 -37.577 0.79 -37.577 0.61 52.211
18144.792 0.611 52.161 0.79 -37.628 0.79 -37.628 0.611 52.161
18169.75 0.611 52.111 0.789 -37.678 0.789 -37.678 0.611 52.111
18194.708 0.612 52.061 0.789 -37.728 0.789 -37.728 0.612 52.061
18219.667 0.613 52.011 0.788 -37.779 0.788 -37.779 0.613 52.011
18244.625 0.613 51.961 0.788 -37.829 0.788 -37.829 0.613 51.961
18269.583 0.614 51.912 0.787 -37.879 0.787 -37.879 0.614 51.912
18294.542 0.615 51.862 0.787 -37.929 0.787 -37.929 0.615 51.862
18319.5 0.615 51.813 0.786 -37.979 0.786 -37.979 0.615 51.813
18344.458 0.616 51.763 0.785 -38.029 0.785 -38.029 0.616 51.763
18369.417 0.617 51.714 0.785 -38.078 0.785 -38.078 0.617 51.714
18394.375 0.617 51.664 0.784 -38.128 0.784 -38.128 0.617 51.664
18419.333 0.618 51.615 0.784 -38.178 0.784 -38.178 0.618 51.615
18444.292 0.619 51.566 0.783 -38.227 0.783 -38.227 0.619 51.566
18469.25 0.619 51.517 0.783 -38.276 0.783 -38.276 0.619 51.517
18494.208 0.62 51.468 0.782 -38.326 0.782 -38.326 0.62 51.468
18519.167 0.621 51.419 0.782 -38.375 0.782 -38.375 0.621 51.419
18544.125 0.621 51.37 0.781 -38.424 0.781 -38.424 0.621 51.37
18569.083 0.622 51.322 0.781 -38.473 0.781 -38.473 0.622 51.322
18594.042 0.623 51.273 0.78 -38.522 0.78 -38.522 0.623 51.273
18619 0.623 51.225 0.78 -38.571 0.78 -38.571 0.623 51.225
18643.958 0.624 51.176 0.779 -38.62 0.779 -38.62 0.624 51.176
18668.917 0.625 51.128 0.779 -38.669 0.779 -38.669 0.625 51.128
18693.875 0.625 51.079 0.778 -38.717 0.778 -38.717 0.625 51.079
18718.833 0.626 51.031 0.777 -38.766 0.777 -38.766 0.626 51.031
18743.792 0.627 50.983 0.777 -38.815 0.777 -38.815 0.627 50.983
18768.75 0.627 50.935 0.776 -38.863 0.776 -38.863 0.627 50.935
18793.708 0.628 50.887 0.776 -38.911 0.776 -38.911 0.628 50.887
18818.667 0.629 50.839 0.775 -38.96 0.775 -38.96 0.629 50.839
18843.625 0.629 50.791 0.775 -39.008 0.775 -39.008 0.629 50.791
18868.583 0.63 50.743 0.774 -39.056 0.774 -39.056 0.63 50.743
18893.542 0.631 50.696 0.774 -39.104 0.774 -39.104 0.631 50.696
18918.5 0.631 50.648 0.773 -39.152 0.773 -39.152 0.631 50.648
18943.458 0.632 50.601 0.773 -39.2 0.773 -39.2 0.632 50.601
18968.417 0.633 50.553 0.772 -39.247 0.772 -39.247 0.633 50.553
18993.375 0.633 50.506 0.772 -39.295 0.772 -39.295 0.633 50.506
19018.333 0.634 50.458 0.771 -39.343 0.771 -39.343 0.634 50.458
19043.292 0.635 50.411 0.771 -39.39 0.771 -39.39 0.635 50.411
19068.25 0.635 50.364 0.77 -39.438 0.77 -39.438 0.635 50.364
19093.208 0.636 50.317 0.77 -39.485 0.77 -39.485 0.636 50.317
19118.167 0.637 50.27 0.769 -39.533 0.769 -39.533 0.637 50.27
19143.125 0.637 50.223 0.769 -39.58 0.769 -39.58 0.637 50.223
19168.083 0.638 50.176 0.768 -39.627 0.768 -39.627 0.638 50.176
19193.042 0.638 50.13 0.768 -39.674 0.768 -39.674 0.638 50.13
19218 0.639 50.083 0.767 -39.721 0.767 -39.721 0.639 50.083
19242.958 0.64 50.036 0.766 -39.768 0.766 -39.768 0.64 50.036
19267.917 0.64 49.99 0.766 -39.815 0.766 -39.815 0.64 49.99
19292.875 0.641 49.943 0.765 -39.862 0.765 -39.862 0.641 49.943
19317.833 0.642 49.897 0.765 -39.908 0.765 -39.908 0.642 49.897
19342.792 0.642 49.851 0.764 -39.955 0.764 -39.955 0.642 49.851
19367.75 0.643 49.805 0.764 -40.001 0.764 -40.001 0.643 49.805
19392.708 0.643 49.758 0.763 -40.048 0.763 -40.048 0.643 49.758
19417.667 0.644 49.712 0.763 -40.094 0.763 -40.094 0.644 49.712
19442.625 0.645 49.666 0.762 -40.141 0.762 -40.141 0.645 49.666
19467.583 0.645 49.62 0.762 -40.187 0.762 -40.187 0.645 49.62
19492.542 0.646 49.575 0.761 -40.233 0.761 -40.233 0.646 49.575
19517.5 0.647 49.529 0.761 -40.279 0.761 -40.279 0.647 49.529
19542.458 0.647 49.483 0.76 -40.325 0.76 -40.325 0.647 49.483
19567.417 0.648 49.437 0.76 -40.371 0.76 -40.371 0.648 49.437
19592.375 0.648 49.392 0.759 -40.417 0.759 -40.417 0.648 49.392
19617.333 0.649 49.346 0.759 -40.463 0.759 -40.463 0.649 49.346
19642.292 0.65 49.301 0.758 -40.508 0.758 -40.508 0.65 49.301
19667.25 0.65 49.256 0.758 -40.554 0.758 -40.554 0.65 49.256
19692.208 0.651 49.21 0.757 -40.599 0.757 -40.599 0.651 49.21
19717.167 0.651 49.165 0.757 -40.645 0.757 -40.645 0.651 49.165
19742.125 0.652 49.12 0.756 -40.69 0.756 -40.69 0.652 49.12
19767.083 0.653 49.075 0.756 -40.736 0.756 -40.736 0.653 49.075
19792.042 0.653 49.03 0.755 -40.781 0.755 -40.781 0.653 49.03
19817 0.654 48.985 0.755 -40.826 0.755 -40.826 0.654 48.985
19841.958 0.654 48.94 0.754 -40.871 0.754 -40.871 0.654 48.94
19866.917 0.655 48.896 0.754 -40.916 0.754 -40.916 0.655 48.896
19891.875 0.656 48.851 0.753 -40.961 0.753 -40.961 0.656 48.851
19916.833 0.656 48.806 0.752 -41.006 0.752 -41.006 0.656 48.806
19941.792 0.657 48.762 0.752 -41.051 0.752 -41.051 0.657 48.762
19966.75 0.657 48.717 0.751 -41.096 0.751 -41.096 0.657 48.717
19991.708 0.658 48.673 0.751 -41.14 0.751 -41.14 0.658 48.673
20016.667 0.658 48.629 0.75 -41.185 0.75 -41.185 0.658 48.629
20041.625 0.659 48.585 0.75 -41.23 0.75 -41.23 0.659 48.585
20066.583 0.66 48.54 0.749 -41.274 0.749 -41.274 0.66 48.54
20091.542 0.66 48.496 0.749 -41.318 0.749 -41.318 0.66 48.496
20116.5 0.661 48.452 0.748 -41.363 0.748 -41.363 0.661 48.452
20141.458 0.661 48.408 0.748 -41.407 0.748 -41.407 0.661 48.408
20166.417 0.662 48.364 0.747 -41.451 0.747 -41.451 0.662 48.364
20191.375 0.663 48.321 0.747 -41.495 0.747 -41.495 0.663 48.321
20216.333 0.663 48.277 0.746 -41.539 0.746 -41.539 0.663 48.277
20241.292 0.664 48.233 0.746 -41.583 0.746 -41.583 0.664 48.233
20266.25 0.664 48.19 0.745 -41.627 0.745 -41.627 0.664 48.19
20291.208 0.665 48.146 0.745 -41.671 0.745 -41.671 0.665 48.146
20316.167 0.665 48.103 0.744 -41.715 0.744 -41.715 0.665 48.103
20341.125 0.666 48.059 0.744 -41.758 0.744 -41.758 0.666 48.059
20366.083 0.667 48.016 0.743 -41.802 0.743 -41.802 0.667 48.016
20391.042 0.667 47.973 0.743 -41.846 0.743 -41.846 0.667 47.973
20416 0.668 47.929 0.742 -41.889 0.742 -41.889 0.668 47.929
20440.958 0.668 47.886 0.742 -41.932 0.742 -41.932 0.668 47.886
20465.917 0.669 47.843 0.741 -41.976 0.741 -41.976 0.669 47.843
20490.875 0.669 47.8 0.741 -42.019 0.741 -42.019 0.669 47.8
20515.833 0.67 47.757 0.74 -42.062 0.74 -42.062 0.67 47.757
20540.792 0.67 47.714 0.74 -42.105 0.74 -42.105 0.67 47.714
20565.75 0.671 47.672 0.739 -42.148 0.739 -42.148 0.671 47.672
20590.708 0.672 47.629 0.739 -42.191 0.739 -42.191 0.672 47.629
20615.667 0.672 47.586 0.738 -42.234 0.738 -42.234 0.672 47.586
20640.625 0.673 47.544 0.738 -42.277 0.738 -42.277 0.673 47.544
20665.583 0.673 47.501 0.737 -42.32 0.737 -42.32 0.673 47.501
20690.542 0.674 47.459 0.737 -42.363 0.737 -42.363 0.674 47.459
20715.5 0.674 47.416 0.736 -42.405 0.736 -42.405 0.674 47.416
20740.458 0.675 47.374 0.736 -42.448 0.736 -42.448 0.675 47.374
20765.417 0.675 47.332 0.735 -42.49 0.735 -42.49 0.675 47.332
20790.375 0.676 47.29 0.735 -42.533 0.735 -42.533 0.676 47.29
20815.333 0.677 47.247 0.734 -42.575 0.734 -42.575 0.677 47.247
20840.292 0.677 47.205 0.734 -42.618 0.734 -42.618 0.677 47.205
20865.25 0.678 47.163 0.733 -42.66 0.733 -42.66 0.678 47.163
20890.208 0.678 47.122 0.733 -42.702 0.733 -42.702 0.678 47.122
20915.167 0.679 47.08 0.732 -42.744 0.732 -42.744 0.679 47.08
20940.125 0.679 47.038 0.732 -42.786 0.732 -42.786 0.679 47.038
20965.083 0.68 46.996 0.731 -42.828 0.731 -42.828 0.68 46.996
20990.042 0.68 46.955 0.731 -42.87 0.731 -42.87 0.68 46.955
21015 0.681 46.913 0.73 -42.912 0.73 -42.912 0.681 46.913
21039.958 0.681 46.871 0.73 -42.954 0.73 -42.954 0.681 46.871
21064.917 0.682 46.83 0.729 -42.995 0.729 -42.995 0.682 46.83
21089.875 0.682 46.789 0.729 -43.037 0.729 -43.037 0.682 46.789
21114.833 0.683 46.747 0.728 -43.079 0.728 -43.079 0.683 46.747
21139.792 0.684 46.706 0.728 -43.12 0.728 -43.12 0.684 46.706
21164.75 0.684 46.665 0.727 -43.162 0.727 -43.162 0.684 46.665
21189.708 0.685 46.624 0.727 -43.203 0.727 -43.203 0.685 46.624
21214.667 0.685 46.583 0.726 -43.244 0.726 -43.244 0.685 46.583
21239.625 0.686 46.542 0.726 -43.285 0.726 -43.285 0.686 46.542
21264.583 0.686 46.501 0.725 -43.327 0.725 -43.327 0.686 46.501
21289.542 0.687 46.46 0.725 -43.368 0.725 -43.368 0.687 46.46
21314.5 0.687 46.419 0.724 -43.409 0.724 -43.409 0.687 46.419
21339.458 0.688 46.378 0.724 -43.45 0.724 -43.45 0.688 46.378
21364.417 0.688 46.338 0.723 -43.491 0.723 -43.491 0.688 46.338
21389.375 0.689 46.297 0.723 -43.532 0.723 -43.532 0.689 46.297
21414.333 0.689 46.256 0.722 -43.572 0.722 -43.572 0.689 46.256
21439.292 0.69 46.216 0.722 -43.613 0.722 -43.613 0.69 46.216
21464.25 0.69 46.175 0.721 -43.654 0.721 -43.654 0.69 46.175
21489.208 0.691 46.135 0.721 -43.694 0.721 -43.694 0.691 46.135
21514.167 0.691 46.095 0.72 -43.735 0.72 -43.735 0.691 46.095
21539.125 0.692 46.055 0.72 -43.775 0.72 -43.775 0.692 46.055
21564.083 0.692 46.014 0.72 -43.816 0.72 -43.816 0.692 46.014
21589.042 0.693 45.974 0.719 -43.856 0.719 -43.856 0.693 45.974
21614 0.693 45.934 0.719 -43.897 0.719 -43.897 0.693 45.934
21638.958 0.694 45.894 0.718 -43.937 0.718 -43.937 0.694 45.894
21663.917 0.694 45.854 0.718 -43.977 0.718 -43.977 0.694 45.854
21688.875 0.695 45.814 0.717 -44.017 0.717 -44.017 0.695 45.814
21713.833 0.695 45.775 0.717 -44.057 0.717 -44.057 0.695 45.775
21738.792 0.696 45.735 0.716 -44.097 0.716 -44.097 0.696 45.735
21763.75 0.696 45.695 0.716 -44.137 0.716 -44.137 0.696 45.695
21788.708 0.697 45.656 0.715 -44.177 0.715 -44.177 0.697 45.656
21813.667 0.697 45.616 0.715 -44.217 0.715 -44.217 0.697 45.616
21838.625 0.698 45.576 0.714 -44.256 0.714 -44.256 0.698 45.576
21863.583 0.698 45.537 0.714 -44.296 0.714 -44.296 0.698 45.537
21888.542 0.699 45.498 0.713 -44.336 0.713 -44.336 0.699 45.498
21913.5 0.699 45.458 0.713 -44.375 0.713 -44.375 0.699 45.458
21938.458 0.7 45.419 0.712 -44.415 0.712 -44.415 0.7 45.419
21963.417 0.7 45.38 0.712 -44.454 0.712 -44.454 0.7 45.38
21988.375 0.701 45.341 0.711 -44.493 0.711 -44.493 0.701 45.341
22013.333 0.701 45.302 0.711 -44.533 0.711 -44.533 0.701 45.302
22038.292 0.702 45.263 0.71 -44.572 0.71 -44.572 0.702 45.263
22063.25 0.702 45.224 0.71 -44.611 0.71 -44.611 0.702 45.224
22088.208 0.703 45.185 0.709 -44.65 0.709 -44.65 0.703 45.185
22113.167 0.703 45.146 0.709 -44.689 0.709 -44.689 0.703 45.146
22138.125 0.704 45.107 0.708 -44.728 0.708 -44.728 0.704 45.107
22163.083 0.704 45.068 0.708 -44.767 0.708 -44.767 0.704 45.068
22188.042 0.705 45.03 0.707 -44.806 0.707 -44.806 0.705 45.03
22213 0.705 44.991 0.707 -44.845 0.707 -44.845 0.705 44.991
22237.958 0.706 44.953 0.707 -44.884 0.707 -44.884 0.706 44.953
22262.917 0.706 44.914 0.706 -44.923 0.706 -44.923 0.706 44.914
22287.875 0.707 44.876 0.706 -44.961 0.706 -44.961 0.707 44.876
22312.833 0.707 44.837 0.705 -45 0.705 -45 0.707 44.837
22337.792 0.708 44.799 0.705 -45.038 0.705 -45.038 0.708 44.799
22362.75 0.708 44.761 0.704 -45.077 0.704 -45.077 0.708 44.761
22387.708 0.709 44.723 0.704 -45.115 0.704 -45.115 0.709 44.723
22412.667 0.709 44.684 0.703 -45.154 0.703 -45.154 0.709 44.684
22437.625 0.709 44.646 0.703 -45.192 0.703 -45.192 0.709 44.646
22462.583 0.71 44.608 0.702 -45.23 0.702 -45.23 0.71 44.608
22487.542 0.71 44.57 0.702 -45.268 0.702 -45.268 0.71 44.57
22512.5 0.711 44.532 0.701 -45.306 0.701 -45.306 0.711 44.532
22537.458 0.711 44.495 0.701 -45.344 0.701 -45.344 0.711 44.495
22562.417 0.712 44.457 0.7 -45.382 0.7 -45.382 0.712 44.457
22587.375 0.712 44.419 0.7 -45.42 0.7 -45.42 0.712 44.419
22612.333 0.713 44.381 0.699 -45.458 0.699 -45.458 0.713 44.381
22637.292 0.713 44.344 0.699 -45.496 0.699 -45.496 0.713 44.344
22662.25 0.714 44.306 0.698 -45.534 0.698 -45.534 0.714 44.306
22687.208 0.714 44.269 0.698 -45.572 0.698 -45.572 0.714 44.269
22712.167 0.715 44.231 0.698 -45.609 0.698 -45.609 0.715 44.231
22737.125 0.715 44.194 0.697 -45.647 0.697 -45.647 0.715 44.194
22762.083 0.716 44.157 0.697 -45.684 0.697 -45.684 0.716 44.157
22787.042 0.716 44.119 0.696 -45.722 0.696 -45.722 0.716 44.119
22812 0.716 44.082 0.696 -45.759 0.696 -45.759 0.716 44.082
22836.958 0.717 44.045 0.695 -45.797 0.695 -45.797 0.717 44.045
22861.917 0.717 44.008 0.695 -45.834 0.695 -45.834 0.717 44.008
22886.875 0.718 43.971 0.694 -45.871 0.694 -45.871 0.718 43.971
22911.833 0.718 43.934 0.694 -45.908 0.694 -45.908 0.718 43.934
22936.792 0.719 43.897 0.693 -45.946 0.693 -45.946 0.719 43.897
22961.75 0.719 43.86 0.693 -45.983 0.693 -45.983 0.719 43.86
22986.708 0.72 43.823 0.692 -46.02 0.692 -46.02 0.72 43.823
23011.667 0.72 43.786 0.692 -46.057 0.692 -46.057 0.72 43.786
23036.625 0.72 43.75 0.692 -46.094 0.692 -46.094 0.72 43.75
23061.583 0.721 43.713 0.691 -46.13 0.691 -46.13 0.721 43.713
23086.542 0.721 43.676 0.691 -46.167 0.691 -46.167 0.721 43.676
23111.5 0.722 43.64 0.69 -46.204 0.69 -46.204 0.722 43.64
23136.458 0.722 43.603 0.69 -46.241 0.69 -46.241 0.722 43.603
23161.417 0.723 43.567 0.689 -46.277 0.689 -46.277 0.723 43.567
23186.375 0.723 43.531 0.689 -46.314 0.689 -46.314 0.723 43.531
23211.333 0.724 43.494 0.688 -46.35 0.688 -46.35 0.724 43.494
23236.292 0.724 43.458 0.688 -46.387 0.688 -46.387 0.724 43.458
23261.25 0.724 43.422 0.687 -46.423 0.687 -46.423 0.724 43.422
23286.208 0.725 43.386 0.687 -46.46 0.687 -46.46 0.725 43.386
23311.167 0.725 43.349 0.686 -46.496 0.686 -46.496 0.725 43.349
23336.125 0.726 43.313 0.686 -46.532 0.686 -46.532 0.726 43.313
23361.083 0.726 43.277 0.686 -46.568 0.686 -46.568 0.726 43.277
23386.042 0.727 43.241 0.685 -46.605 0.685 -46.605 0.727 43.241
23411 0.727 43.205 0.685 -46.641 0.685 -46.641 0.727 43.205
23435.958 0.727 43.17 0.684 -46.677 0.684 -46.677 0.727 43.17
23460.917 0.728 43.134 0.684 -46.713 0.684 -46.713 0.728 43.134
23485.875 0.728 43.098 0.683 -46.749 0.683 -46.749 0.728 43.098
23510.833 0.729 43.062 0.683 -46.785 0.683 -46.785 0.729 43.062
23535.792 0.729 43.027 0.682 -46.82 0.682 -46.82 0.729 43.027
23560.75 0.73 42.991 0.682 -46.856 0.682 -46.856 0.73 42.991
23585.708 0.73 42.956 0.681 -46.892 0.681 -46.892 0.73 42.956
23610.667 0.73 42.92 0.681 -46.928 0.681 -46.928 0.73 42.92
23635.625 0.731 42.885 0.681 -46.963 0.681 -46.963 0.731 42.885
23660.583 0.731 42.849 0.68 -46.999 0.68 -46.999 0.731 42.849
23685.542 0.732 42.814 0.68 -47.034 0.68 -47.034 0.732 42.814
23710.5 0.732 42.779 0.679 -47.07 0.679 -47.07 0.732 42.779
23735.458 0.733 42.744 0.679 -47.105 0.679 -47.105 0.733 42.744
23760.417 0.733 42.708 0.678 -47.14 0.678 -47.14 0.733 42.708
23785.375 0.733 42.673 0.678 -47.176 0.678 -47.176 0.733 42.673
23810.333 0.734 42.638 0.677 -47.211 0.677 -47.211 0.734 42.638
23835.292 0.734 42.603 0.677 -47.246 0.677 -47.246 0.734 42.603
23860.25 0.735 42.568 0.676 -47.281 0.676 -47.281 0.735 42.568
23885.208 0.735 42.533 0.676 -47.316 0.676 -47.316 0.735 42.533
23910.167 0.736 42.499 0.676 -47.351 0.676 -47.351 0.736 42.499
23935.125 0.736 42.464 0.675 -47.386 0.675 -47.386 0.736 42.464
23960.083 0.736 42.429 0.675 -47.421 0.675 -47.421 0.736 42.429
23985.042 0.737 42.394 0.674 -47.456 0.674 -47.456 0.737 42.394
24010 0.737 42.36 0.674 -47.491 0.674 -47.491 0.737 42.36
24034.958 0.738 42.325 0.673 -47.526 0.673 -47.526 0.738 42.325
24059.917 0.738 42.291 0.673 -47.561 0.673 -47.561 0.738 42.291
24084.875 0.738 42.256 0.672 -47.595 0.672 -47.595 0.738 42.256
24109.833 0.739 42.222 0.672 -47.63 0.672 -47.63 0.739 42.222
24134.792 0.739 42.187 0.672 -47.664 0.672 -47.664 0.739 42.187
24159.75 0.74 42.153 0.671 -47.699 0.671 -47.699 0.74 42.153
24184.708 0.74 42.119 0.671 -47.733 0.671 -47.733 0.74 42.119
24209.667 0.74 42.084 0.67 -47.768 0.67 -47.768 0.74 42.084
24234.625 0.741 42.05 0.67 -47.802 0.67 -47.802 0.741 42.05
24259.583 0.741 42.016 0.669 -47.836 0.669 -47.836 0.741 42.016
24284.542 0.742 41.982 0.669 -47.871 0.669 -47.871 0.742 41.982
24309.5 0.742 41.948 0.668 -47.905 0.668 -47.905 0.742 41.948
24334.458 0.742 41.914 0.668 -47.939 0.668 -47.939 0.742 41.914
24359.417 0.743 41.88 0.668 -47.973 0.668 -47.973 0.743 41.88
24384.375 0.743 41.846 0.667 -48.007 0.667 -48.007 0.743 41.846
24409.333 0.744 41.812 0.667 -48.041 0.667 -48.041 0.744 41.812
24434.292 0.744 41.778 0.666 -48.075 0.666 -48.075 0.744 41.778
24459.25 0.744 41.745 0.666 -48.109 0.666 -48.109 0.744 41.745
24484.208 0.745 41.711 0.665 -48.143 0.665 -48.143 0.745 41.711
24509.167 0.745 41.677 0.665 -48.177 0.665 -48.177 0.745 41.677
24534.125 0.746 41.644 0.664 -48.211 0.664 -48.211 0.746 41.644
24559.083 0.746 41.61 0.664 -48.244 0.664 -48.244 0.746 41.61
24584.042 0.746 41.577 0.664 -48.278 0.664 -48.278 0.746 41.577
24609 0.747 41.543 0.663 -48.312 0.663 -48.312 0.747 41.543
24633.958 0.747 41.51 0.663 -48.345 0.663 -48.345 0.747 41.51
24658.917 0.748 41.476 0.662 -48.379 0.662 -48.379 0.748 41.476
24683.875 0.748 41.443 0.662 -48.412 0.662 -48.412 0.748 41.443
24708.833 0.748 41.41 0.661 -48.446 0.661 -48.446 0.748 41.41
24733.792 0.749 41.377 0.661 -48.479 0.661 -48.479 0.749 41.377
24758.75 0.749 41.344 0.661 -48.512 0.661 -48.512 0.749 41.344
24783.708 0.749 41.31 0.66 -48.546 0.66 -48.546 0.749 41.31
24808.667 0.75 41.277 0.66 -48.579 0.66 -48.579 0.75 41.277
24833.625 0.75 41.244 0.659 -48.612 0.659 -48.612 0.75 41.244
24858.583 0.751 41.211 0.659 -48.645 0.659 -48.645 0.751 41.211
24883.542 0.751 41.178 0.658 -48.678 0.658 -48.678 0.751 41.178
24908.5 0.751 41.146 0.658 -48.711 0.658 -48.711 0.751 41.146
24933.458 0.752 41.113 0.658 -48.744 0.658 -48.744 0.752 41.113
24958.417 0.752 41.08 0.657 -48.777 0.657 -48.777 0.752 41.08
24983.375 0.753 41.047 0.657 -48.81 0.657 -48.81 0.753 41.047
25008.333 0.753 41.015 0.656 -48.843 0.656 -48.843 0.753 41.015
25033.292 0.753 40.982 0.656 -48.876 0.656 -48.876 0.753 40.982
25058.25 0.754 40.949 0.655 -48.909 0.655 -48.909 0.754 40.949
25083.208 0.754 40.917 0.655 -48.941 0.655 -48.941 0.754 40.917
25108.167 0.754 40.884 0.655 -48.974 0.655 -48.974 0.754 40.884
25133.125 0.755 40.852 0.654 -49.007 0.654 -49.007 0.755 40.852
25158.083 0.755 40.819 0.654 -49.039 0.654 -49.039 0.755 40.819
25183.042 0.756 40.787 0.653 -49.072 0.653 -49.072 0.756 40.787
25208 0.756 40.755 0.653 -49.104 0.653 -49.104 0.756 40.755
25232.958 0.756 40.723 0.652 -49.137 0.652 -49.137 0.756 40.723
25257.917 0.757 40.69 0.652 -49.169 0.652 -49.169 0.757 40.69
25282.875 0.757 40.658 0.652 -49.201 0.652 -49.201 0.757 40.658
25307.833 0.757 40.626 0.651 -49.234 0.651 -49.234 0.757 40.626
25332.792 0.758 40.594 0.651 -49.266 0.651 -49.266 0.758 40.594
25357.75 0.758 40.562 0.65 -49.298 0.65 -49.298 0.758 40.562
25382.708 0.758 40.53 0.65 -49.33 0.65 -49.33 0.758 40.53
25407.667 0.759 40.498 0.649 -49.362 0.649 -49.362 0.759 40.498
25432.625 0.759 40.466 0.649 -49.394 0.649 -49.394 0.759 40.466
25457.583 0.76 40.434 0.649 -49.426 0.649 -49.426 0.76 40.434
25482.542 0.76 40.402 0.648 -49.458 0.648 -49.458 0.76 40.402
25507.5 0.76 40.371 0.648 -49.49 0.648 -49.49 0.76 40.371
25532.458 0.761 40.339 0.647 -49.522 0.647 -49.522 0.761 40.339
25557.417 0.761 40.307 0.647 -49.554 0.647 -49.554 0.761 40.307
25582.375 0.761 40.276 0.646 -49.586 0.646 -49.586 0.761 40.276
25607.333 0.762 40.244 0.646 -49.617 0.646 -49.617 0.762 40.244
25632.292 0.762 40.213 0.646 -49.649 0.646 -49.649 0.762 40.213
25657.25 0.762 40.181 0.645 -49.681 0.645 -49.681 0.762 40.181
25682.208 0.763 40.15 0.645 -49.712 0.645 -49.712 0.763 40.15
25707.167 0.763 40.118 0.644 -49.744 0.644 -49.744 0.763 40.118
25732.125 0.764 40.087 0.644 -49.775 0.644 -49.775 0.764 40.087
25757.083 0.764 40.056 0.644 -49.807 0.644 -49.807 0.764 40.056
25782.042 0.764 40.024 0.643 -49.838 0.643 -49.838 0.764 40.024
25807 0.765 39.993 0.643 -49.87 0.643 -49.87 0.765 39.993
25831.958 0.765 39.962 0.642 -49.901 0.642 -49.901 0.765 39.962
25856.917 0.765 39.931 0.642 -49.932 0.642 -49.932 0.765 39.931
25881.875 0.766 39.9 0.641 -49.963 0.641 -49.963 0.766 39.9
25906.833 0.766 39.869 0.641 -49.995 0.641 -49.995 0.766 39.869
25931.792 0.766 39.838 0.641 -50.026 0.641 -50.026 0.766 39.838
25956.75 0.767 39.807 0.64 -50.057 0.64 -50.057 0.767 39.807
25981.708 0.767 39.776 0.64 -50.088 0.64 -50.088 0.767 39.776
26006.667 0.767 39.745 0.639 -50.119 0.639 -50.119 0.767 39.745
26031.625 0.768 39.714 0.639 -50.15 0.639 -50.15 0.768 39.714
26056.583 0.768 39.683 0.639 -50.181 0.639 -50.181 0.768 39.683
26081.542 0.768 39.653 0.638 -50.212 0.638 -50.212 0.768 39.653
26106.5 0.769 39.622 0.638 -50.243 0.638 -50.243 0.769 39.622
26131.458 0.769 39.591 0.637 -50.273 0.637 -50.273 0.769 39.591
26156.417 0.769 39.561 0.637 -50.304 0.637 -50.304 0.769 39.561
26181.375 0.77 39.53 0.636 -50.335 0.636 -50.335 0.77 39.53
26206.333 0.77 39.5 0.636 -50.366 0.636 -50.366 0.77 39.5
26231.292 0.77 39.469 0.636 -50.396 0.636 -50.396 0.77 39.469
26256.25 0.771 39.439 0.635 -50.427 0.635 -50.427 0.771 39.439
26281.208 0.771 39.408 0.635 -50.457 0.635 -50.457 0.771 39.408
26306.167 0.771 39.378 0.634 -50.488 0.634 -50.488 0.771 39.378
26331.125 0.772 39.348 0.634 -50.518 0.634 -50.518 0.772 39.348
26356.083 0.772 39.317 0.634 -50.549 0.634 -50.549 0.772 39.317
26381.042 0.773 39.287 0.633 -50.579 0.633 -50.579 0.773 39.287
26406 0.773 39.257 0.633 -50.609 0.633 -50.609 0.773 39.257
26430.958 0.773 39.227 0.632 -50.64 0.632 -50.64 0.773 39.227
26455.917 0.774 39.197 0.632 -50.67 0.632 -50.67 0.774 39.197
26480.875 0.774 39.167 0.632 -50.7 0.632 -50.7 0.774 39.167
26505.833 0.774 39.137 0.631 -50.73 0.631 -50.73 0.774 39.137
26530.792 0.775 39.107 0.631 -50.76 0.631 -50.76 0.775 39.107
26555.75 0.775 39.077 0.63 -50.79 0.63 -50.79 0.775 39.077
26580.708 0.775 39.047 0.63 -50.82 0.63 -50.82 0.775 39.047
26605.667 0.776 39.017 0.63 -50.85 0.63 -50.85 0.776 39.017
26630.625 0.776 38.987 0.629 -50.88 0.629 -50.88 0.776 38.987
26655.583 0.776 38.957 0.629 -50.91 0.629 -50.91 0.776 38.957
26680.542 0.776 38.928 0.628 -50.94 0.628 -50.94 0.776 38.928
26705.5 0.777 38.898 0.628 -50.97 0.628 -50.97 0.777 38.898
26730.458 0.777 38.868 0.628 -51 0.628 -51 0.777 38.868
26755.417 0.777 38.839 0.627 -51.029 0.627 -51.029 0.777 38.839
26780.375 0.778 38.809 0.627 -51.059 0.627 -51.059 0.778 38.809
26805.333 0.778 38.78 0.626 -51.089 0.626 -51.089 0.778 38.78
26830.292 0.778 38.75 0.626 -51.118 0.626 -51.118 0.778 38.75
26855.25 0.779 38.721 0.626 -51.148 0.626 -51.148 0.779 38.721
26880.208 0.779 38.691 0.625 -51.178 0.625 -51.178 0.779 38.691
26905.167 0.779 38.662 0.625 -51.207 0.625 -51.207 0.779 38.662
26930.125 0.78 38.633 0.624 -51.236 0.624 -51.236 0.78 38.633
26955.083 0.78 38.603 0.624 -51.266 0.624 -51.266 0.78 38.603
26980.042 0.78 38.574 0.624 -51.295 0.624 -51.295 0.78 38.574
27005 0.781 38.545 0.623 -51.325 0.623 -51.325 0.781 38.545
27029.958 0.781 38.516 0.623 -51.354 0.623 -51.354 0.781 38.516
27054.917 0.781 38.487 0.622 -51.383 0.622 -51.383 0.781 38.487
27079.875 0.782 38.458 0.622 -51.412 0.622 -51.412 0.782 38.458
27104.833 0.782 38.429 0.622 -51.441 0.622 -51.441 0.782 38.429
27129.792 0.782 38.4 0.621 -51.471 0.621 -51.471 0.782 38.4
27154.75 0.783 38.371 0.621 -51.5 0.621 -51.5 0.783 38.371
27179.708 0.783 38.342 0.62 -51.529 0.62 -51.529 0.783 38.342
27204.667 0.783 38.313 0.62 -51.558 0.62 -51.558 0.783 38.313
27229.625 0.784 38.284 0.62 -51.587 0.62 -51.587 0.784 38.284
27254.583 0.784 38.255 0.619 -51.616 0.619 -51.616 0.784 38.255
27279.542 0.784 38.227 0.619 -51.645 0.619 -51.645 0.784 38.227
27304.5 0.784 38.198 0.618 -51.673 0.618 -51.673 0.784 38.198
27329.458 0.785 38.169 0.618 -51.702 0.618 -51.702 0.785 38.169
27354.417 0.785 38.141 0.618 -51.731 0.618 -51.731 0.785 38.141
27379.375 0.785 38.112 0.617 -51.76 0.617 -51.76 0.785 38.112
27404.333 0.786 38.083 0.617 -51.788 0.617 -51.788 0.786 38.083
27429.292 0.786 38.055 0.616 -51.817 0.616 -51.817 0.786 38.055
27454.25 0.786 38.026 0.616 -51.846 0.616 -51.846 0.786 38.026
27479.208 0.787 37.998 0.616 -51.874 0.616 -51.874 0.787 37.998
27504.167 0.787 37.97 0.615 -51.903 0.615 -51.903 0.787 37.97
27529.125 0.787 37.941 0.615 -51.931 0.615 -51.931 0.787 37.941
27554.083 0.788 37.913 0.614 -51.96 0.614 -51.96 0.788 37.913
27579.042 0.788 37.885 0.614 -51.988 0.614 -51.988 0.788 37.885
27604 0.788 37.856 0.614 -52.016 0.614 -52.016 0.788 37.856
27628.958 0.788 37.828 0.613 -52.045 0.613 -52.045 0.788 37.828
27653.917 0.789 37.8 0.613 -52.073 0.613 -52.073 0.789 37.8
27678.875 0.789 37.772 0.613 -52.101 0.613 -52.101 0.789 37.772
27703.833 0.789 37.744 0.612 -52.13 0.612 -52.13 0.789 37.744
27728.792 0.79 37.716 0.612 -52.158 0.612 -52.158 0.79 37.716
27753.75 0.79 37.688 0.611 -52.186 0.611 -52.186 0.79 37.688
27778.708 0.79 37.66 0.611 -52.214 0.611 -52.214 0.79 37.66
27803.667 0.791 37.632 0.611 -52.242 0.611 -52.242 0.791 37.632
27828.625 0.791 37.604 0.61 -52.27 0.61 -52.27 0.791 37.604
27853.583 0.791 37.576 0.61 -52.298 0.61 -52.298 0.791 37.576
27878.542 0.792 37.548 0.609 -52.326 0.609 -52.326 0.792 37.548
27903.5 0.792 37.52 0.609 -52.354 0.609 -52.354 0.792 37.52
27928.458 0.792 37.493 0.609 -52.382 0.609 -52.382 0.792 37.493
27953.417 0.792 37.465 0.608 -52.41 0.608 -52.41 0.792 37.465
27978.375 0.793 37.437 0.608 -52.437 0.608 -52.437 0.793 37.437
28003.333 0.793 37.41 0.608 -52.465 0.608 -52.465 0.793 37.41
28028.292 0.793 37.382 0.607 -52.493 0.607 -52.493 0.793 37.382
28053.25 0.794 37.355 0.607 -52.521 0.607 -52.521 0.794 37.355
28078.208 0.794 37.327 0.606 -52.548 0.606 -52.548 0.794 37.327
28103.167 0.794 37.3 0.606 -52.576 0.606 -52.576 0.794 37.3
28128.125 0.794 37.272 0.606 -52.603 0.606 -52.603 0.794 37.272
28153.083 0.795 37.245 0.605 -52.631 0.605 -52.631 0.795 37.245
28178.042 0.795 37.217 0.605 -52.658 0.605 -52.658 0.795 37.217
28203 0.795 37.19 0.604 -52.686 0.604 -52.686 0.795 37.19
28227.958 0.796 37.163 0.604 -52.713 0.604 -52.713 0.796 37.163
28252.917 0.796 37.135 0.604 -52.741 0.604 -52.741 0.796 37.135
28277.875 0.796 37.108 0.603 -52.768 0.603 -52.768 0.796 37.108
28302.833 0.796 37.081 0.603 -52.795 0.603 -52.795 0.796 37.081
28327.792 0.797 37.054 0.603 -52.823 0.603 -52.823 0.797 37.054
28352.75 0.797 37.027 0.602 -52.85 0.602 -52.85 0.797 37.027
28377.708 0.797 37 0.602 -52.877 0.602 -52.877 0.797 37
28402.667 0.798 36.973 0.601 -52.904 0.601 -52.904 0.798 36.973
28427.625 0.798 36.946 0.601 -52.931 0.601 -52.931 0.798 36.946
28452.583 0.798 36.919 0.601 -52.958 0.601 -52.958 0.798 36.919
28477.542 0.798 36.892 0.6 -52.985 0.6 -52.985 0.798 36.892
28502.5 0.799 36.865 0.6 -53.012 0.6 -53.012 0.799 36.865
28527.458 0.799 36.838 0.6 -53.039 0.6 -53.039 0.799 36.838
28552.417 0.799 36.811 0.599 -53.066 0.599 -53.066 0.799 36.811
28577.375 0.8 36.784 0.599 -53.093 0.599 -53.093 0.8 36.784
28602.333 0.8 36.758 0.598 -53.12 0.598 -53.12 0.8 36.758
28627.292 0.8 36.731 0.598 -53.147 0.598 -53.147 0.8 36.731
28652.25 0.8 36.704 0.598 -53.174 0.598 -53.174 0.8 36.704
28677.208 0.801 36.678 0.597 -53.201 0.597 -53.201 0.801 36.678
28702.167 0.801 36.651 0.597 -53.227 0.597 -53.227 0.801 36.651
28727.125 0.801 36.624 0.597 -53.254 0.597 -53.254 0.801 36.624
28752.083 0.802 36.598 0.596 -53.281 0.596 -53.281 0.802 36.598
28777.042 0.802 36.571 0.596 -53.307 0.596 -53.307 0.802 36.571
28802 0.802 36.545 0.595 -53.334 0.595 -53.334 0.802 36.545
28826.958 0.802 36.518 0.595 -53.36 0.595 -53.36 0.802 36.518
28851.917 0.803 36.492 0.595 -53.387 0.595 -53.387 0.803 36.492
28876.875 0.803 36.466 0.594 -53.413 0.594 -53.413 0.803 36.466
28901.833 0.803 36.439 0.594 -53.44 0.594 -53.44 0.803 36.439
28926.792 0.804 36.413 0.594 -53.466 0.594 -53.466 0.804 36.413
28951.75 0.804 36.387 0.593 -53.493 0.593 -53.493 0.804 36.387
28976.708 0.804 36.361 0.593 -53.519 0.593 -53.519 0.804 36.361
29001.667 0.804 36.334 0.592 -53.545 0.592 -53.545 0.804 36.334
29026.625 0.805 36.308 0.592 -53.572 0.592 -53.572 0.805 36.308
29051.583 0.805 36.282 0.592 -53.598 0.592 -53.598 0.805 36.282
29076.542 0.805 36.256 0.591 -53.624 0.591 -53.624 0.805 36.256
29101.5 0.805 36.23 0.591 -53.65 0.591 -53.65 0.805 36.23
29126.458 0.806 36.204 0.591 -53.676 0.591 -53.676 0.806 36.204
29151.417 0.806 36.178 0.59 -53.702 0.59 -53.702 0.806 36.178
29176.375 0.806 36.152 0.59 -53.728 0.59 -53.728 0.806 36.152
29201.333 0.806 36.126 0.59 -53.754 0.59 -53.754 0.806 36.126
29226.292 0.807 36.1 0.589 -53.78 0.589 -53.78 0.807 36.1
29251.25 0.807 36.074 0.589 -53.806 0.589 -53.806 0.807 36.074
29276.208 0.807 36.049 0.588 -53.832 0.588 -53.832 0.807 36.049
29301.167 0.808 36.023 0.588 -53.858 0.588 -53.858 0.808 36.023
29326.125 0.808 35.997 0.588 -53.884 0.588 -53.884 0.808 35.997
29351.083 0.808 35.971 0.587 -53.91 0.587 -53.91 0.808 35.971
29376.042 0.808 35.946 0.587 -53.936 0.587 -53.936 0.808 35.946
29401 0.809 35.92 0.587 -53.961 0.587 -53.961 0.809 35.92
29425.958 0.809 35.894 0.586 -53.987 0.586 -53.987 0.809 35.894
29450.917 0.809 35.869 0.586 -54.013 0.586 -54.013 0.809 35.869
29475.875 0.809 35.843 0.586 -54.039 0.586 -54.039 0.809 35.843
29500.833 0.81 35.818 0.585 -54.064 0.585 -54.064 0.81 35.818
29525.792 0.81 35.792 0.585 -54.09 0.585 -54.09 0.81 35.792
29550.75 0.81 35.767 0.584 -54.115 0.584 -54.115 0.81 35.767
29575.708 0.81 35.741 0.584 -54.141 0.584 -54.141 0.81 35.741
29600.667 0.811 35.716 0.584 -54.166 0.584 -54.166 0.811 35.716
29625.625 0.811 35.691 0.583 -54.192 0.583 -54.192 0.811 35.691
29650.583 0.811 35.665 0.583 -54.217 0.583 -54.217 0.811 35.665
29675.542 0.811 35.64 0.583 -54.242 0.583 -54.242 0.811 35.64
29700.5 0.812 35.615 0.582 -54.268 0.582 -54.268 0.812 35.615
29725.458 0.812 35.59 0.582 -54.293 0.582 -54.293 0.812 35.59
29750.417 0.812 35.565 0.582 -54.318 0.582 -54.318 0.812 35.565
29775.375 0.813 35.539 0.581 -54.344 0.581 -54.344 0.813 35.539
29800.333 0.813 35.514 0.581 -54.369 0.581 -54.369 0.813 35.514
29825.292 0.813 35.489 0.581 -54.394 0.581 -54.394 0.813 35.489
29850.25 0.813 35.464 0.58 -54.419 0.58 -54.419 0.813 35.464
29875.208 0.814 35.439 0.58 -54.444 0.58 -54.444 0.814 35.439
29900.167 0.814 35.414 0.579 -54.469 0.579 -54.469 0.814 35.414
29925.125 0.814 35.389 0.579 -54.494 0.579 -54.494 0.814 35.389
29950.083 0.814 35.364 0.579 -54.52 0.579 -54.52 0.814 35.364
29975.042 0.815 35.339 0.578 -54.544 0.578 -54.544 0.815 35.339
30000 0.815 35.315 0.578 -54.569 0.578 -54.569 0.815 35.315
