!	AVX Thin Film Operation 	Date: April 2014		
!	Description: Accu-P® Series, Thin Film  SMD RF Capacitor
!	Part Number: 06031JR95PBSTR					
!								
# MHZ S MA R 50

50 1 -1.71 0.03 88.286 0.03 88.286 1 -1.71
74.958 0.999 -2.562 0.045 87.431 0.045 87.431 0.999 -2.562
99.917 0.998 -3.414 0.06 86.577 0.06 86.577 0.998 -3.414
124.875 0.997 -4.265 0.074 85.724 0.074 85.724 0.997 -4.265
149.833 0.996 -5.114 0.089 84.873 0.089 84.873 0.996 -5.114
174.792 0.995 -5.961 0.104 84.023 0.104 84.023 0.995 -5.961
199.75 0.993 -6.807 0.119 83.176 0.119 83.176 0.993 -6.807
224.708 0.991 -7.65 0.133 82.33 0.133 82.33 0.991 -7.65
249.667 0.989 -8.491 0.148 81.488 0.148 81.488 0.989 -8.491
274.625 0.987 -9.329 0.162 80.647 0.162 80.647 0.987 -9.329
299.583 0.984 -10.164 0.176 79.81 0.176 79.81 0.984 -10.164
324.542 0.982 -10.995 0.191 78.977 0.191 78.977 0.982 -10.995
349.5 0.979 -11.823 0.205 78.146 0.205 78.146 0.979 -11.823
374.458 0.976 -12.648 0.219 77.32 0.219 77.32 0.976 -12.648
399.417 0.972 -13.468 0.233 76.498 0.233 76.498 0.972 -13.468
424.375 0.969 -14.284 0.247 75.679 0.247 75.679 0.969 -14.284
449.333 0.965 -15.095 0.26 74.866 0.26 74.866 0.965 -15.095
474.292 0.962 -15.902 0.274 74.056 0.274 74.056 0.962 -15.902
499.25 0.958 -16.705 0.287 73.252 0.287 73.252 0.958 -16.705
524.208 0.953 -17.502 0.301 72.453 0.301 72.453 0.953 -17.502
549.167 0.949 -18.294 0.314 71.659 0.314 71.659 0.949 -18.294
574.125 0.945 -19.08 0.327 70.87 0.327 70.87 0.945 -19.08
599.083 0.94 -19.861 0.34 70.087 0.34 70.087 0.94 -19.861
624.042 0.935 -20.637 0.352 69.309 0.352 69.309 0.935 -20.637
649 0.931 -21.406 0.365 68.537 0.365 68.537 0.931 -21.406
673.958 0.926 -22.17 0.377 67.771 0.377 67.771 0.926 -22.17
698.917 0.921 -22.927 0.39 67.012 0.39 67.012 0.921 -22.927
723.875 0.915 -23.679 0.402 66.258 0.402 66.258 0.915 -23.679
748.833 0.91 -24.424 0.413 65.511 0.413 65.511 0.91 -24.424
773.792 0.905 -25.162 0.425 64.77 0.425 64.77 0.905 -25.162
798.75 0.899 -25.895 0.437 64.035 0.437 64.035 0.899 -25.895
823.708 0.893 -26.62 0.448 63.307 0.448 63.307 0.893 -26.62
848.667 0.888 -27.339 0.459 62.586 0.459 62.586 0.888 -27.339
873.625 0.882 -28.052 0.47 61.871 0.47 61.871 0.882 -28.052
898.583 0.876 -28.757 0.481 61.163 0.481 61.163 0.876 -28.757
923.542 0.87 -29.456 0.492 60.462 0.492 60.462 0.87 -29.456
948.5 0.864 -30.148 0.502 59.768 0.502 59.768 0.864 -30.148
973.458 0.858 -30.834 0.513 59.08 0.513 59.08 0.858 -30.834
998.417 0.852 -31.512 0.523 58.399 0.523 58.399 0.852 -31.512
1023.375 0.846 -32.183 0.533 57.726 0.533 57.726 0.846 -32.183
1048.333 0.839 -32.848 0.542 57.059 0.542 57.059 0.839 -32.848
1073.292 0.833 -33.505 0.552 56.399 0.552 56.399 0.833 -33.505
1098.25 0.827 -34.156 0.561 55.746 0.561 55.746 0.827 -34.156
1123.208 0.82 -34.8 0.571 55.1 0.571 55.1 0.82 -34.8
1148.167 0.814 -35.437 0.58 54.46 0.58 54.46 0.814 -35.437
1173.125 0.807 -36.067 0.589 53.828 0.589 53.828 0.807 -36.067
1198.083 0.801 -36.69 0.597 53.202 0.597 53.202 0.801 -36.69
1223.042 0.794 -37.306 0.606 52.584 0.606 52.584 0.794 -37.306
1248 0.788 -37.916 0.615 51.972 0.615 51.972 0.788 -37.916
1272.958 0.781 -38.518 0.623 51.367 0.623 51.367 0.781 -38.518
1297.917 0.775 -39.114 0.631 50.768 0.631 50.768 0.775 -39.114
1322.875 0.768 -39.704 0.639 50.176 0.639 50.176 0.768 -39.704
1347.833 0.761 -40.286 0.647 49.591 0.647 49.591 0.761 -40.286
1372.792 0.755 -40.862 0.654 49.013 0.654 49.013 0.755 -40.862
1397.75 0.748 -41.432 0.662 48.441 0.662 48.441 0.748 -41.432
1422.708 0.742 -41.995 0.669 47.875 0.669 47.875 0.742 -41.995
1447.667 0.735 -42.551 0.676 47.316 0.676 47.316 0.735 -42.551
1472.625 0.729 -43.101 0.683 46.763 0.683 46.763 0.729 -43.101
1497.583 0.722 -43.645 0.69 46.217 0.69 46.217 0.722 -43.645
1522.542 0.715 -44.183 0.697 45.677 0.697 45.677 0.715 -44.183
1547.5 0.709 -44.714 0.704 45.143 0.704 45.143 0.709 -44.714
1572.458 0.702 -45.239 0.71 44.615 0.71 44.615 0.702 -45.239
1597.417 0.696 -45.758 0.716 44.093 0.716 44.093 0.696 -45.758
1622.375 0.689 -46.271 0.723 43.577 0.723 43.577 0.689 -46.271
1647.333 0.683 -46.778 0.729 43.068 0.729 43.068 0.683 -46.778
1672.292 0.676 -47.279 0.735 42.564 0.735 42.564 0.676 -47.279
1697.25 0.67 -47.775 0.741 42.065 0.741 42.065 0.67 -47.775
1722.208 0.664 -48.265 0.746 41.573 0.746 41.573 0.664 -48.265
1747.167 0.657 -48.749 0.752 41.086 0.752 41.086 0.657 -48.749
1772.125 0.651 -49.227 0.757 40.605 0.757 40.605 0.651 -49.227
1797.083 0.645 -49.7 0.763 40.129 0.763 40.129 0.645 -49.7
1822.042 0.638 -50.167 0.768 39.659 0.768 39.659 0.638 -50.167
1847 0.632 -50.629 0.773 39.194 0.773 39.194 0.632 -50.629
1871.958 0.626 -51.086 0.778 38.734 0.778 38.734 0.626 -51.086
1896.917 0.62 -51.538 0.783 38.28 0.783 38.28 0.62 -51.538
1921.875 0.613 -51.984 0.788 37.83 0.788 37.83 0.613 -51.984
1946.833 0.607 -52.425 0.793 37.386 0.793 37.386 0.607 -52.425
1971.792 0.601 -52.862 0.797 36.947 0.797 36.947 0.601 -52.862
1996.75 0.595 -53.293 0.802 36.513 0.802 36.513 0.595 -53.293
2021.708 0.589 -53.719 0.806 36.083 0.806 36.083 0.589 -53.719
2046.667 0.583 -54.141 0.81 35.658 0.81 35.658 0.583 -54.141
2071.625 0.577 -54.558 0.815 35.238 0.815 35.238 0.577 -54.558
2096.583 0.571 -54.97 0.819 34.823 0.819 34.823 0.571 -54.97
2121.542 0.565 -55.377 0.823 34.412 0.823 34.412 0.565 -55.377
2146.5 0.559 -55.78 0.827 34.006 0.827 34.006 0.559 -55.78
2171.458 0.553 -56.179 0.831 33.605 0.831 33.605 0.553 -56.179
2196.417 0.548 -56.573 0.835 33.207 0.835 33.207 0.548 -56.573
2221.375 0.542 -56.963 0.838 32.814 0.838 32.814 0.542 -56.963
2246.333 0.536 -57.348 0.842 32.425 0.842 32.425 0.536 -57.348
2271.292 0.531 -57.729 0.846 32.041 0.846 32.041 0.531 -57.729
2296.25 0.525 -58.106 0.849 31.66 0.849 31.66 0.525 -58.106
2321.208 0.519 -58.479 0.852 31.284 0.852 31.284 0.519 -58.479
2346.167 0.514 -58.848 0.856 30.911 0.856 30.911 0.514 -58.848
2371.125 0.508 -59.213 0.859 30.543 0.859 30.543 0.508 -59.213
2396.083 0.503 -59.574 0.862 30.178 0.862 30.178 0.503 -59.574
2421.042 0.497 -59.932 0.865 29.817 0.865 29.817 0.497 -59.932
2446 0.492 -60.285 0.869 29.46 0.869 29.46 0.492 -60.285
2470.958 0.486 -60.635 0.872 29.107 0.872 29.107 0.486 -60.635
2495.917 0.481 -60.981 0.874 28.757 0.874 28.757 0.481 -60.981
2520.875 0.476 -61.323 0.877 28.411 0.877 28.411 0.476 -61.323
2545.833 0.471 -61.662 0.88 28.068 0.88 28.068 0.471 -61.662
2570.792 0.465 -61.997 0.883 27.729 0.883 27.729 0.465 -61.997
2595.75 0.46 -62.329 0.886 27.393 0.886 27.393 0.46 -62.329
2620.708 0.455 -62.658 0.888 27.06 0.888 27.06 0.455 -62.658
2645.667 0.45 -62.983 0.891 26.731 0.891 26.731 0.45 -62.983
2670.625 0.445 -63.305 0.893 26.405 0.893 26.405 0.445 -63.305
2695.583 0.44 -63.623 0.896 26.083 0.896 26.083 0.44 -63.623
2720.542 0.435 -63.939 0.898 25.763 0.898 25.763 0.435 -63.939
2745.5 0.43 -64.251 0.901 25.447 0.901 25.447 0.43 -64.251
2770.458 0.425 -64.56 0.903 25.133 0.903 25.133 0.425 -64.56
2795.417 0.42 -64.866 0.905 24.823 0.905 24.823 0.42 -64.866
2820.375 0.415 -65.169 0.908 24.515 0.908 24.515 0.415 -65.169
2845.333 0.41 -65.469 0.91 24.211 0.91 24.211 0.41 -65.469
2870.292 0.405 -65.766 0.912 23.909 0.912 23.909 0.405 -65.766
2895.25 0.401 -66.06 0.914 23.61 0.914 23.61 0.401 -66.06
2920.208 0.396 -66.351 0.916 23.314 0.916 23.314 0.396 -66.351
2945.167 0.391 -66.64 0.918 23.021 0.918 23.021 0.391 -66.64
2970.125 0.386 -66.926 0.92 22.73 0.92 22.73 0.386 -66.926
2995.083 0.382 -67.209 0.922 22.442 0.922 22.442 0.382 -67.209
3020.042 0.377 -67.489 0.924 22.157 0.924 22.157 0.377 -67.489
3045 0.373 -67.767 0.926 21.874 0.926 21.874 0.373 -67.767
3069.958 0.368 -68.042 0.927 21.594 0.927 21.594 0.368 -68.042
3094.917 0.364 -68.315 0.929 21.316 0.929 21.316 0.364 -68.315
3119.875 0.359 -68.585 0.931 21.041 0.931 21.041 0.359 -68.585
3144.833 0.355 -68.852 0.933 20.768 0.933 20.768 0.355 -68.852
3169.792 0.35 -69.117 0.934 20.497 0.934 20.497 0.35 -69.117
3194.75 0.346 -69.38 0.936 20.229 0.936 20.229 0.346 -69.38
3219.708 0.341 -69.64 0.938 19.963 0.938 19.963 0.341 -69.64
3244.667 0.337 -69.898 0.939 19.699 0.939 19.699 0.337 -69.898
3269.625 0.333 -70.154 0.941 19.438 0.941 19.438 0.333 -70.154
3294.583 0.329 -70.407 0.942 19.179 0.942 19.179 0.329 -70.407
3319.542 0.324 -70.658 0.944 18.922 0.944 18.922 0.324 -70.658
3344.5 0.32 -70.907 0.945 18.667 0.945 18.667 0.32 -70.907
3369.458 0.316 -71.153 0.946 18.414 0.946 18.414 0.316 -71.153
3394.417 0.312 -71.398 0.948 18.163 0.948 18.163 0.312 -71.398
3419.375 0.308 -71.64 0.949 17.915 0.949 17.915 0.308 -71.64
3444.333 0.304 -71.88 0.95 17.668 0.95 17.668 0.304 -71.88
3469.292 0.299 -72.118 0.952 17.423 0.952 17.423 0.299 -72.118
3494.25 0.295 -72.354 0.953 17.18 0.953 17.18 0.295 -72.354
3519.208 0.291 -72.587 0.954 16.94 0.954 16.94 0.291 -72.587
3544.167 0.287 -72.819 0.955 16.701 0.955 16.701 0.287 -72.819
3569.125 0.283 -73.049 0.957 16.464 0.957 16.464 0.283 -73.049
3594.083 0.279 -73.277 0.958 16.228 0.958 16.228 0.279 -73.277
3619.042 0.276 -73.503 0.959 15.995 0.959 15.995 0.276 -73.503
3644 0.272 -73.726 0.96 15.763 0.96 15.763 0.272 -73.726
3668.958 0.268 -73.948 0.961 15.533 0.961 15.533 0.268 -73.948
3693.917 0.264 -74.168 0.962 15.305 0.962 15.305 0.264 -74.168
3718.875 0.26 -74.387 0.963 15.079 0.963 15.079 0.26 -74.387
3743.833 0.256 -74.603 0.964 14.854 0.964 14.854 0.256 -74.603
3768.792 0.253 -74.817 0.965 14.631 0.965 14.631 0.253 -74.817
3793.75 0.249 -75.03 0.966 14.409 0.966 14.409 0.249 -75.03
3818.708 0.245 -75.241 0.967 14.19 0.967 14.19 0.245 -75.241
3843.667 0.241 -75.45 0.968 13.971 0.968 13.971 0.241 -75.45
3868.625 0.238 -75.657 0.969 13.755 0.969 13.755 0.238 -75.657
3893.583 0.234 -75.862 0.97 13.539 0.97 13.539 0.234 -75.862
3918.542 0.231 -76.066 0.971 13.326 0.971 13.326 0.231 -76.066
3943.5 0.227 -76.268 0.971 13.114 0.971 13.114 0.227 -76.268
3968.458 0.223 -76.468 0.972 12.903 0.972 12.903 0.223 -76.468
3993.417 0.22 -76.667 0.973 12.694 0.973 12.694 0.22 -76.667
4018.375 0.216 -76.863 0.974 12.486 0.974 12.486 0.216 -76.863
4043.333 0.213 -77.058 0.975 12.28 0.975 12.28 0.213 -77.058
4068.292 0.209 -77.252 0.975 12.075 0.975 12.075 0.209 -77.252
4093.25 0.206 -77.443 0.976 11.871 0.976 11.871 0.206 -77.443
4118.208 0.202 -77.633 0.977 11.669 0.977 11.669 0.202 -77.633
4143.167 0.199 -77.822 0.978 11.468 0.978 11.468 0.199 -77.822
4168.125 0.195 -78.008 0.978 11.269 0.978 11.269 0.195 -78.008
4193.083 0.192 -78.193 0.979 11.071 0.979 11.071 0.192 -78.193
4218.042 0.189 -78.376 0.98 10.874 0.98 10.874 0.189 -78.376
4243 0.185 -78.558 0.98 10.678 0.98 10.678 0.185 -78.558
4267.958 0.182 -78.738 0.981 10.484 0.981 10.484 0.182 -78.738
4292.917 0.179 -78.916 0.981 10.291 0.981 10.291 0.179 -78.916
4317.875 0.175 -79.093 0.982 10.099 0.982 10.099 0.175 -79.093
4342.833 0.172 -79.267 0.983 9.908 0.983 9.908 0.172 -79.267
4367.792 0.169 -79.44 0.983 9.718 0.983 9.718 0.169 -79.44
4392.75 0.166 -79.612 0.984 9.53 0.984 9.53 0.166 -79.612
4417.708 0.162 -79.782 0.984 9.343 0.984 9.343 0.162 -79.782
4442.667 0.159 -79.949 0.985 9.157 0.985 9.157 0.159 -79.949
4467.625 0.156 -80.116 0.985 8.972 0.985 8.972 0.156 -80.116
4492.583 0.153 -80.28 0.986 8.788 0.986 8.788 0.153 -80.28
4517.542 0.15 -80.443 0.986 8.606 0.986 8.606 0.15 -80.443
4542.5 0.147 -80.603 0.987 8.424 0.987 8.424 0.147 -80.603
4567.458 0.143 -80.762 0.987 8.244 0.987 8.244 0.143 -80.762
4592.417 0.14 -80.919 0.988 8.064 0.988 8.064 0.14 -80.919
4617.375 0.137 -81.074 0.988 7.886 0.988 7.886 0.137 -81.074
4642.333 0.134 -81.227 0.988 7.708 0.988 7.708 0.134 -81.227
4667.292 0.131 -81.379 0.989 7.532 0.989 7.532 0.131 -81.379
4692.25 0.128 -81.528 0.989 7.357 0.989 7.357 0.128 -81.528
4717.208 0.125 -81.675 0.99 7.182 0.99 7.182 0.125 -81.675
4742.167 0.122 -81.819 0.99 7.009 0.99 7.009 0.122 -81.819
4767.125 0.119 -81.962 0.99 6.837 0.99 6.837 0.119 -81.962
4792.083 0.116 -82.102 0.991 6.665 0.991 6.665 0.116 -82.102
4817.042 0.113 -82.24 0.991 6.495 0.991 6.495 0.113 -82.24
4842 0.11 -82.375 0.991 6.325 0.991 6.325 0.11 -82.375
4866.958 0.107 -82.508 0.992 6.157 0.992 6.157 0.107 -82.508
4891.917 0.104 -82.638 0.992 5.989 0.992 5.989 0.104 -82.638
4916.875 0.101 -82.765 0.992 5.822 0.992 5.822 0.101 -82.765
4941.833 0.099 -82.889 0.993 5.657 0.993 5.657 0.099 -82.889
4966.792 0.096 -83.01 0.993 5.492 0.993 5.492 0.096 -83.01
4991.75 0.093 -83.128 0.993 5.327 0.993 5.327 0.093 -83.128
5016.708 0.09 -83.242 0.993 5.164 0.993 5.164 0.09 -83.242
5041.667 0.087 -83.353 0.994 5.002 0.994 5.002 0.087 -83.353
5066.625 0.084 -83.459 0.994 4.84 0.994 4.84 0.084 -83.459
5091.583 0.082 -83.561 0.994 4.68 0.994 4.68 0.082 -83.561
5116.542 0.079 -83.659 0.994 4.52 0.994 4.52 0.079 -83.659
5141.5 0.076 -83.751 0.995 4.361 0.995 4.361 0.076 -83.751
5166.458 0.073 -83.838 0.995 4.202 0.995 4.202 0.073 -83.838
5191.417 0.071 -83.919 0.995 4.045 0.995 4.045 0.071 -83.919
5216.375 0.068 -83.993 0.995 3.888 0.995 3.888 0.068 -83.993
5241.333 0.065 -84.06 0.995 3.732 0.995 3.732 0.065 -84.06
5266.292 0.062 -84.12 0.996 3.577 0.996 3.577 0.062 -84.12
5291.25 0.06 -84.17 0.996 3.423 0.996 3.423 0.06 -84.17
5316.208 0.057 -84.21 0.996 3.269 0.996 3.269 0.057 -84.21
5341.167 0.054 -84.24 0.996 3.116 0.996 3.116 0.054 -84.24
5366.125 0.052 -84.256 0.996 2.964 0.996 2.964 0.052 -84.256
5391.083 0.049 -84.258 0.996 2.813 0.996 2.813 0.049 -84.258
5416.042 0.047 -84.243 0.996 2.662 0.996 2.662 0.047 -84.243
5441 0.044 -84.208 0.997 2.512 0.997 2.512 0.044 -84.208
5465.958 0.041 -84.15 0.997 2.363 0.997 2.363 0.041 -84.15
5490.917 0.039 -84.065 0.997 2.214 0.997 2.214 0.039 -84.065
5515.875 0.036 -83.948 0.997 2.066 0.997 2.066 0.036 -83.948
5540.833 0.034 -83.79 0.997 1.919 0.997 1.919 0.034 -83.79
5565.792 0.031 -83.583 0.997 1.773 0.997 1.773 0.031 -83.583
5590.75 0.029 -83.314 0.997 1.627 0.997 1.627 0.029 -83.314
5615.708 0.026 -82.966 0.997 1.482 0.997 1.482 0.026 -82.966
5640.667 0.023 -82.515 0.997 1.337 0.997 1.337 0.023 -82.515
5665.625 0.021 -81.924 0.997 1.193 0.997 1.193 0.021 -81.924
5690.583 0.018 -81.138 0.997 1.05 0.997 1.05 0.018 -81.138
5715.542 0.016 -80.072 0.997 0.907 0.997 0.907 0.016 -80.072
5740.5 0.014 -78.575 0.997 0.765 0.997 0.765 0.014 -78.575
5765.458 0.011 -76.376 0.997 0.624 0.997 0.624 0.011 -76.376
5790.417 8.8e-3 -72.916 0.997 0.483 0.997 0.483 8.8e-3 -72.916
5815.375 6.493e-3 -66.877 0.997 0.343 0.997 0.343 6.493e-3 -66.877
5840.333 4.351e-3 -54.5 0.997 0.203 0.997 0.203 4.351e-3 -54.5
5865.292 2.755e-3 -24.065 0.997 0.065 0.997 0.065 2.755e-3 -24.065
5890.25 2.825e-3 27.062 0.997 -0.074 0.997 -0.074 2.825e-3 27.062
5915.208 4.468e-3 55.543 0.997 -0.212 0.997 -0.212 4.468e-3 55.543
5940.167 6.586e-3 67.211 0.997 -0.349 0.997 -0.349 6.586e-3 67.211
5965.125 8.837e-3 72.986 0.997 -0.485 0.997 -0.485 8.837e-3 72.986
5990.083 0.011 76.329 0.997 -0.621 0.997 -0.621 0.011 76.329
6015.042 0.013 78.469 0.997 -0.757 0.997 -0.757 0.013 78.469
6040 0.016 79.934 0.997 -0.892 0.997 -0.892 0.016 79.934
6064.958 0.018 80.985 0.997 -1.026 0.997 -1.026 0.018 80.985
6089.917 0.02 81.763 0.997 -1.16 0.997 -1.16 0.02 81.763
6114.875 0.023 82.353 0.997 -1.293 0.997 -1.293 0.023 82.353
6139.833 0.025 82.807 0.997 -1.426 0.997 -1.426 0.025 82.807
6164.792 0.027 83.162 0.997 -1.558 0.997 -1.558 0.027 83.162
6189.75 0.03 83.44 0.997 -1.69 0.997 -1.69 0.03 83.44
6214.708 0.032 83.658 0.997 -1.821 0.997 -1.821 0.032 83.658
6239.667 0.034 83.829 0.997 -1.952 0.997 -1.952 0.034 83.829
6264.625 0.036 83.962 0.997 -2.082 0.997 -2.082 0.036 83.962
6289.583 0.039 84.064 0.997 -2.212 0.997 -2.212 0.039 84.064
6314.542 0.041 84.14 0.997 -2.341 0.997 -2.341 0.041 84.14
6339.5 0.043 84.194 0.997 -2.47 0.997 -2.47 0.043 84.194
6364.458 0.045 84.23 0.996 -2.598 0.996 -2.598 0.045 84.23
6389.417 0.048 84.251 0.996 -2.725 0.996 -2.725 0.048 84.251
6414.375 0.05 84.259 0.996 -2.853 0.996 -2.853 0.05 84.259
6439.333 0.052 84.255 0.996 -2.979 0.996 -2.979 0.052 84.255
6464.292 0.054 84.241 0.996 -3.106 0.996 -3.106 0.054 84.241
6489.25 0.056 84.219 0.996 -3.231 0.996 -3.231 0.056 84.219
6514.208 0.059 84.189 0.996 -3.357 0.996 -3.357 0.059 84.189
6539.167 0.061 84.152 0.996 -3.482 0.996 -3.482 0.061 84.152
6564.125 0.063 84.109 0.996 -3.606 0.996 -3.606 0.063 84.109
6589.083 0.065 84.061 0.995 -3.73 0.995 -3.73 0.065 84.061
6614.042 0.067 84.009 0.995 -3.853 0.995 -3.853 0.067 84.009
6639 0.069 83.952 0.995 -3.976 0.995 -3.976 0.069 83.952
6663.958 0.072 83.892 0.995 -4.099 0.995 -4.099 0.072 83.892
6688.917 0.074 83.828 0.995 -4.221 0.995 -4.221 0.074 83.828
6713.875 0.076 83.761 0.995 -4.343 0.995 -4.343 0.076 83.761
6738.833 0.078 83.691 0.994 -4.464 0.994 -4.464 0.078 83.691
6763.792 0.08 83.619 0.994 -4.585 0.994 -4.585 0.08 83.619
6788.75 0.082 83.545 0.994 -4.705 0.994 -4.705 0.082 83.545
6813.708 0.084 83.469 0.994 -4.825 0.994 -4.825 0.084 83.469
6838.667 0.086 83.39 0.994 -4.945 0.994 -4.945 0.086 83.39
6863.625 0.088 83.311 0.994 -5.064 0.994 -5.064 0.088 83.311
6888.583 0.09 83.229 0.993 -5.183 0.993 -5.183 0.09 83.229
6913.542 0.092 83.147 0.993 -5.301 0.993 -5.301 0.092 83.147
6938.5 0.094 83.063 0.993 -5.419 0.993 -5.419 0.094 83.063
6963.458 0.097 82.977 0.993 -5.537 0.993 -5.537 0.097 82.977
6988.417 0.099 82.891 0.993 -5.654 0.993 -5.654 0.099 82.891
7013.375 0.101 82.804 0.992 -5.771 0.992 -5.771 0.101 82.804
7038.333 0.103 82.716 0.992 -5.887 0.992 -5.887 0.103 82.716
7063.292 0.105 82.627 0.992 -6.003 0.992 -6.003 0.105 82.627
7088.25 0.107 82.538 0.992 -6.119 0.992 -6.119 0.107 82.538
7113.208 0.109 82.447 0.992 -6.234 0.992 -6.234 0.109 82.447
7138.167 0.111 82.357 0.991 -6.349 0.991 -6.349 0.111 82.357
7163.125 0.113 82.265 0.991 -6.463 0.991 -6.463 0.113 82.265
7188.083 0.115 82.173 0.991 -6.578 0.991 -6.578 0.115 82.173
7213.042 0.117 82.081 0.991 -6.691 0.991 -6.691 0.117 82.081
7238 0.119 81.988 0.99 -6.805 0.99 -6.805 0.119 81.988
7262.958 0.12 81.895 0.99 -6.918 0.99 -6.918 0.12 81.895
7287.917 0.122 81.802 0.99 -7.03 0.99 -7.03 0.122 81.802
7312.875 0.124 81.708 0.99 -7.143 0.99 -7.143 0.124 81.708
7337.833 0.126 81.614 0.99 -7.255 0.99 -7.255 0.126 81.614
7362.792 0.128 81.52 0.989 -7.366 0.989 -7.366 0.128 81.52
7387.75 0.13 81.425 0.989 -7.477 0.989 -7.477 0.13 81.425
7412.708 0.132 81.33 0.989 -7.588 0.989 -7.588 0.132 81.33
7437.667 0.134 81.236 0.988 -7.699 0.988 -7.699 0.134 81.236
7462.625 0.136 81.141 0.988 -7.809 0.988 -7.809 0.136 81.141
7487.583 0.138 81.046 0.988 -7.919 0.988 -7.919 0.138 81.046
7512.542 0.14 80.95 0.988 -8.028 0.988 -8.028 0.14 80.95
7537.5 0.142 80.855 0.987 -8.138 0.987 -8.138 0.142 80.855
7562.458 0.143 80.76 0.987 -8.246 0.987 -8.246 0.143 80.76
7587.417 0.145 80.664 0.987 -8.355 0.987 -8.355 0.145 80.664
7612.375 0.147 80.569 0.987 -8.463 0.987 -8.463 0.147 80.569
7637.333 0.149 80.473 0.986 -8.571 0.986 -8.571 0.149 80.473
7662.292 0.151 80.378 0.986 -8.679 0.986 -8.679 0.151 80.378
7687.25 0.153 80.282 0.986 -8.786 0.986 -8.786 0.153 80.282
7712.208 0.155 80.187 0.985 -8.893 0.985 -8.893 0.155 80.187
7737.167 0.156 80.091 0.985 -8.999 0.985 -8.999 0.156 80.091
7762.125 0.158 79.996 0.985 -9.106 0.985 -9.106 0.158 79.996
7787.083 0.16 79.9 0.985 -9.212 0.985 -9.212 0.16 79.9
7812.042 0.162 79.805 0.984 -9.317 0.984 -9.317 0.162 79.805
7837 0.164 79.709 0.984 -9.423 0.984 -9.423 0.164 79.709
7861.958 0.166 79.614 0.984 -9.528 0.984 -9.528 0.166 79.614
7886.917 0.167 79.519 0.983 -9.632 0.983 -9.632 0.167 79.519
7911.875 0.169 79.424 0.983 -9.737 0.983 -9.737 0.169 79.424
7936.833 0.171 79.329 0.983 -9.841 0.983 -9.841 0.171 79.329
7961.792 0.173 79.234 0.982 -9.945 0.982 -9.945 0.173 79.234
7986.75 0.174 79.139 0.982 -10.048 0.982 -10.048 0.174 79.139
8011.708 0.176 79.044 0.982 -10.152 0.982 -10.152 0.176 79.044
8036.667 0.178 78.949 0.982 -10.255 0.982 -10.255 0.178 78.949
8061.625 0.18 78.855 0.981 -10.357 0.981 -10.357 0.18 78.855
8086.583 0.182 78.76 0.981 -10.46 0.981 -10.46 0.182 78.76
8111.542 0.183 78.666 0.981 -10.562 0.981 -10.562 0.183 78.666
8136.5 0.185 78.571 0.98 -10.664 0.98 -10.664 0.185 78.571
8161.458 0.187 78.477 0.98 -10.765 0.98 -10.765 0.187 78.477
8186.417 0.189 78.383 0.98 -10.866 0.98 -10.866 0.189 78.383
8211.375 0.19 78.289 0.979 -10.967 0.979 -10.967 0.19 78.289
8236.333 0.192 78.195 0.979 -11.068 0.979 -11.068 0.192 78.195
8261.292 0.194 78.102 0.979 -11.169 0.979 -11.169 0.194 78.102
8286.25 0.195 78.008 0.978 -11.269 0.978 -11.269 0.195 78.008
8311.208 0.197 77.915 0.978 -11.369 0.978 -11.369 0.197 77.915
8336.167 0.199 77.822 0.978 -11.468 0.978 -11.468 0.199 77.822
8361.125 0.201 77.729 0.977 -11.568 0.977 -11.568 0.201 77.729
8386.083 0.202 77.636 0.977 -11.667 0.977 -11.667 0.202 77.636
8411.042 0.204 77.543 0.977 -11.765 0.977 -11.765 0.204 77.543
8436 0.206 77.45 0.976 -11.864 0.976 -11.864 0.206 77.45
8460.958 0.207 77.358 0.976 -11.962 0.976 -11.962 0.207 77.358
8485.917 0.209 77.265 0.975 -12.06 0.975 -12.06 0.209 77.265
8510.875 0.211 77.173 0.975 -12.158 0.975 -12.158 0.211 77.173
8535.833 0.212 77.081 0.975 -12.256 0.975 -12.256 0.212 77.081
8560.792 0.214 76.989 0.974 -12.353 0.974 -12.353 0.214 76.989
8585.75 0.216 76.898 0.974 -12.45 0.974 -12.45 0.216 76.898
8610.708 0.217 76.806 0.974 -12.547 0.974 -12.547 0.217 76.806
8635.667 0.219 76.715 0.973 -12.643 0.973 -12.643 0.219 76.715
8660.625 0.221 76.623 0.973 -12.739 0.973 -12.739 0.221 76.623
8685.583 0.222 76.532 0.973 -12.835 0.973 -12.835 0.222 76.532
8710.542 0.224 76.441 0.972 -12.931 0.972 -12.931 0.224 76.441
8735.5 0.225 76.351 0.972 -13.027 0.972 -13.027 0.225 76.351
8760.458 0.227 76.26 0.971 -13.122 0.971 -13.122 0.227 76.26
8785.417 0.229 76.17 0.971 -13.217 0.971 -13.217 0.229 76.17
8810.375 0.23 76.079 0.971 -13.312 0.971 -13.312 0.23 76.079
8835.333 0.232 75.989 0.97 -13.406 0.97 -13.406 0.232 75.989
8860.292 0.233 75.899 0.97 -13.501 0.97 -13.501 0.233 75.899
8885.25 0.235 75.809 0.97 -13.595 0.97 -13.595 0.235 75.809
8910.208 0.237 75.72 0.969 -13.689 0.969 -13.689 0.237 75.72
8935.167 0.238 75.63 0.969 -13.782 0.969 -13.782 0.238 75.63
8960.125 0.24 75.541 0.968 -13.876 0.968 -13.876 0.24 75.541
8985.083 0.241 75.452 0.968 -13.969 0.968 -13.969 0.241 75.452
9010.042 0.243 75.363 0.968 -14.062 0.968 -14.062 0.243 75.363
9035 0.245 75.274 0.967 -14.154 0.967 -14.154 0.245 75.274
9059.958 0.246 75.186 0.967 -14.247 0.967 -14.247 0.246 75.186
9084.917 0.248 75.097 0.966 -14.339 0.966 -14.339 0.248 75.097
9109.875 0.249 75.009 0.966 -14.431 0.966 -14.431 0.249 75.009
9134.833 0.251 74.921 0.966 -14.523 0.966 -14.523 0.251 74.921
9159.792 0.252 74.833 0.965 -14.614 0.965 -14.614 0.252 74.833
9184.75 0.254 74.745 0.965 -14.706 0.965 -14.706 0.254 74.745
9209.708 0.255 74.658 0.964 -14.797 0.964 -14.797 0.255 74.658
9234.667 0.257 74.57 0.964 -14.888 0.964 -14.888 0.257 74.57
9259.625 0.258 74.483 0.964 -14.979 0.964 -14.979 0.258 74.483
9284.583 0.26 74.396 0.963 -15.069 0.963 -15.069 0.26 74.396
9309.542 0.262 74.309 0.963 -15.159 0.963 -15.159 0.262 74.309
9334.5 0.263 74.222 0.962 -15.249 0.962 -15.249 0.263 74.222
9359.458 0.265 74.136 0.962 -15.339 0.962 -15.339 0.265 74.136
9384.417 0.266 74.049 0.962 -15.429 0.962 -15.429 0.266 74.049
9409.375 0.268 73.963 0.961 -15.518 0.961 -15.518 0.268 73.963
9434.333 0.269 73.877 0.961 -15.607 0.961 -15.607 0.269 73.877
9459.292 0.271 73.791 0.96 -15.696 0.96 -15.696 0.271 73.791
9484.25 0.272 73.705 0.96 -15.785 0.96 -15.785 0.272 73.705
9509.208 0.274 73.62 0.959 -15.874 0.959 -15.874 0.274 73.62
9534.167 0.275 73.534 0.959 -15.962 0.959 -15.962 0.275 73.534
9559.125 0.276 73.449 0.959 -16.05 0.959 -16.05 0.276 73.449
9584.083 0.278 73.364 0.958 -16.138 0.958 -16.138 0.278 73.364
9609.042 0.279 73.279 0.958 -16.226 0.958 -16.226 0.279 73.279
9634 0.281 73.194 0.957 -16.313 0.957 -16.313 0.281 73.194
9658.958 0.282 73.11 0.957 -16.401 0.957 -16.401 0.282 73.11
9683.917 0.284 73.025 0.956 -16.488 0.956 -16.488 0.284 73.025
9708.875 0.285 72.941 0.956 -16.575 0.956 -16.575 0.285 72.941
9733.833 0.287 72.857 0.956 -16.662 0.956 -16.662 0.287 72.857
9758.792 0.288 72.773 0.955 -16.748 0.955 -16.748 0.288 72.773
9783.75 0.29 72.689 0.955 -16.835 0.955 -16.835 0.29 72.689
9808.708 0.291 72.606 0.954 -16.921 0.954 -16.921 0.291 72.606
9833.667 0.292 72.522 0.954 -17.007 0.954 -17.007 0.292 72.522
9858.625 0.294 72.439 0.953 -17.092 0.953 -17.092 0.294 72.439
9883.583 0.295 72.356 0.953 -17.178 0.953 -17.178 0.295 72.356
9908.542 0.297 72.273 0.953 -17.263 0.953 -17.263 0.297 72.273
9933.5 0.298 72.19 0.952 -17.349 0.952 -17.349 0.298 72.19
9958.458 0.3 72.108 0.952 -17.434 0.952 -17.434 0.3 72.108
9983.417 0.301 72.025 0.951 -17.518 0.951 -17.518 0.301 72.025
10008.375 0.302 71.943 0.951 -17.603 0.951 -17.603 0.302 71.943
10033.333 0.304 71.861 0.95 -17.687 0.95 -17.687 0.304 71.861
10058.292 0.305 71.779 0.95 -17.772 0.95 -17.772 0.305 71.779
10083.25 0.307 71.697 0.949 -17.856 0.949 -17.856 0.307 71.697
10108.208 0.308 71.615 0.949 -17.94 0.949 -17.94 0.308 71.615
10133.167 0.309 71.534 0.949 -18.023 0.949 -18.023 0.309 71.534
10158.125 0.311 71.453 0.948 -18.107 0.948 -18.107 0.311 71.453
10183.083 0.312 71.371 0.948 -18.19 0.948 -18.19 0.312 71.371
10208.042 0.314 71.29 0.947 -18.273 0.947 -18.273 0.314 71.29
10233 0.315 71.209 0.947 -18.356 0.947 -18.356 0.315 71.209
10257.958 0.316 71.129 0.946 -18.439 0.946 -18.439 0.316 71.129
10282.917 0.318 71.048 0.946 -18.522 0.946 -18.522 0.318 71.048
10307.875 0.319 70.968 0.945 -18.604 0.945 -18.604 0.319 70.968
10332.833 0.32 70.888 0.945 -18.686 0.945 -18.686 0.32 70.888
10357.792 0.322 70.807 0.944 -18.769 0.944 -18.769 0.322 70.807
10382.75 0.323 70.728 0.944 -18.85 0.944 -18.85 0.323 70.728
10407.708 0.324 70.648 0.944 -18.932 0.944 -18.932 0.324 70.648
10432.667 0.326 70.568 0.943 -19.014 0.943 -19.014 0.326 70.568
10457.625 0.327 70.489 0.943 -19.095 0.943 -19.095 0.327 70.489
10482.583 0.328 70.409 0.942 -19.176 0.942 -19.176 0.328 70.409
10507.542 0.33 70.33 0.942 -19.257 0.942 -19.257 0.33 70.33
10532.5 0.331 70.251 0.941 -19.338 0.941 -19.338 0.331 70.251
10557.458 0.332 70.172 0.941 -19.419 0.941 -19.419 0.332 70.172
10582.417 0.334 70.094 0.94 -19.5 0.94 -19.5 0.334 70.094
10607.375 0.335 70.015 0.94 -19.58 0.94 -19.58 0.335 70.015
10632.333 0.336 69.937 0.939 -19.66 0.939 -19.66 0.336 69.937
10657.292 0.338 69.858 0.939 -19.74 0.939 -19.74 0.338 69.858
10682.25 0.339 69.78 0.938 -19.82 0.938 -19.82 0.339 69.78
10707.208 0.34 69.702 0.938 -19.9 0.938 -19.9 0.34 69.702
10732.167 0.342 69.625 0.937 -19.979 0.937 -19.979 0.342 69.625
10757.125 0.343 69.547 0.937 -20.058 0.937 -20.058 0.343 69.547
10782.083 0.344 69.469 0.937 -20.138 0.937 -20.138 0.344 69.469
10807.042 0.346 69.392 0.936 -20.217 0.936 -20.217 0.346 69.392
10832 0.347 69.315 0.936 -20.296 0.936 -20.296 0.347 69.315
10856.958 0.348 69.238 0.935 -20.374 0.935 -20.374 0.348 69.238
10881.917 0.349 69.161 0.935 -20.453 0.935 -20.453 0.349 69.161
10906.875 0.351 69.084 0.934 -20.531 0.934 -20.531 0.351 69.084
10931.833 0.352 69.008 0.934 -20.609 0.934 -20.609 0.352 69.008
10956.792 0.353 68.931 0.933 -20.687 0.933 -20.687 0.353 68.931
10981.75 0.355 68.855 0.933 -20.765 0.933 -20.765 0.355 68.855
11006.708 0.356 68.779 0.932 -20.843 0.932 -20.843 0.356 68.779
11031.667 0.357 68.702 0.932 -20.921 0.932 -20.921 0.357 68.702
11056.625 0.358 68.627 0.931 -20.998 0.931 -20.998 0.358 68.627
11081.583 0.36 68.551 0.931 -21.075 0.931 -21.075 0.36 68.551
11106.542 0.361 68.475 0.93 -21.152 0.93 -21.152 0.361 68.475
11131.5 0.362 68.4 0.93 -21.229 0.93 -21.229 0.362 68.4
11156.458 0.363 68.324 0.929 -21.306 0.929 -21.306 0.363 68.324
11181.417 0.365 68.249 0.929 -21.383 0.929 -21.383 0.365 68.249
11206.375 0.366 68.174 0.928 -21.459 0.928 -21.459 0.366 68.174
11231.333 0.367 68.099 0.928 -21.536 0.928 -21.536 0.367 68.099
11256.292 0.368 68.025 0.927 -21.612 0.927 -21.612 0.368 68.025
11281.25 0.37 67.95 0.927 -21.688 0.927 -21.688 0.37 67.95
11306.208 0.371 67.875 0.926 -21.764 0.926 -21.764 0.371 67.875
11331.167 0.372 67.801 0.926 -21.839 0.926 -21.839 0.372 67.801
11356.125 0.373 67.727 0.925 -21.915 0.925 -21.915 0.373 67.727
11381.083 0.374 67.653 0.925 -21.99 0.925 -21.99 0.374 67.653
11406.042 0.376 67.579 0.924 -22.066 0.924 -22.066 0.376 67.579
11431 0.377 67.505 0.924 -22.141 0.924 -22.141 0.377 67.505
11455.958 0.378 67.431 0.923 -22.216 0.923 -22.216 0.378 67.431
11480.917 0.379 67.358 0.923 -22.291 0.923 -22.291 0.379 67.358
11505.875 0.381 67.284 0.922 -22.365 0.922 -22.365 0.381 67.284
11530.833 0.382 67.211 0.922 -22.44 0.922 -22.44 0.382 67.211
11555.792 0.383 67.138 0.921 -22.514 0.921 -22.514 0.383 67.138
11580.75 0.384 67.065 0.921 -22.589 0.921 -22.589 0.384 67.065
11605.708 0.385 66.992 0.92 -22.663 0.92 -22.663 0.385 66.992
11630.667 0.387 66.92 0.92 -22.737 0.92 -22.737 0.387 66.92
11655.625 0.388 66.847 0.919 -22.81 0.919 -22.81 0.388 66.847
11680.583 0.389 66.775 0.919 -22.884 0.919 -22.884 0.389 66.775
11705.542 0.39 66.702 0.918 -22.958 0.918 -22.958 0.39 66.702
11730.5 0.391 66.63 0.918 -23.031 0.918 -23.031 0.391 66.63
11755.458 0.392 66.558 0.917 -23.104 0.917 -23.104 0.392 66.558
11780.417 0.394 66.486 0.917 -23.177 0.917 -23.177 0.394 66.486
11805.375 0.395 66.414 0.916 -23.25 0.916 -23.25 0.395 66.414
11830.333 0.396 66.343 0.916 -23.323 0.916 -23.323 0.396 66.343
11855.292 0.397 66.271 0.915 -23.396 0.915 -23.396 0.397 66.271
11880.25 0.398 66.2 0.915 -23.468 0.915 -23.468 0.398 66.2
11905.208 0.399 66.129 0.914 -23.541 0.914 -23.541 0.399 66.129
11930.167 0.401 66.058 0.914 -23.613 0.914 -23.613 0.401 66.058
11955.125 0.402 65.987 0.913 -23.685 0.913 -23.685 0.402 65.987
11980.083 0.403 65.916 0.913 -23.757 0.913 -23.757 0.403 65.916
12005.042 0.404 65.845 0.912 -23.829 0.912 -23.829 0.404 65.845
12030 0.405 65.774 0.912 -23.901 0.912 -23.901 0.405 65.774
12054.958 0.406 65.704 0.911 -23.972 0.911 -23.972 0.406 65.704
12079.917 0.407 65.634 0.911 -24.044 0.911 -24.044 0.407 65.634
12104.875 0.409 65.563 0.91 -24.115 0.91 -24.115 0.409 65.563
12129.833 0.41 65.493 0.91 -24.186 0.91 -24.186 0.41 65.493
12154.792 0.411 65.423 0.909 -24.257 0.909 -24.257 0.411 65.423
12179.75 0.412 65.353 0.909 -24.328 0.909 -24.328 0.412 65.353
12204.708 0.413 65.284 0.908 -24.399 0.908 -24.399 0.413 65.284
12229.667 0.414 65.214 0.908 -24.469 0.908 -24.469 0.414 65.214
12254.625 0.415 65.145 0.907 -24.54 0.907 -24.54 0.415 65.145
12279.583 0.416 65.075 0.907 -24.61 0.907 -24.61 0.416 65.075
12304.542 0.418 65.006 0.906 -24.68 0.906 -24.68 0.418 65.006
12329.5 0.419 64.937 0.906 -24.75 0.906 -24.75 0.419 64.937
12354.458 0.42 64.868 0.905 -24.82 0.905 -24.82 0.42 64.868
12379.417 0.421 64.799 0.905 -24.89 0.905 -24.89 0.421 64.799
12404.375 0.422 64.731 0.904 -24.96 0.904 -24.96 0.422 64.731
12429.333 0.423 64.662 0.904 -25.03 0.904 -25.03 0.423 64.662
12454.292 0.424 64.593 0.903 -25.099 0.903 -25.099 0.424 64.593
12479.25 0.425 64.525 0.903 -25.168 0.903 -25.168 0.425 64.525
12504.208 0.426 64.457 0.902 -25.237 0.902 -25.237 0.426 64.457
12529.167 0.427 64.389 0.902 -25.307 0.902 -25.307 0.427 64.389
12554.125 0.429 64.321 0.901 -25.375 0.901 -25.375 0.429 64.321
12579.083 0.43 64.253 0.901 -25.444 0.901 -25.444 0.43 64.253
12604.042 0.431 64.185 0.9 -25.513 0.9 -25.513 0.431 64.185
12629 0.432 64.118 0.9 -25.581 0.9 -25.581 0.432 64.118
12653.958 0.433 64.05 0.899 -25.65 0.899 -25.65 0.433 64.05
12678.917 0.434 63.983 0.899 -25.718 0.899 -25.718 0.434 63.983
12703.875 0.435 63.915 0.898 -25.786 0.898 -25.786 0.435 63.915
12728.833 0.436 63.848 0.898 -25.854 0.898 -25.854 0.436 63.848
12753.792 0.437 63.781 0.897 -25.922 0.897 -25.922 0.437 63.781
12778.75 0.438 63.714 0.897 -25.99 0.897 -25.99 0.438 63.714
12803.708 0.439 63.648 0.896 -26.058 0.896 -26.058 0.439 63.648
12828.667 0.44 63.581 0.896 -26.125 0.896 -26.125 0.44 63.581
12853.625 0.441 63.514 0.895 -26.193 0.895 -26.193 0.441 63.514
12878.583 0.442 63.448 0.895 -26.26 0.895 -26.26 0.442 63.448
12903.542 0.444 63.382 0.894 -26.327 0.894 -26.327 0.444 63.382
12928.5 0.445 63.316 0.894 -26.394 0.894 -26.394 0.445 63.316
12953.458 0.446 63.249 0.893 -26.461 0.893 -26.461 0.446 63.249
12978.417 0.447 63.183 0.892 -26.528 0.892 -26.528 0.447 63.183
13003.375 0.448 63.118 0.892 -26.595 0.892 -26.595 0.448 63.118
13028.333 0.449 63.052 0.891 -26.661 0.891 -26.661 0.449 63.052
13053.292 0.45 62.986 0.891 -26.728 0.891 -26.728 0.45 62.986
13078.25 0.451 62.921 0.89 -26.794 0.89 -26.794 0.451 62.921
13103.208 0.452 62.855 0.89 -26.86 0.89 -26.86 0.452 62.855
13128.167 0.453 62.79 0.889 -26.926 0.889 -26.926 0.453 62.79
13153.125 0.454 62.725 0.889 -26.992 0.889 -26.992 0.454 62.725
13178.083 0.455 62.66 0.888 -27.058 0.888 -27.058 0.455 62.66
13203.042 0.456 62.595 0.888 -27.124 0.888 -27.124 0.456 62.595
13228 0.457 62.53 0.887 -27.189 0.887 -27.189 0.457 62.53
13252.958 0.458 62.465 0.887 -27.255 0.887 -27.255 0.458 62.465
13277.917 0.459 62.401 0.886 -27.32 0.886 -27.32 0.459 62.401
13302.875 0.46 62.336 0.886 -27.385 0.886 -27.385 0.46 62.336
13327.833 0.461 62.272 0.885 -27.451 0.885 -27.451 0.461 62.272
13352.792 0.462 62.208 0.885 -27.516 0.885 -27.516 0.462 62.208
13377.75 0.463 62.144 0.884 -27.581 0.884 -27.581 0.463 62.144
13402.708 0.464 62.08 0.884 -27.645 0.884 -27.645 0.464 62.08
13427.667 0.465 62.016 0.883 -27.71 0.883 -27.71 0.465 62.016
13452.625 0.466 61.952 0.883 -27.775 0.883 -27.775 0.466 61.952
13477.583 0.467 61.888 0.882 -27.839 0.882 -27.839 0.467 61.888
13502.542 0.468 61.825 0.882 -27.903 0.882 -27.903 0.468 61.825
13527.5 0.469 61.761 0.881 -27.968 0.881 -27.968 0.469 61.761
13552.458 0.47 61.698 0.88 -28.032 0.88 -28.032 0.47 61.698
13577.417 0.471 61.634 0.88 -28.096 0.88 -28.096 0.471 61.634
13602.375 0.472 61.571 0.879 -28.16 0.879 -28.16 0.472 61.571
13627.333 0.473 61.508 0.879 -28.223 0.879 -28.223 0.473 61.508
13652.292 0.474 61.445 0.878 -28.287 0.878 -28.287 0.474 61.445
13677.25 0.475 61.383 0.878 -28.35 0.878 -28.35 0.475 61.383
13702.208 0.476 61.32 0.877 -28.414 0.877 -28.414 0.476 61.32
13727.167 0.477 61.257 0.877 -28.477 0.877 -28.477 0.477 61.257
13752.125 0.478 61.195 0.876 -28.54 0.876 -28.54 0.478 61.195
13777.083 0.479 61.132 0.876 -28.604 0.876 -28.604 0.479 61.132
13802.042 0.48 61.07 0.875 -28.667 0.875 -28.667 0.48 61.07
13827 0.481 61.008 0.875 -28.729 0.875 -28.729 0.481 61.008
13851.958 0.482 60.946 0.874 -28.792 0.874 -28.792 0.482 60.946
13876.917 0.483 60.884 0.874 -28.855 0.874 -28.855 0.483 60.884
13901.875 0.484 60.822 0.873 -28.917 0.873 -28.917 0.484 60.822
13926.833 0.485 60.76 0.873 -28.98 0.873 -28.98 0.485 60.76
13951.792 0.485 60.698 0.872 -29.042 0.872 -29.042 0.485 60.698
13976.75 0.486 60.637 0.872 -29.104 0.872 -29.104 0.486 60.637
14001.708 0.487 60.575 0.871 -29.166 0.871 -29.166 0.487 60.575
14026.667 0.488 60.514 0.87 -29.228 0.87 -29.228 0.488 60.514
14051.625 0.489 60.453 0.87 -29.29 0.87 -29.29 0.489 60.453
14076.583 0.49 60.392 0.869 -29.352 0.869 -29.352 0.49 60.392
14101.542 0.491 60.331 0.869 -29.414 0.869 -29.414 0.491 60.331
14126.5 0.492 60.27 0.868 -29.475 0.868 -29.475 0.492 60.27
14151.458 0.493 60.209 0.868 -29.537 0.868 -29.537 0.493 60.209
14176.417 0.494 60.148 0.867 -29.598 0.867 -29.598 0.494 60.148
14201.375 0.495 60.088 0.867 -29.659 0.867 -29.659 0.495 60.088
14226.333 0.496 60.027 0.866 -29.721 0.866 -29.721 0.496 60.027
14251.292 0.497 59.967 0.866 -29.782 0.866 -29.782 0.497 59.967
14276.25 0.498 59.906 0.865 -29.842 0.865 -29.842 0.498 59.906
14301.208 0.499 59.846 0.865 -29.903 0.865 -29.903 0.499 59.846
14326.167 0.499 59.786 0.864 -29.964 0.864 -29.964 0.499 59.786
14351.125 0.5 59.726 0.864 -30.025 0.864 -30.025 0.5 59.726
14376.083 0.501 59.666 0.863 -30.085 0.863 -30.085 0.501 59.666
14401.042 0.502 59.606 0.863 -30.146 0.863 -30.146 0.502 59.606
14426 0.503 59.547 0.862 -30.206 0.862 -30.206 0.503 59.547
14450.958 0.504 59.487 0.862 -30.266 0.862 -30.266 0.504 59.487
14475.917 0.505 59.428 0.861 -30.326 0.861 -30.326 0.505 59.428
14500.875 0.506 59.368 0.86 -30.386 0.86 -30.386 0.506 59.368
14525.833 0.507 59.309 0.86 -30.446 0.86 -30.446 0.507 59.309
14550.792 0.508 59.25 0.859 -30.506 0.859 -30.506 0.508 59.25
14575.75 0.509 59.191 0.859 -30.566 0.859 -30.566 0.509 59.191
14600.708 0.509 59.132 0.858 -30.625 0.858 -30.625 0.509 59.132
14625.667 0.51 59.073 0.858 -30.685 0.858 -30.685 0.51 59.073
14650.625 0.511 59.014 0.857 -30.744 0.857 -30.744 0.511 59.014
14675.583 0.512 58.955 0.857 -30.803 0.857 -30.803 0.512 58.955
14700.542 0.513 58.896 0.856 -30.862 0.856 -30.862 0.513 58.896
14725.5 0.514 58.838 0.856 -30.922 0.856 -30.922 0.514 58.838
14750.458 0.515 58.78 0.855 -30.981 0.855 -30.981 0.515 58.78
14775.417 0.516 58.721 0.855 -31.039 0.855 -31.039 0.516 58.721
14800.375 0.517 58.663 0.854 -31.098 0.854 -31.098 0.517 58.663
14825.333 0.517 58.605 0.854 -31.157 0.854 -31.157 0.517 58.605
14850.292 0.518 58.547 0.853 -31.215 0.853 -31.215 0.518 58.547
14875.25 0.519 58.489 0.853 -31.274 0.853 -31.274 0.519 58.489
14900.208 0.52 58.431 0.852 -31.332 0.852 -31.332 0.52 58.431
14925.167 0.521 58.373 0.851 -31.391 0.851 -31.391 0.521 58.373
14950.125 0.522 58.316 0.851 -31.449 0.851 -31.449 0.522 58.316
14975.083 0.523 58.258 0.85 -31.507 0.85 -31.507 0.523 58.258
15000.042 0.523 58.201 0.85 -31.565 0.85 -31.565 0.523 58.201
15025 0.524 58.143 0.849 -31.623 0.849 -31.623 0.524 58.143
15049.958 0.525 58.086 0.849 -31.681 0.849 -31.681 0.525 58.086
15074.917 0.526 58.029 0.848 -31.738 0.848 -31.738 0.526 58.029
15099.875 0.527 57.972 0.848 -31.796 0.848 -31.796 0.527 57.972
15124.833 0.528 57.915 0.847 -31.853 0.847 -31.853 0.528 57.915
15149.792 0.529 57.858 0.847 -31.911 0.847 -31.911 0.529 57.858
15174.75 0.529 57.801 0.846 -31.968 0.846 -31.968 0.529 57.801
15199.708 0.53 57.744 0.846 -32.025 0.846 -32.025 0.53 57.744
15224.667 0.531 57.688 0.845 -32.082 0.845 -32.082 0.531 57.688
15249.625 0.532 57.631 0.845 -32.139 0.845 -32.139 0.532 57.631
15274.583 0.533 57.575 0.844 -32.196 0.844 -32.196 0.533 57.575
15299.542 0.534 57.519 0.844 -32.253 0.844 -32.253 0.534 57.519
15324.5 0.535 57.462 0.843 -32.31 0.843 -32.31 0.535 57.462
15349.458 0.535 57.406 0.843 -32.367 0.843 -32.367 0.535 57.406
15374.417 0.536 57.35 0.842 -32.423 0.842 -32.423 0.536 57.35
15399.375 0.537 57.294 0.841 -32.48 0.841 -32.48 0.537 57.294
15424.333 0.538 57.238 0.841 -32.536 0.841 -32.536 0.538 57.238
15449.292 0.539 57.182 0.84 -32.592 0.84 -32.592 0.539 57.182
15474.25 0.539 57.127 0.84 -32.648 0.84 -32.648 0.539 57.127
15499.208 0.54 57.071 0.839 -32.704 0.839 -32.704 0.54 57.071
15524.167 0.541 57.016 0.839 -32.76 0.839 -32.76 0.541 57.016
15549.125 0.542 56.96 0.838 -32.816 0.838 -32.816 0.542 56.96
15574.083 0.543 56.905 0.838 -32.872 0.838 -32.872 0.543 56.905
15599.042 0.544 56.85 0.837 -32.928 0.837 -32.928 0.544 56.85
15624 0.544 56.795 0.837 -32.983 0.837 -32.983 0.544 56.795
15648.958 0.545 56.739 0.836 -33.039 0.836 -33.039 0.545 56.739
15673.917 0.546 56.685 0.836 -33.094 0.836 -33.094 0.546 56.685
15698.875 0.547 56.63 0.835 -33.15 0.835 -33.15 0.547 56.63
15723.833 0.548 56.575 0.835 -33.205 0.835 -33.205 0.548 56.575
15748.792 0.548 56.52 0.834 -33.26 0.834 -33.26 0.548 56.52
15773.75 0.549 56.466 0.834 -33.315 0.834 -33.315 0.549 56.466
15798.708 0.55 56.411 0.833 -33.37 0.833 -33.37 0.55 56.411
15823.667 0.551 56.357 0.833 -33.425 0.833 -33.425 0.551 56.357
15848.625 0.552 56.302 0.832 -33.48 0.832 -33.48 0.552 56.302
15873.583 0.552 56.248 0.831 -33.535 0.831 -33.535 0.552 56.248
15898.542 0.553 56.194 0.831 -33.589 0.831 -33.589 0.553 56.194
15923.5 0.554 56.14 0.83 -33.644 0.83 -33.644 0.554 56.14
15948.458 0.555 56.086 0.83 -33.698 0.83 -33.698 0.555 56.086
15973.417 0.556 56.032 0.829 -33.753 0.829 -33.753 0.556 56.032
15998.375 0.556 55.978 0.829 -33.807 0.829 -33.807 0.556 55.978
16023.333 0.557 55.924 0.828 -33.861 0.828 -33.861 0.557 55.924
16048.292 0.558 55.871 0.828 -33.915 0.828 -33.915 0.558 55.871
16073.25 0.559 55.817 0.827 -33.969 0.827 -33.969 0.559 55.817
16098.208 0.56 55.764 0.827 -34.023 0.827 -34.023 0.56 55.764
16123.167 0.56 55.71 0.826 -34.077 0.826 -34.077 0.56 55.71
16148.125 0.561 55.657 0.826 -34.131 0.826 -34.131 0.561 55.657
16173.083 0.562 55.604 0.825 -34.184 0.825 -34.184 0.562 55.604
16198.042 0.563 55.551 0.825 -34.238 0.825 -34.238 0.563 55.551
16223 0.563 55.498 0.824 -34.291 0.824 -34.291 0.563 55.498
16247.958 0.564 55.445 0.824 -34.345 0.824 -34.345 0.564 55.445
16272.917 0.565 55.392 0.823 -34.398 0.823 -34.398 0.565 55.392
16297.875 0.566 55.339 0.823 -34.451 0.823 -34.451 0.566 55.339
16322.833 0.566 55.286 0.822 -34.504 0.822 -34.504 0.566 55.286
16347.792 0.567 55.234 0.821 -34.557 0.821 -34.557 0.567 55.234
16372.75 0.568 55.181 0.821 -34.61 0.821 -34.61 0.568 55.181
16397.708 0.569 55.129 0.82 -34.663 0.82 -34.663 0.569 55.129
16422.667 0.57 55.076 0.82 -34.716 0.82 -34.716 0.57 55.076
16447.625 0.57 55.024 0.819 -34.769 0.819 -34.769 0.57 55.024
16472.583 0.571 54.972 0.819 -34.821 0.819 -34.821 0.571 54.972
16497.542 0.572 54.92 0.818 -34.874 0.818 -34.874 0.572 54.92
16522.5 0.573 54.868 0.818 -34.926 0.818 -34.926 0.573 54.868
16547.458 0.573 54.816 0.817 -34.978 0.817 -34.978 0.573 54.816
16572.417 0.574 54.764 0.817 -35.031 0.817 -35.031 0.574 54.764
16597.375 0.575 54.712 0.816 -35.083 0.816 -35.083 0.575 54.712
16622.333 0.576 54.66 0.816 -35.135 0.816 -35.135 0.576 54.66
16647.292 0.576 54.609 0.815 -35.187 0.815 -35.187 0.576 54.609
16672.25 0.577 54.557 0.815 -35.239 0.815 -35.239 0.577 54.557
16697.208 0.578 54.506 0.814 -35.291 0.814 -35.291 0.578 54.506
16722.167 0.578 54.454 0.814 -35.343 0.814 -35.343 0.578 54.454
16747.125 0.579 54.403 0.813 -35.394 0.813 -35.394 0.579 54.403
16772.083 0.58 54.352 0.813 -35.446 0.813 -35.446 0.58 54.352
16797.042 0.581 54.301 0.812 -35.497 0.812 -35.497 0.581 54.301
16822 0.581 54.25 0.812 -35.549 0.812 -35.549 0.581 54.25
16846.958 0.582 54.199 0.811 -35.6 0.811 -35.6 0.582 54.199
16871.917 0.583 54.148 0.811 -35.651 0.811 -35.651 0.583 54.148
16896.875 0.584 54.097 0.81 -35.703 0.81 -35.703 0.584 54.097
16921.833 0.584 54.046 0.809 -35.754 0.809 -35.754 0.584 54.046
16946.792 0.585 53.996 0.809 -35.805 0.809 -35.805 0.585 53.996
16971.75 0.586 53.945 0.808 -35.856 0.808 -35.856 0.586 53.945
16996.708 0.586 53.894 0.808 -35.907 0.808 -35.907 0.586 53.894
17021.667 0.587 53.844 0.807 -35.957 0.807 -35.957 0.587 53.844
17046.625 0.588 53.794 0.807 -36.008 0.807 -36.008 0.588 53.794
17071.583 0.589 53.743 0.806 -36.059 0.806 -36.059 0.589 53.743
17096.542 0.589 53.693 0.806 -36.109 0.806 -36.109 0.589 53.693
17121.5 0.59 53.643 0.805 -36.16 0.805 -36.16 0.59 53.643
17146.458 0.591 53.593 0.805 -36.21 0.805 -36.21 0.591 53.593
17171.417 0.591 53.543 0.804 -36.26 0.804 -36.26 0.591 53.543
17196.375 0.592 53.493 0.804 -36.311 0.804 -36.311 0.592 53.493
17221.333 0.593 53.444 0.803 -36.361 0.803 -36.361 0.593 53.444
17246.292 0.594 53.394 0.803 -36.411 0.803 -36.411 0.594 53.394
17271.25 0.594 53.344 0.802 -36.461 0.802 -36.461 0.594 53.344
17296.208 0.595 53.295 0.802 -36.511 0.802 -36.511 0.595 53.295
17321.167 0.596 53.245 0.801 -36.56 0.801 -36.56 0.596 53.245
17346.125 0.596 53.196 0.801 -36.61 0.801 -36.61 0.596 53.196
17371.083 0.597 53.147 0.8 -36.66 0.8 -36.66 0.597 53.147
17396.042 0.598 53.097 0.8 -36.709 0.8 -36.709 0.598 53.097
17421 0.598 53.048 0.799 -36.759 0.799 -36.759 0.598 53.048
17445.958 0.599 52.999 0.799 -36.808 0.799 -36.808 0.599 52.999
17470.917 0.6 52.95 0.798 -36.858 0.798 -36.858 0.6 52.95
17495.875 0.601 52.901 0.798 -36.907 0.798 -36.907 0.601 52.901
17520.833 0.601 52.852 0.797 -36.956 0.797 -36.956 0.601 52.852
17545.792 0.602 52.804 0.797 -37.005 0.797 -37.005 0.602 52.804
17570.75 0.603 52.755 0.796 -37.054 0.796 -37.054 0.603 52.755
17595.708 0.603 52.706 0.796 -37.103 0.796 -37.103 0.603 52.706
17620.667 0.604 52.658 0.795 -37.152 0.795 -37.152 0.604 52.658
17645.625 0.605 52.609 0.795 -37.201 0.795 -37.201 0.605 52.609
17670.583 0.605 52.561 0.794 -37.25 0.794 -37.25 0.605 52.561
17695.542 0.606 52.513 0.793 -37.298 0.793 -37.298 0.606 52.513
17720.5 0.607 52.464 0.793 -37.347 0.793 -37.347 0.607 52.464
17745.458 0.607 52.416 0.792 -37.395 0.792 -37.395 0.607 52.416
17770.417 0.608 52.368 0.792 -37.444 0.792 -37.444 0.608 52.368
17795.375 0.609 52.32 0.791 -37.492 0.791 -37.492 0.609 52.32
17820.333 0.609 52.272 0.791 -37.54 0.791 -37.54 0.609 52.272
17845.292 0.61 52.224 0.79 -37.589 0.79 -37.589 0.61 52.224
17870.25 0.611 52.176 0.79 -37.637 0.79 -37.637 0.611 52.176
17895.208 0.611 52.129 0.789 -37.685 0.789 -37.685 0.611 52.129
17920.167 0.612 52.081 0.789 -37.733 0.789 -37.733 0.612 52.081
17945.125 0.613 52.034 0.788 -37.781 0.788 -37.781 0.613 52.034
17970.083 0.613 51.986 0.788 -37.828 0.788 -37.828 0.613 51.986
17995.042 0.614 51.939 0.787 -37.876 0.787 -37.876 0.614 51.939
18020 0.615 51.891 0.787 -37.924 0.787 -37.924 0.615 51.891
18044.958 0.615 51.844 0.786 -37.971 0.786 -37.971 0.615 51.844
18069.917 0.616 51.797 0.786 -38.019 0.786 -38.019 0.616 51.797
18094.875 0.617 51.75 0.785 -38.066 0.785 -38.066 0.617 51.75
18119.833 0.617 51.703 0.785 -38.114 0.785 -38.114 0.617 51.703
18144.792 0.618 51.656 0.784 -38.161 0.784 -38.161 0.618 51.656
18169.75 0.619 51.609 0.784 -38.208 0.784 -38.208 0.619 51.609
18194.708 0.619 51.562 0.783 -38.255 0.783 -38.255 0.619 51.562
18219.667 0.62 51.515 0.783 -38.303 0.783 -38.303 0.62 51.515
18244.625 0.62 51.468 0.782 -38.35 0.782 -38.35 0.62 51.468
18269.583 0.621 51.422 0.782 -38.396 0.782 -38.396 0.621 51.422
18294.542 0.622 51.375 0.781 -38.443 0.781 -38.443 0.622 51.375
18319.5 0.622 51.329 0.781 -38.49 0.781 -38.49 0.622 51.329
18344.458 0.623 51.282 0.78 -38.537 0.78 -38.537 0.623 51.282
18369.417 0.624 51.236 0.78 -38.583 0.78 -38.583 0.624 51.236
18394.375 0.624 51.19 0.779 -38.63 0.779 -38.63 0.624 51.19
18419.333 0.625 51.143 0.779 -38.677 0.779 -38.677 0.625 51.143
18444.292 0.626 51.097 0.778 -38.723 0.778 -38.723 0.626 51.097
18469.25 0.626 51.051 0.778 -38.769 0.778 -38.769 0.626 51.051
18494.208 0.627 51.005 0.777 -38.816 0.777 -38.816 0.627 51.005
18519.167 0.627 50.959 0.777 -38.862 0.777 -38.862 0.627 50.959
18544.125 0.628 50.914 0.776 -38.908 0.776 -38.908 0.628 50.914
18569.083 0.629 50.868 0.776 -38.954 0.776 -38.954 0.629 50.868
18594.042 0.629 50.822 0.775 -39 0.775 -39 0.629 50.822
18619 0.63 50.776 0.775 -39.046 0.775 -39.046 0.63 50.776
18643.958 0.631 50.731 0.774 -39.092 0.774 -39.092 0.631 50.731
18668.917 0.631 50.685 0.774 -39.138 0.774 -39.138 0.631 50.685
18693.875 0.632 50.64 0.773 -39.183 0.773 -39.183 0.632 50.64
18718.833 0.632 50.595 0.773 -39.229 0.773 -39.229 0.632 50.595
18743.792 0.633 50.549 0.772 -39.275 0.772 -39.275 0.633 50.549
18768.75 0.634 50.504 0.772 -39.32 0.772 -39.32 0.634 50.504
18793.708 0.634 50.459 0.771 -39.365 0.771 -39.365 0.634 50.459
18818.667 0.635 50.414 0.771 -39.411 0.771 -39.411 0.635 50.414
18843.625 0.635 50.369 0.77 -39.456 0.77 -39.456 0.635 50.369
18868.583 0.636 50.324 0.77 -39.501 0.77 -39.501 0.636 50.324
18893.542 0.637 50.279 0.769 -39.547 0.769 -39.547 0.637 50.279
18918.5 0.637 50.234 0.769 -39.592 0.769 -39.592 0.637 50.234
18943.458 0.638 50.189 0.768 -39.637 0.768 -39.637 0.638 50.189
18968.417 0.639 50.145 0.768 -39.682 0.768 -39.682 0.639 50.145
18993.375 0.639 50.1 0.767 -39.726 0.767 -39.726 0.639 50.1
19018.333 0.64 50.056 0.767 -39.771 0.767 -39.771 0.64 50.056
19043.292 0.64 50.011 0.766 -39.816 0.766 -39.816 0.64 50.011
19068.25 0.641 49.967 0.766 -39.861 0.766 -39.861 0.641 49.967
19093.208 0.642 49.922 0.765 -39.905 0.765 -39.905 0.642 49.922
19118.167 0.642 49.878 0.765 -39.95 0.765 -39.95 0.642 49.878
19143.125 0.643 49.834 0.764 -39.994 0.764 -39.994 0.643 49.834
19168.083 0.643 49.79 0.764 -40.039 0.764 -40.039 0.643 49.79
19193.042 0.644 49.746 0.763 -40.083 0.763 -40.083 0.644 49.746
19218 0.644 49.702 0.763 -40.127 0.763 -40.127 0.644 49.702
19242.958 0.645 49.658 0.762 -40.171 0.762 -40.171 0.645 49.658
19267.917 0.646 49.614 0.762 -40.216 0.762 -40.216 0.646 49.614
19292.875 0.646 49.57 0.761 -40.26 0.761 -40.26 0.646 49.57
19317.833 0.647 49.526 0.761 -40.304 0.761 -40.304 0.647 49.526
19342.792 0.647 49.483 0.76 -40.348 0.76 -40.348 0.647 49.483
19367.75 0.648 49.439 0.76 -40.391 0.76 -40.391 0.648 49.439
19392.708 0.649 49.396 0.759 -40.435 0.759 -40.435 0.649 49.396
19417.667 0.649 49.352 0.759 -40.479 0.759 -40.479 0.649 49.352
19442.625 0.65 49.309 0.758 -40.523 0.758 -40.523 0.65 49.309
19467.583 0.65 49.265 0.758 -40.566 0.758 -40.566 0.65 49.265
19492.542 0.651 49.222 0.757 -40.61 0.757 -40.61 0.651 49.222
19517.5 0.651 49.179 0.757 -40.653 0.757 -40.653 0.651 49.179
19542.458 0.652 49.136 0.756 -40.697 0.756 -40.697 0.652 49.136
19567.417 0.653 49.093 0.756 -40.74 0.756 -40.74 0.653 49.093
19592.375 0.653 49.05 0.755 -40.783 0.755 -40.783 0.653 49.05
19617.333 0.654 49.007 0.755 -40.826 0.755 -40.826 0.654 49.007
19642.292 0.654 48.964 0.754 -40.87 0.754 -40.87 0.654 48.964
19667.25 0.655 48.921 0.754 -40.913 0.754 -40.913 0.655 48.921
19692.208 0.655 48.878 0.753 -40.956 0.753 -40.956 0.655 48.878
19717.167 0.656 48.836 0.753 -40.999 0.753 -40.999 0.656 48.836
19742.125 0.657 48.793 0.752 -41.042 0.752 -41.042 0.657 48.793
19767.083 0.657 48.75 0.752 -41.084 0.752 -41.084 0.657 48.75
19792.042 0.658 48.708 0.751 -41.127 0.751 -41.127 0.658 48.708
19817 0.658 48.665 0.751 -41.17 0.751 -41.17 0.658 48.665
19841.958 0.659 48.623 0.75 -41.212 0.75 -41.212 0.659 48.623
19866.917 0.659 48.581 0.75 -41.255 0.75 -41.255 0.659 48.581
19891.875 0.66 48.539 0.749 -41.297 0.749 -41.297 0.66 48.539
19916.833 0.661 48.496 0.749 -41.34 0.749 -41.34 0.661 48.496
19941.792 0.661 48.454 0.748 -41.382 0.748 -41.382 0.661 48.454
19966.75 0.662 48.412 0.748 -41.425 0.748 -41.425 0.662 48.412
19991.708 0.662 48.37 0.747 -41.467 0.747 -41.467 0.662 48.37
20016.667 0.663 48.328 0.747 -41.509 0.747 -41.509 0.663 48.328
20041.625 0.663 48.286 0.746 -41.551 0.746 -41.551 0.663 48.286
20066.583 0.664 48.245 0.746 -41.593 0.746 -41.593 0.664 48.245
20091.542 0.664 48.203 0.746 -41.635 0.746 -41.635 0.664 48.203
20116.5 0.665 48.161 0.745 -41.677 0.745 -41.677 0.665 48.161
20141.458 0.665 48.119 0.745 -41.719 0.745 -41.719 0.665 48.119
20166.417 0.666 48.078 0.744 -41.761 0.744 -41.761 0.666 48.078
20191.375 0.667 48.036 0.744 -41.802 0.744 -41.802 0.667 48.036
20216.333 0.667 47.995 0.743 -41.844 0.743 -41.844 0.667 47.995
20241.292 0.668 47.954 0.743 -41.886 0.743 -41.886 0.668 47.954
20266.25 0.668 47.912 0.742 -41.927 0.742 -41.927 0.668 47.912
20291.208 0.669 47.871 0.742 -41.969 0.742 -41.969 0.669 47.871
20316.167 0.669 47.83 0.741 -42.01 0.741 -42.01 0.669 47.83
20341.125 0.67 47.789 0.741 -42.052 0.741 -42.052 0.67 47.789
20366.083 0.67 47.748 0.74 -42.093 0.74 -42.093 0.67 47.748
20391.042 0.671 47.707 0.74 -42.134 0.74 -42.134 0.671 47.707
20416 0.671 47.666 0.739 -42.175 0.739 -42.175 0.671 47.666
20440.958 0.672 47.625 0.739 -42.216 0.739 -42.216 0.672 47.625
20465.917 0.672 47.584 0.738 -42.257 0.738 -42.257 0.672 47.584
20490.875 0.673 47.543 0.738 -42.298 0.738 -42.298 0.673 47.543
20515.833 0.674 47.502 0.737 -42.339 0.737 -42.339 0.674 47.502
20540.792 0.674 47.462 0.737 -42.38 0.737 -42.38 0.674 47.462
20565.75 0.675 47.421 0.736 -42.421 0.736 -42.421 0.675 47.421
20590.708 0.675 47.381 0.736 -42.462 0.736 -42.462 0.675 47.381
20615.667 0.676 47.34 0.735 -42.503 0.735 -42.503 0.676 47.34
20640.625 0.676 47.3 0.735 -42.543 0.735 -42.543 0.676 47.3
20665.583 0.677 47.259 0.734 -42.584 0.734 -42.584 0.677 47.259
20690.542 0.677 47.219 0.734 -42.624 0.734 -42.624 0.677 47.219
20715.5 0.678 47.179 0.733 -42.665 0.733 -42.665 0.678 47.179
20740.458 0.678 47.139 0.733 -42.705 0.733 -42.705 0.678 47.139
20765.417 0.679 47.099 0.733 -42.745 0.733 -42.745 0.679 47.099
20790.375 0.679 47.059 0.732 -42.786 0.732 -42.786 0.679 47.059
20815.333 0.68 47.019 0.732 -42.826 0.732 -42.826 0.68 47.019
20840.292 0.68 46.979 0.731 -42.866 0.731 -42.866 0.68 46.979
20865.25 0.681 46.939 0.731 -42.906 0.731 -42.906 0.681 46.939
20890.208 0.681 46.899 0.73 -42.946 0.73 -42.946 0.681 46.899
20915.167 0.682 46.859 0.73 -42.986 0.73 -42.986 0.682 46.859
20940.125 0.682 46.82 0.729 -43.026 0.729 -43.026 0.682 46.82
20965.083 0.683 46.78 0.729 -43.066 0.729 -43.066 0.683 46.78
20990.042 0.683 46.74 0.728 -43.106 0.728 -43.106 0.683 46.74
21015 0.684 46.701 0.728 -43.146 0.728 -43.146 0.684 46.701
21039.958 0.684 46.661 0.727 -43.185 0.727 -43.185 0.684 46.661
21064.917 0.685 46.622 0.727 -43.225 0.727 -43.225 0.685 46.622
21089.875 0.685 46.583 0.726 -43.264 0.726 -43.264 0.685 46.583
21114.833 0.686 46.543 0.726 -43.304 0.726 -43.304 0.686 46.543
21139.792 0.686 46.504 0.725 -43.343 0.725 -43.343 0.686 46.504
21164.75 0.687 46.465 0.725 -43.383 0.725 -43.383 0.687 46.465
21189.708 0.687 46.426 0.724 -43.422 0.724 -43.422 0.687 46.426
21214.667 0.688 46.387 0.724 -43.461 0.724 -43.461 0.688 46.387
21239.625 0.688 46.348 0.724 -43.501 0.724 -43.501 0.688 46.348
21264.583 0.689 46.309 0.723 -43.54 0.723 -43.54 0.689 46.309
21289.542 0.689 46.27 0.723 -43.579 0.723 -43.579 0.689 46.27
21314.5 0.69 46.231 0.722 -43.618 0.722 -43.618 0.69 46.231
21339.458 0.69 46.192 0.722 -43.657 0.722 -43.657 0.69 46.192
21364.417 0.691 46.153 0.721 -43.696 0.721 -43.696 0.691 46.153
21389.375 0.691 46.115 0.721 -43.735 0.721 -43.735 0.691 46.115
21414.333 0.692 46.076 0.72 -43.774 0.72 -43.774 0.692 46.076
21439.292 0.692 46.038 0.72 -43.812 0.72 -43.812 0.692 46.038
21464.25 0.693 45.999 0.719 -43.851 0.719 -43.851 0.693 45.999
21489.208 0.693 45.961 0.719 -43.89 0.719 -43.89 0.693 45.961
21514.167 0.694 45.922 0.718 -43.928 0.718 -43.928 0.694 45.922
21539.125 0.694 45.884 0.718 -43.967 0.718 -43.967 0.694 45.884
21564.083 0.695 45.846 0.717 -44.005 0.717 -44.005 0.695 45.846
21589.042 0.695 45.807 0.717 -44.044 0.717 -44.044 0.695 45.807
21614 0.696 45.769 0.717 -44.082 0.717 -44.082 0.696 45.769
21638.958 0.696 45.731 0.716 -44.12 0.716 -44.12 0.696 45.731
21663.917 0.697 45.693 0.716 -44.159 0.716 -44.159 0.697 45.693
21688.875 0.697 45.655 0.715 -44.197 0.715 -44.197 0.697 45.655
21713.833 0.698 45.617 0.715 -44.235 0.715 -44.235 0.698 45.617
21738.792 0.698 45.579 0.714 -44.273 0.714 -44.273 0.698 45.579
21763.75 0.699 45.541 0.714 -44.311 0.714 -44.311 0.699 45.541
21788.708 0.699 45.504 0.713 -44.349 0.713 -44.349 0.699 45.504
21813.667 0.7 45.466 0.713 -44.387 0.713 -44.387 0.7 45.466
21838.625 0.7 45.428 0.712 -44.425 0.712 -44.425 0.7 45.428
21863.583 0.7 45.39 0.712 -44.463 0.712 -44.463 0.7 45.39
21888.542 0.701 45.353 0.711 -44.5 0.711 -44.5 0.701 45.353
21913.5 0.701 45.315 0.711 -44.538 0.711 -44.538 0.701 45.315
21938.458 0.702 45.278 0.711 -44.576 0.711 -44.576 0.702 45.278
21963.417 0.702 45.241 0.71 -44.613 0.71 -44.613 0.702 45.241
21988.375 0.703 45.203 0.71 -44.651 0.71 -44.651 0.703 45.203
22013.333 0.703 45.166 0.709 -44.688 0.709 -44.688 0.703 45.166
22038.292 0.704 45.129 0.709 -44.726 0.709 -44.726 0.704 45.129
22063.25 0.704 45.091 0.708 -44.763 0.708 -44.763 0.704 45.091
22088.208 0.705 45.054 0.708 -44.801 0.708 -44.801 0.705 45.054
22113.167 0.705 45.017 0.707 -44.838 0.707 -44.838 0.705 45.017
22138.125 0.706 44.98 0.707 -44.875 0.707 -44.875 0.706 44.98
22163.083 0.706 44.943 0.706 -44.912 0.706 -44.912 0.706 44.943
22188.042 0.706 44.906 0.706 -44.949 0.706 -44.949 0.706 44.906
22213 0.707 44.869 0.705 -44.986 0.705 -44.986 0.707 44.869
22237.958 0.707 44.833 0.705 -45.023 0.705 -45.023 0.707 44.833
22262.917 0.708 44.796 0.705 -45.06 0.705 -45.06 0.708 44.796
22287.875 0.708 44.759 0.704 -45.097 0.704 -45.097 0.708 44.759
22312.833 0.709 44.722 0.704 -45.134 0.704 -45.134 0.709 44.722
22337.792 0.709 44.686 0.703 -45.171 0.703 -45.171 0.709 44.686
22362.75 0.71 44.649 0.703 -45.208 0.703 -45.208 0.71 44.649
22387.708 0.71 44.613 0.702 -45.244 0.702 -45.244 0.71 44.613
22412.667 0.711 44.576 0.702 -45.281 0.702 -45.281 0.711 44.576
22437.625 0.711 44.54 0.701 -45.318 0.701 -45.318 0.711 44.54
22462.583 0.711 44.504 0.701 -45.354 0.701 -45.354 0.711 44.504
22487.542 0.712 44.467 0.701 -45.391 0.701 -45.391 0.712 44.467
22512.5 0.712 44.431 0.7 -45.427 0.7 -45.427 0.712 44.431
22537.458 0.713 44.395 0.7 -45.463 0.7 -45.463 0.713 44.395
22562.417 0.713 44.359 0.699 -45.5 0.699 -45.5 0.713 44.359
22587.375 0.714 44.323 0.699 -45.536 0.699 -45.536 0.714 44.323
22612.333 0.714 44.287 0.698 -45.572 0.698 -45.572 0.714 44.287
22637.292 0.715 44.251 0.698 -45.608 0.698 -45.608 0.715 44.251
22662.25 0.715 44.215 0.697 -45.645 0.697 -45.645 0.715 44.215
22687.208 0.715 44.179 0.697 -45.681 0.697 -45.681 0.715 44.179
22712.167 0.716 44.143 0.696 -45.717 0.696 -45.717 0.716 44.143
22737.125 0.716 44.107 0.696 -45.753 0.696 -45.753 0.716 44.107
22762.083 0.717 44.071 0.696 -45.788 0.696 -45.788 0.717 44.071
22787.042 0.717 44.036 0.695 -45.824 0.695 -45.824 0.717 44.036
22812 0.718 44 0.695 -45.86 0.695 -45.86 0.718 44
22836.958 0.718 43.964 0.694 -45.896 0.694 -45.896 0.718 43.964
22861.917 0.719 43.929 0.694 -45.932 0.694 -45.932 0.719 43.929
22886.875 0.719 43.893 0.693 -45.967 0.693 -45.967 0.719 43.893
22911.833 0.719 43.858 0.693 -46.003 0.693 -46.003 0.719 43.858
22936.792 0.72 43.823 0.692 -46.038 0.692 -46.038 0.72 43.823
22961.75 0.72 43.787 0.692 -46.074 0.692 -46.074 0.72 43.787
22986.708 0.721 43.752 0.692 -46.109 0.692 -46.109 0.721 43.752
23011.667 0.721 43.717 0.691 -46.145 0.691 -46.145 0.721 43.717
23036.625 0.722 43.682 0.691 -46.18 0.691 -46.18 0.722 43.682
23061.583 0.722 43.646 0.69 -46.215 0.69 -46.215 0.722 43.646
23086.542 0.722 43.611 0.69 -46.251 0.69 -46.251 0.722 43.611
23111.5 0.723 43.576 0.689 -46.286 0.689 -46.286 0.723 43.576
23136.458 0.723 43.541 0.689 -46.321 0.689 -46.321 0.723 43.541
23161.417 0.724 43.506 0.688 -46.356 0.688 -46.356 0.724 43.506
23186.375 0.724 43.472 0.688 -46.391 0.688 -46.391 0.724 43.472
23211.333 0.724 43.437 0.688 -46.426 0.688 -46.426 0.724 43.437
23236.292 0.725 43.402 0.687 -46.461 0.687 -46.461 0.725 43.402
23261.25 0.725 43.367 0.687 -46.496 0.687 -46.496 0.725 43.367
23286.208 0.726 43.332 0.686 -46.531 0.686 -46.531 0.726 43.332
23311.167 0.726 43.298 0.686 -46.566 0.686 -46.566 0.726 43.298
23336.125 0.727 43.263 0.685 -46.601 0.685 -46.601 0.727 43.263
23361.083 0.727 43.229 0.685 -46.635 0.685 -46.635 0.727 43.229
23386.042 0.727 43.194 0.684 -46.67 0.684 -46.67 0.727 43.194
23411 0.728 43.16 0.684 -46.705 0.684 -46.705 0.728 43.16
23435.958 0.728 43.125 0.684 -46.739 0.684 -46.739 0.728 43.125
23460.917 0.729 43.091 0.683 -46.774 0.683 -46.774 0.729 43.091
23485.875 0.729 43.057 0.683 -46.808 0.683 -46.808 0.729 43.057
23510.833 0.729 43.022 0.682 -46.842 0.682 -46.842 0.729 43.022
23535.792 0.73 42.988 0.682 -46.877 0.682 -46.877 0.73 42.988
23560.75 0.73 42.954 0.681 -46.911 0.681 -46.911 0.73 42.954
23585.708 0.731 42.92 0.681 -46.945 0.681 -46.945 0.731 42.92
23610.667 0.731 42.886 0.681 -46.98 0.681 -46.98 0.731 42.886
23635.625 0.732 42.852 0.68 -47.014 0.68 -47.014 0.732 42.852
23660.583 0.732 42.818 0.68 -47.048 0.68 -47.048 0.732 42.818
23685.542 0.732 42.784 0.679 -47.082 0.679 -47.082 0.732 42.784
23710.5 0.733 42.75 0.679 -47.116 0.679 -47.116 0.733 42.75
23735.458 0.733 42.716 0.678 -47.15 0.678 -47.15 0.733 42.716
23760.417 0.734 42.682 0.678 -47.184 0.678 -47.184 0.734 42.682
23785.375 0.734 42.649 0.678 -47.218 0.678 -47.218 0.734 42.649
23810.333 0.734 42.615 0.677 -47.252 0.677 -47.252 0.734 42.615
23835.292 0.735 42.581 0.677 -47.286 0.677 -47.286 0.735 42.581
23860.25 0.735 42.548 0.676 -47.319 0.676 -47.319 0.735 42.548
23885.208 0.736 42.514 0.676 -47.353 0.676 -47.353 0.736 42.514
23910.167 0.736 42.481 0.675 -47.387 0.675 -47.387 0.736 42.481
23935.125 0.736 42.447 0.675 -47.42 0.675 -47.42 0.736 42.447
23960.083 0.737 42.414 0.674 -47.454 0.674 -47.454 0.737 42.414
23985.042 0.737 42.381 0.674 -47.487 0.674 -47.487 0.737 42.381
24010 0.738 42.347 0.674 -47.521 0.674 -47.521 0.738 42.347
24034.958 0.738 42.314 0.673 -47.554 0.673 -47.554 0.738 42.314
24059.917 0.738 42.281 0.673 -47.588 0.673 -47.588 0.738 42.281
24084.875 0.739 42.248 0.672 -47.621 0.672 -47.621 0.739 42.248
24109.833 0.739 42.214 0.672 -47.654 0.672 -47.654 0.739 42.214
24134.792 0.739 42.181 0.671 -47.687 0.671 -47.687 0.739 42.181
24159.75 0.74 42.148 0.671 -47.721 0.671 -47.721 0.74 42.148
24184.708 0.74 42.115 0.671 -47.754 0.671 -47.754 0.74 42.115
24209.667 0.741 42.082 0.67 -47.787 0.67 -47.787 0.741 42.082
24234.625 0.741 42.049 0.67 -47.82 0.67 -47.82 0.741 42.049
24259.583 0.741 42.017 0.669 -47.853 0.669 -47.853 0.741 42.017
24284.542 0.742 41.984 0.669 -47.886 0.669 -47.886 0.742 41.984
24309.5 0.742 41.951 0.668 -47.919 0.668 -47.919 0.742 41.951
24334.458 0.743 41.918 0.668 -47.952 0.668 -47.952 0.743 41.918
24359.417 0.743 41.886 0.668 -47.985 0.668 -47.985 0.743 41.886
24384.375 0.743 41.853 0.667 -48.017 0.667 -48.017 0.743 41.853
24409.333 0.744 41.82 0.667 -48.05 0.667 -48.05 0.744 41.82
24434.292 0.744 41.788 0.666 -48.083 0.666 -48.083 0.744 41.788
24459.25 0.744 41.755 0.666 -48.115 0.666 -48.115 0.744 41.755
24484.208 0.745 41.723 0.666 -48.148 0.666 -48.148 0.745 41.723
24509.167 0.745 41.691 0.665 -48.181 0.665 -48.181 0.745 41.691
24534.125 0.746 41.658 0.665 -48.213 0.665 -48.213 0.746 41.658
24559.083 0.746 41.626 0.664 -48.245 0.664 -48.245 0.746 41.626
24584.042 0.746 41.594 0.664 -48.278 0.664 -48.278 0.746 41.594
24609 0.747 41.561 0.663 -48.31 0.663 -48.31 0.747 41.561
24633.958 0.747 41.529 0.663 -48.343 0.663 -48.343 0.747 41.529
24658.917 0.748 41.497 0.663 -48.375 0.663 -48.375 0.748 41.497
24683.875 0.748 41.465 0.662 -48.407 0.662 -48.407 0.748 41.465
24708.833 0.748 41.433 0.662 -48.439 0.662 -48.439 0.748 41.433
24733.792 0.749 41.401 0.661 -48.471 0.661 -48.471 0.749 41.401
24758.75 0.749 41.369 0.661 -48.504 0.661 -48.504 0.749 41.369
24783.708 0.749 41.337 0.66 -48.536 0.66 -48.536 0.749 41.337
24808.667 0.75 41.305 0.66 -48.568 0.66 -48.568 0.75 41.305
24833.625 0.75 41.273 0.66 -48.6 0.66 -48.6 0.75 41.273
24858.583 0.75 41.242 0.659 -48.632 0.659 -48.632 0.75 41.242
24883.542 0.751 41.21 0.659 -48.663 0.659 -48.663 0.751 41.21
24908.5 0.751 41.178 0.658 -48.695 0.658 -48.695 0.751 41.178
24933.458 0.752 41.146 0.658 -48.727 0.658 -48.727 0.752 41.146
24958.417 0.752 41.115 0.658 -48.759 0.658 -48.759 0.752 41.115
24983.375 0.752 41.083 0.657 -48.791 0.657 -48.791 0.752 41.083
25008.333 0.753 41.052 0.657 -48.822 0.657 -48.822 0.753 41.052
25033.292 0.753 41.02 0.656 -48.854 0.656 -48.854 0.753 41.02
25058.25 0.753 40.989 0.656 -48.885 0.656 -48.885 0.753 40.989
25083.208 0.754 40.957 0.655 -48.917 0.655 -48.917 0.754 40.957
25108.167 0.754 40.926 0.655 -48.949 0.655 -48.949 0.754 40.926
25133.125 0.754 40.895 0.655 -48.98 0.655 -48.98 0.754 40.895
25158.083 0.755 40.863 0.654 -49.011 0.654 -49.011 0.755 40.863
25183.042 0.755 40.832 0.654 -49.043 0.654 -49.043 0.755 40.832
25208 0.756 40.801 0.653 -49.074 0.653 -49.074 0.756 40.801
25232.958 0.756 40.77 0.653 -49.105 0.653 -49.105 0.756 40.77
25257.917 0.756 40.739 0.653 -49.137 0.653 -49.137 0.756 40.739
25282.875 0.757 40.708 0.652 -49.168 0.652 -49.168 0.757 40.708
25307.833 0.757 40.677 0.652 -49.199 0.652 -49.199 0.757 40.677
25332.792 0.757 40.646 0.651 -49.23 0.651 -49.23 0.757 40.646
25357.75 0.758 40.615 0.651 -49.261 0.651 -49.261 0.758 40.615
25382.708 0.758 40.584 0.651 -49.292 0.651 -49.292 0.758 40.584
25407.667 0.758 40.553 0.65 -49.323 0.65 -49.323 0.758 40.553
25432.625 0.759 40.522 0.65 -49.354 0.65 -49.354 0.759 40.522
25457.583 0.759 40.491 0.649 -49.385 0.649 -49.385 0.759 40.491
25482.542 0.759 40.461 0.649 -49.416 0.649 -49.416 0.759 40.461
25507.5 0.76 40.43 0.649 -49.447 0.649 -49.447 0.76 40.43
25532.458 0.76 40.399 0.648 -49.477 0.648 -49.477 0.76 40.399
25557.417 0.761 40.369 0.648 -49.508 0.648 -49.508 0.761 40.369
25582.375 0.761 40.338 0.647 -49.539 0.647 -49.539 0.761 40.338
25607.333 0.761 40.308 0.647 -49.57 0.647 -49.57 0.761 40.308
25632.292 0.762 40.277 0.646 -49.6 0.646 -49.6 0.762 40.277
25657.25 0.762 40.247 0.646 -49.631 0.646 -49.631 0.762 40.247
25682.208 0.762 40.216 0.646 -49.661 0.646 -49.661 0.762 40.216
25707.167 0.763 40.186 0.645 -49.692 0.645 -49.692 0.763 40.186
25732.125 0.763 40.156 0.645 -49.722 0.645 -49.722 0.763 40.156
25757.083 0.763 40.125 0.644 -49.753 0.644 -49.753 0.763 40.125
25782.042 0.764 40.095 0.644 -49.783 0.644 -49.783 0.764 40.095
25807 0.764 40.065 0.644 -49.813 0.644 -49.813 0.764 40.065
25831.958 0.764 40.035 0.643 -49.844 0.643 -49.844 0.764 40.035
25856.917 0.765 40.005 0.643 -49.874 0.643 -49.874 0.765 40.005
25881.875 0.765 39.975 0.642 -49.904 0.642 -49.904 0.765 39.975
25906.833 0.765 39.945 0.642 -49.934 0.642 -49.934 0.765 39.945
25931.792 0.766 39.915 0.642 -49.964 0.642 -49.964 0.766 39.915
25956.75 0.766 39.885 0.641 -49.994 0.641 -49.994 0.766 39.885
25981.708 0.766 39.855 0.641 -50.024 0.641 -50.024 0.766 39.855
26006.667 0.767 39.825 0.64 -50.054 0.64 -50.054 0.767 39.825
26031.625 0.767 39.795 0.64 -50.084 0.64 -50.084 0.767 39.795
26056.583 0.767 39.765 0.64 -50.114 0.64 -50.114 0.767 39.765
26081.542 0.768 39.736 0.639 -50.144 0.639 -50.144 0.768 39.736
26106.5 0.768 39.706 0.639 -50.174 0.639 -50.174 0.768 39.706
26131.458 0.768 39.676 0.638 -50.204 0.638 -50.204 0.768 39.676
26156.417 0.769 39.647 0.638 -50.234 0.638 -50.234 0.769 39.647
26181.375 0.769 39.617 0.638 -50.263 0.638 -50.263 0.769 39.617
26206.333 0.769 39.587 0.637 -50.293 0.637 -50.293 0.769 39.587
26231.292 0.77 39.558 0.637 -50.323 0.637 -50.323 0.77 39.558
26256.25 0.77 39.528 0.636 -50.352 0.636 -50.352 0.77 39.528
26281.208 0.77 39.499 0.636 -50.382 0.636 -50.382 0.77 39.499
26306.167 0.771 39.47 0.636 -50.411 0.636 -50.411 0.771 39.47
26331.125 0.771 39.44 0.635 -50.441 0.635 -50.441 0.771 39.44
26356.083 0.771 39.411 0.635 -50.47 0.635 -50.47 0.771 39.411
26381.042 0.772 39.382 0.634 -50.5 0.634 -50.5 0.772 39.382
26406 0.772 39.352 0.634 -50.529 0.634 -50.529 0.772 39.352
26430.958 0.772 39.323 0.634 -50.558 0.634 -50.558 0.772 39.323
26455.917 0.773 39.294 0.633 -50.588 0.633 -50.588 0.773 39.294
26480.875 0.773 39.265 0.633 -50.617 0.633 -50.617 0.773 39.265
26505.833 0.773 39.236 0.633 -50.646 0.633 -50.646 0.773 39.236
26530.792 0.774 39.207 0.632 -50.675 0.632 -50.675 0.774 39.207
26555.75 0.774 39.178 0.632 -50.704 0.632 -50.704 0.774 39.178
26580.708 0.774 39.149 0.631 -50.733 0.631 -50.733 0.774 39.149
26605.667 0.775 39.12 0.631 -50.762 0.631 -50.762 0.775 39.12
26630.625 0.775 39.091 0.631 -50.792 0.631 -50.792 0.775 39.091
26655.583 0.775 39.062 0.63 -50.82 0.63 -50.82 0.775 39.062
26680.542 0.775 39.033 0.63 -50.849 0.63 -50.849 0.775 39.033
26705.5 0.776 39.004 0.629 -50.878 0.629 -50.878 0.776 39.004
26730.458 0.776 38.976 0.629 -50.907 0.629 -50.907 0.776 38.976
26755.417 0.776 38.947 0.629 -50.936 0.629 -50.936 0.776 38.947
26780.375 0.777 38.918 0.628 -50.965 0.628 -50.965 0.777 38.918
26805.333 0.777 38.89 0.628 -50.994 0.628 -50.994 0.777 38.89
26830.292 0.777 38.861 0.627 -51.022 0.627 -51.022 0.777 38.861
26855.25 0.778 38.833 0.627 -51.051 0.627 -51.051 0.778 38.833
26880.208 0.778 38.804 0.627 -51.08 0.627 -51.08 0.778 38.804
26905.167 0.778 38.776 0.626 -51.108 0.626 -51.108 0.778 38.776
26930.125 0.779 38.747 0.626 -51.137 0.626 -51.137 0.779 38.747
26955.083 0.779 38.719 0.625 -51.165 0.625 -51.165 0.779 38.719
26980.042 0.779 38.69 0.625 -51.194 0.625 -51.194 0.779 38.69
27005 0.78 38.662 0.625 -51.222 0.625 -51.222 0.78 38.662
27029.958 0.78 38.634 0.624 -51.251 0.624 -51.251 0.78 38.634
27054.917 0.78 38.606 0.624 -51.279 0.624 -51.279 0.78 38.606
27079.875 0.781 38.577 0.624 -51.307 0.624 -51.307 0.781 38.577
27104.833 0.781 38.549 0.623 -51.336 0.623 -51.336 0.781 38.549
27129.792 0.781 38.521 0.623 -51.364 0.623 -51.364 0.781 38.521
27154.75 0.781 38.493 0.622 -51.392 0.622 -51.392 0.781 38.493
27179.708 0.782 38.465 0.622 -51.42 0.622 -51.42 0.782 38.465
27204.667 0.782 38.437 0.622 -51.448 0.622 -51.448 0.782 38.437
27229.625 0.782 38.409 0.621 -51.476 0.621 -51.476 0.782 38.409
27254.583 0.783 38.381 0.621 -51.505 0.621 -51.505 0.783 38.381
27279.542 0.783 38.353 0.621 -51.533 0.621 -51.533 0.783 38.353
27304.5 0.783 38.325 0.62 -51.561 0.62 -51.561 0.783 38.325
27329.458 0.784 38.297 0.62 -51.589 0.62 -51.589 0.784 38.297
27354.417 0.784 38.269 0.619 -51.616 0.619 -51.616 0.784 38.269
27379.375 0.784 38.242 0.619 -51.644 0.619 -51.644 0.784 38.242
27404.333 0.784 38.214 0.619 -51.672 0.619 -51.672 0.784 38.214
27429.292 0.785 38.186 0.618 -51.7 0.618 -51.7 0.785 38.186
27454.25 0.785 38.159 0.618 -51.728 0.618 -51.728 0.785 38.159
27479.208 0.785 38.131 0.617 -51.756 0.617 -51.756 0.785 38.131
27504.167 0.786 38.103 0.617 -51.783 0.617 -51.783 0.786 38.103
27529.125 0.786 38.076 0.617 -51.811 0.617 -51.811 0.786 38.076
27554.083 0.786 38.048 0.616 -51.839 0.616 -51.839 0.786 38.048
27579.042 0.787 38.021 0.616 -51.866 0.616 -51.866 0.787 38.021
27604 0.787 37.993 0.616 -51.894 0.616 -51.894 0.787 37.993
27628.958 0.787 37.966 0.615 -51.921 0.615 -51.921 0.787 37.966
27653.917 0.787 37.938 0.615 -51.949 0.615 -51.949 0.787 37.938
27678.875 0.788 37.911 0.614 -51.976 0.614 -51.976 0.788 37.911
27703.833 0.788 37.884 0.614 -52.004 0.614 -52.004 0.788 37.884
27728.792 0.788 37.857 0.614 -52.031 0.614 -52.031 0.788 37.857
27753.75 0.789 37.829 0.613 -52.058 0.613 -52.058 0.789 37.829
27778.708 0.789 37.802 0.613 -52.086 0.613 -52.086 0.789 37.802
27803.667 0.789 37.775 0.613 -52.113 0.613 -52.113 0.789 37.775
27828.625 0.79 37.748 0.612 -52.14 0.612 -52.14 0.79 37.748
27853.583 0.79 37.721 0.612 -52.167 0.612 -52.167 0.79 37.721
27878.542 0.79 37.694 0.611 -52.195 0.611 -52.195 0.79 37.694
27903.5 0.79 37.667 0.611 -52.222 0.611 -52.222 0.79 37.667
27928.458 0.791 37.64 0.611 -52.249 0.611 -52.249 0.791 37.64
27953.417 0.791 37.613 0.61 -52.276 0.61 -52.276 0.791 37.613
27978.375 0.791 37.586 0.61 -52.303 0.61 -52.303 0.791 37.586
28003.333 0.792 37.559 0.61 -52.33 0.61 -52.33 0.792 37.559
28028.292 0.792 37.532 0.609 -52.357 0.609 -52.357 0.792 37.532
28053.25 0.792 37.505 0.609 -52.384 0.609 -52.384 0.792 37.505
28078.208 0.792 37.478 0.608 -52.411 0.608 -52.411 0.792 37.478
28103.167 0.793 37.452 0.608 -52.437 0.608 -52.437 0.793 37.452
28128.125 0.793 37.425 0.608 -52.464 0.608 -52.464 0.793 37.425
28153.083 0.793 37.398 0.607 -52.491 0.607 -52.491 0.793 37.398
28178.042 0.794 37.372 0.607 -52.518 0.607 -52.518 0.794 37.372
28203 0.794 37.345 0.607 -52.545 0.607 -52.545 0.794 37.345
28227.958 0.794 37.318 0.606 -52.571 0.606 -52.571 0.794 37.318
28252.917 0.794 37.292 0.606 -52.598 0.606 -52.598 0.794 37.292
28277.875 0.795 37.265 0.606 -52.625 0.606 -52.625 0.795 37.265
28302.833 0.795 37.239 0.605 -52.651 0.605 -52.651 0.795 37.239
28327.792 0.795 37.212 0.605 -52.678 0.605 -52.678 0.795 37.212
28352.75 0.796 37.186 0.604 -52.704 0.604 -52.704 0.796 37.186
28377.708 0.796 37.16 0.604 -52.731 0.604 -52.731 0.796 37.16
28402.667 0.796 37.133 0.604 -52.757 0.604 -52.757 0.796 37.133
28427.625 0.796 37.107 0.603 -52.783 0.603 -52.783 0.796 37.107
28452.583 0.797 37.081 0.603 -52.81 0.603 -52.81 0.797 37.081
28477.542 0.797 37.055 0.603 -52.836 0.603 -52.836 0.797 37.055
28502.5 0.797 37.028 0.602 -52.863 0.602 -52.863 0.797 37.028
28527.458 0.797 37.002 0.602 -52.889 0.602 -52.889 0.797 37.002
28552.417 0.798 36.976 0.601 -52.915 0.601 -52.915 0.798 36.976
28577.375 0.798 36.95 0.601 -52.941 0.601 -52.941 0.798 36.95
28602.333 0.798 36.924 0.601 -52.967 0.601 -52.967 0.798 36.924
28627.292 0.799 36.898 0.6 -52.994 0.6 -52.994 0.799 36.898
28652.25 0.799 36.872 0.6 -53.02 0.6 -53.02 0.799 36.872
28677.208 0.799 36.846 0.6 -53.046 0.6 -53.046 0.799 36.846
28702.167 0.799 36.82 0.599 -53.072 0.599 -53.072 0.799 36.82
28727.125 0.8 36.794 0.599 -53.098 0.599 -53.098 0.8 36.794
28752.083 0.8 36.768 0.599 -53.124 0.599 -53.124 0.8 36.768
28777.042 0.8 36.742 0.598 -53.15 0.598 -53.15 0.8 36.742
28802 0.8 36.717 0.598 -53.176 0.598 -53.176 0.8 36.717
28826.958 0.801 36.691 0.597 -53.201 0.597 -53.201 0.801 36.691
28851.917 0.801 36.665 0.597 -53.227 0.597 -53.227 0.801 36.665
28876.875 0.801 36.639 0.597 -53.253 0.597 -53.253 0.801 36.639
28901.833 0.802 36.614 0.596 -53.279 0.596 -53.279 0.802 36.614
28926.792 0.802 36.588 0.596 -53.305 0.596 -53.305 0.802 36.588
28951.75 0.802 36.562 0.596 -53.33 0.596 -53.33 0.802 36.562
28976.708 0.802 36.537 0.595 -53.356 0.595 -53.356 0.802 36.537
29001.667 0.803 36.511 0.595 -53.382 0.595 -53.382 0.803 36.511
29026.625 0.803 36.486 0.595 -53.407 0.595 -53.407 0.803 36.486
29051.583 0.803 36.46 0.594 -53.433 0.594 -53.433 0.803 36.46
29076.542 0.803 36.435 0.594 -53.458 0.594 -53.458 0.803 36.435
29101.5 0.804 36.409 0.594 -53.484 0.594 -53.484 0.804 36.409
29126.458 0.804 36.384 0.593 -53.509 0.593 -53.509 0.804 36.384
29151.417 0.804 36.359 0.593 -53.535 0.593 -53.535 0.804 36.359
29176.375 0.804 36.333 0.592 -53.56 0.592 -53.56 0.804 36.333
29201.333 0.805 36.308 0.592 -53.586 0.592 -53.586 0.805 36.308
29226.292 0.805 36.283 0.592 -53.611 0.592 -53.611 0.805 36.283
29251.25 0.805 36.258 0.591 -53.636 0.591 -53.636 0.805 36.258
29276.208 0.806 36.232 0.591 -53.662 0.591 -53.662 0.806 36.232
29301.167 0.806 36.207 0.591 -53.687 0.591 -53.687 0.806 36.207
29326.125 0.806 36.182 0.59 -53.712 0.59 -53.712 0.806 36.182
29351.083 0.806 36.157 0.59 -53.737 0.59 -53.737 0.806 36.157
29376.042 0.807 36.132 0.59 -53.762 0.59 -53.762 0.807 36.132
29401 0.807 36.107 0.589 -53.788 0.589 -53.788 0.807 36.107
29425.958 0.807 36.082 0.589 -53.813 0.589 -53.813 0.807 36.082
29450.917 0.807 36.057 0.589 -53.838 0.589 -53.838 0.807 36.057
29475.875 0.808 36.032 0.588 -53.863 0.588 -53.863 0.808 36.032
29500.833 0.808 36.007 0.588 -53.888 0.588 -53.888 0.808 36.007
29525.792 0.808 35.982 0.588 -53.913 0.588 -53.913 0.808 35.982
29550.75 0.808 35.957 0.587 -53.938 0.587 -53.938 0.808 35.957
29575.708 0.809 35.933 0.587 -53.963 0.587 -53.963 0.809 35.933
29600.667 0.809 35.908 0.586 -53.987 0.586 -53.987 0.809 35.908
29625.625 0.809 35.883 0.586 -54.012 0.586 -54.012 0.809 35.883
29650.583 0.809 35.858 0.586 -54.037 0.586 -54.037 0.809 35.858
29675.542 0.81 35.834 0.585 -54.062 0.585 -54.062 0.81 35.834
29700.5 0.81 35.809 0.585 -54.087 0.585 -54.087 0.81 35.809
29725.458 0.81 35.784 0.585 -54.111 0.585 -54.111 0.81 35.784
29750.417 0.81 35.76 0.584 -54.136 0.584 -54.136 0.81 35.76
29775.375 0.811 35.735 0.584 -54.161 0.584 -54.161 0.811 35.735
29800.333 0.811 35.711 0.584 -54.185 0.584 -54.185 0.811 35.711
29825.292 0.811 35.686 0.583 -54.21 0.583 -54.21 0.811 35.686
29850.25 0.811 35.662 0.583 -54.235 0.583 -54.235 0.811 35.662
29875.208 0.812 35.637 0.583 -54.259 0.583 -54.259 0.812 35.637
29900.167 0.812 35.613 0.582 -54.284 0.582 -54.284 0.812 35.613
29925.125 0.812 35.588 0.582 -54.308 0.582 -54.308 0.812 35.588
29950.083 0.812 35.564 0.582 -54.332 0.582 -54.332 0.812 35.564
29975.042 0.813 35.54 0.581 -54.357 0.581 -54.357 0.813 35.54
30000 0.813 35.515 0.581 -54.381 0.581 -54.381 0.813 35.515
