!	AVX Thin Film Operation 	Date: April 2014		
!	Description: Accu-P® Series, Thin Film  SMD RF Capacitor
!	Part Number: 06031JR45ZBSTR					
!								
# MHZ S MA R 50

50 1 -0.81 0.014 89.187 0.014 89.187 1 -0.81
74.958 1 -1.214 0.021 88.782 0.021 88.782 1 -1.214
99.917 1 -1.618 0.028 88.376 0.028 88.376 1 -1.618
124.875 0.999 -2.023 0.035 87.97 0.035 87.97 0.999 -2.023
149.833 0.999 -2.427 0.042 87.565 0.042 87.565 0.999 -2.427
174.792 0.999 -2.83 0.049 87.16 0.049 87.16 0.999 -2.83
199.75 0.998 -3.234 0.056 86.755 0.056 86.755 0.998 -3.234
224.708 0.998 -3.638 0.063 86.35 0.063 86.35 0.998 -3.638
249.667 0.997 -4.041 0.07 85.945 0.07 85.945 0.997 -4.041
274.625 0.997 -4.445 0.077 85.54 0.077 85.54 0.997 -4.445
299.583 0.996 -4.848 0.085 85.136 0.085 85.136 0.996 -4.848
324.542 0.996 -5.25 0.092 84.732 0.092 84.732 0.996 -5.25
349.5 0.995 -5.653 0.099 84.328 0.099 84.328 0.995 -5.653
374.458 0.994 -6.055 0.105 83.924 0.105 83.924 0.994 -6.055
399.417 0.994 -6.457 0.112 83.521 0.112 83.521 0.994 -6.457
424.375 0.993 -6.859 0.119 83.118 0.119 83.118 0.993 -6.859
449.333 0.992 -7.26 0.126 82.715 0.126 82.715 0.992 -7.26
474.292 0.991 -7.661 0.133 82.313 0.133 82.313 0.991 -7.661
499.25 0.99 -8.062 0.14 81.911 0.14 81.911 0.99 -8.062
524.208 0.989 -8.462 0.147 81.509 0.147 81.509 0.989 -8.462
549.167 0.988 -8.862 0.154 81.108 0.154 81.108 0.988 -8.862
574.125 0.987 -9.261 0.161 80.707 0.161 80.707 0.987 -9.261
599.083 0.986 -9.66 0.168 80.307 0.168 80.307 0.986 -9.66
624.042 0.985 -10.058 0.175 79.907 0.175 79.907 0.985 -10.058
649 0.983 -10.456 0.181 79.507 0.181 79.507 0.983 -10.456
673.958 0.982 -10.854 0.188 79.109 0.188 79.109 0.982 -10.854
698.917 0.981 -11.251 0.195 78.71 0.195 78.71 0.981 -11.251
723.875 0.979 -11.647 0.202 78.312 0.202 78.312 0.979 -11.647
748.833 0.978 -12.043 0.209 77.915 0.209 77.915 0.978 -12.043
773.792 0.976 -12.439 0.215 77.518 0.215 77.518 0.976 -12.439
798.75 0.975 -12.833 0.222 77.122 0.222 77.122 0.975 -12.833
823.708 0.973 -13.228 0.229 76.726 0.229 76.726 0.973 -13.228
848.667 0.972 -13.621 0.236 76.331 0.236 76.331 0.972 -13.621
873.625 0.97 -14.014 0.242 75.937 0.242 75.937 0.97 -14.014
898.583 0.968 -14.406 0.249 75.543 0.249 75.543 0.968 -14.406
923.542 0.967 -14.798 0.255 75.15 0.255 75.15 0.967 -14.798
948.5 0.965 -15.189 0.262 74.758 0.262 74.758 0.965 -15.189
973.458 0.963 -15.579 0.269 74.366 0.269 74.366 0.963 -15.579
998.417 0.961 -15.969 0.275 73.975 0.275 73.975 0.961 -15.969
1023.375 0.959 -16.358 0.282 73.585 0.282 73.585 0.959 -16.358
1048.333 0.957 -16.746 0.288 73.196 0.288 73.196 0.957 -16.746
1073.292 0.955 -17.133 0.295 72.807 0.295 72.807 0.955 -17.133
1098.25 0.953 -17.519 0.301 72.419 0.301 72.419 0.953 -17.519
1123.208 0.951 -17.905 0.307 72.032 0.307 72.032 0.951 -17.905
1148.167 0.949 -18.29 0.314 71.645 0.314 71.645 0.949 -18.29
1173.125 0.947 -18.674 0.32 71.259 0.32 71.259 0.947 -18.674
1198.083 0.945 -19.058 0.327 70.875 0.327 70.875 0.945 -19.058
1223.042 0.943 -19.44 0.333 70.491 0.333 70.491 0.943 -19.44
1248 0.94 -19.822 0.339 70.107 0.339 70.107 0.94 -19.822
1272.958 0.938 -20.203 0.345 69.725 0.345 69.725 0.938 -20.203
1297.917 0.936 -20.583 0.352 69.344 0.352 69.344 0.936 -20.583
1322.875 0.933 -20.962 0.358 68.963 0.358 68.963 0.933 -20.962
1347.833 0.931 -21.34 0.364 68.584 0.364 68.584 0.931 -21.34
1372.792 0.929 -21.717 0.37 68.205 0.37 68.205 0.929 -21.717
1397.75 0.926 -22.094 0.376 67.827 0.376 67.827 0.926 -22.094
1422.708 0.924 -22.469 0.382 67.45 0.382 67.45 0.924 -22.469
1447.667 0.921 -22.844 0.388 67.074 0.388 67.074 0.921 -22.844
1472.625 0.918 -23.217 0.394 66.699 0.394 66.699 0.918 -23.217
1497.583 0.916 -23.59 0.4 66.325 0.4 66.325 0.916 -23.59
1522.542 0.913 -23.961 0.406 65.952 0.406 65.952 0.913 -23.961
1547.5 0.911 -24.332 0.412 65.58 0.412 65.58 0.911 -24.332
1572.458 0.908 -24.701 0.418 65.209 0.418 65.209 0.908 -24.701
1597.417 0.905 -25.07 0.424 64.838 0.424 64.838 0.905 -25.07
1622.375 0.902 -25.438 0.43 64.469 0.43 64.469 0.902 -25.438
1647.333 0.9 -25.804 0.435 64.101 0.435 64.101 0.9 -25.804
1672.292 0.897 -26.17 0.441 63.734 0.441 63.734 0.897 -26.17
1697.25 0.894 -26.534 0.447 63.368 0.447 63.368 0.894 -26.534
1722.208 0.891 -26.898 0.452 63.003 0.452 63.003 0.891 -26.898
1747.167 0.888 -27.26 0.458 62.639 0.458 62.639 0.888 -27.26
1772.125 0.885 -27.622 0.464 62.276 0.464 62.276 0.885 -27.622
1797.083 0.882 -27.982 0.469 61.914 0.469 61.914 0.882 -27.982
1822.042 0.879 -28.341 0.475 61.553 0.475 61.553 0.879 -28.341
1847 0.876 -28.699 0.48 61.193 0.48 61.193 0.876 -28.699
1871.958 0.873 -29.056 0.486 60.835 0.486 60.835 0.873 -29.056
1896.917 0.87 -29.412 0.491 60.477 0.491 60.477 0.87 -29.412
1921.875 0.867 -29.767 0.496 60.121 0.496 60.121 0.867 -29.767
1946.833 0.864 -30.121 0.502 59.765 0.502 59.765 0.864 -30.121
1971.792 0.861 -30.474 0.507 59.411 0.507 59.411 0.861 -30.474
1996.75 0.858 -30.825 0.512 59.058 0.512 59.058 0.858 -30.825
2021.708 0.855 -31.176 0.518 58.706 0.518 58.706 0.855 -31.176
2046.667 0.851 -31.525 0.523 58.355 0.523 58.355 0.851 -31.525
2071.625 0.848 -31.873 0.528 58.005 0.528 58.005 0.848 -31.873
2096.583 0.845 -32.22 0.533 57.656 0.533 57.656 0.845 -32.22
2121.542 0.842 -32.566 0.538 57.309 0.538 57.309 0.842 -32.566
2146.5 0.838 -32.911 0.543 56.962 0.543 56.962 0.838 -32.911
2171.458 0.835 -33.254 0.548 56.617 0.548 56.617 0.835 -33.254
2196.417 0.832 -33.597 0.553 56.273 0.553 56.273 0.832 -33.597
2221.375 0.828 -33.938 0.558 55.93 0.558 55.93 0.828 -33.938
2246.333 0.825 -34.278 0.563 55.588 0.563 55.588 0.825 -34.278
2271.292 0.822 -34.617 0.568 55.248 0.568 55.248 0.822 -34.617
2296.25 0.818 -34.955 0.573 54.908 0.573 54.908 0.818 -34.955
2321.208 0.815 -35.292 0.578 54.57 0.578 54.57 0.815 -35.292
2346.167 0.811 -35.627 0.583 54.233 0.583 54.233 0.811 -35.627
2371.125 0.808 -35.961 0.587 53.896 0.587 53.896 0.808 -35.961
2396.083 0.804 -36.295 0.592 53.562 0.592 53.562 0.804 -36.295
2421.042 0.801 -36.626 0.597 53.228 0.597 53.228 0.801 -36.626
2446 0.798 -36.957 0.601 52.895 0.601 52.895 0.798 -36.957
2470.958 0.794 -37.287 0.606 52.564 0.606 52.564 0.794 -37.287
2495.917 0.791 -37.615 0.61 52.234 0.61 52.234 0.791 -37.615
2520.875 0.787 -37.942 0.615 51.905 0.615 51.905 0.787 -37.942
2545.833 0.783 -38.268 0.619 51.577 0.619 51.577 0.783 -38.268
2570.792 0.78 -38.593 0.624 51.25 0.624 51.25 0.78 -38.593
2595.75 0.776 -38.917 0.628 50.925 0.628 50.925 0.776 -38.917
2620.708 0.773 -39.239 0.633 50.601 0.633 50.601 0.773 -39.239
2645.667 0.769 -39.56 0.637 50.278 0.637 50.278 0.769 -39.56
2670.625 0.766 -39.881 0.641 49.956 0.641 49.956 0.766 -39.881
2695.583 0.762 -40.199 0.645 49.635 0.645 49.635 0.762 -40.199
2720.542 0.758 -40.517 0.65 49.315 0.65 49.315 0.758 -40.517
2745.5 0.755 -40.834 0.654 48.997 0.654 48.997 0.755 -40.834
2770.458 0.751 -41.149 0.658 48.68 0.658 48.68 0.751 -41.149
2795.417 0.747 -41.463 0.662 48.364 0.662 48.364 0.747 -41.463
2820.375 0.744 -41.776 0.666 48.049 0.666 48.049 0.744 -41.776
2845.333 0.74 -42.088 0.67 47.735 0.67 47.735 0.74 -42.088
2870.292 0.736 -42.398 0.674 47.423 0.674 47.423 0.736 -42.398
2895.25 0.733 -42.708 0.678 47.111 0.678 47.111 0.733 -42.708
2920.208 0.729 -43.016 0.682 46.801 0.682 46.801 0.729 -43.016
2945.167 0.725 -43.323 0.686 46.492 0.686 46.492 0.725 -43.323
2970.125 0.722 -43.629 0.69 46.184 0.69 46.184 0.722 -43.629
2995.083 0.718 -43.933 0.694 45.878 0.694 45.878 0.718 -43.933
3020.042 0.714 -44.237 0.698 45.572 0.698 45.572 0.714 -44.237
3045 0.71 -44.539 0.701 45.268 0.701 45.268 0.71 -44.539
3069.958 0.707 -44.84 0.705 44.965 0.705 44.965 0.707 -44.84
3094.917 0.703 -45.14 0.709 44.663 0.709 44.663 0.703 -45.14
3119.875 0.699 -45.439 0.713 44.362 0.713 44.362 0.699 -45.439
3144.833 0.695 -45.736 0.716 44.062 0.716 44.062 0.695 -45.736
3169.792 0.692 -46.033 0.72 43.764 0.72 43.764 0.692 -46.033
3194.75 0.688 -46.328 0.723 43.467 0.723 43.467 0.688 -46.328
3219.708 0.684 -46.622 0.727 43.17 0.727 43.17 0.684 -46.622
3244.667 0.68 -46.915 0.73 42.875 0.73 42.875 0.68 -46.915
3269.625 0.677 -47.207 0.734 42.581 0.734 42.581 0.677 -47.207
3294.583 0.673 -47.497 0.737 42.289 0.737 42.289 0.673 -47.497
3319.542 0.669 -47.787 0.741 41.997 0.741 41.997 0.669 -47.787
3344.5 0.665 -48.075 0.744 41.706 0.744 41.706 0.665 -48.075
3369.458 0.662 -48.362 0.747 41.417 0.747 41.417 0.662 -48.362
3394.417 0.658 -48.648 0.751 41.129 0.751 41.129 0.658 -48.648
3419.375 0.654 -48.933 0.754 40.842 0.754 40.842 0.654 -48.933
3444.333 0.65 -49.217 0.757 40.556 0.757 40.556 0.65 -49.217
3469.292 0.646 -49.499 0.76 40.271 0.76 40.271 0.646 -49.499
3494.25 0.643 -49.781 0.764 39.987 0.764 39.987 0.643 -49.781
3519.208 0.639 -50.061 0.767 39.705 0.767 39.705 0.639 -50.061
3544.167 0.635 -50.34 0.77 39.423 0.77 39.423 0.635 -50.34
3569.125 0.631 -50.618 0.773 39.143 0.773 39.143 0.631 -50.618
3594.083 0.627 -50.895 0.776 38.863 0.776 38.863 0.627 -50.895
3619.042 0.624 -51.171 0.779 38.585 0.779 38.585 0.624 -51.171
3644 0.62 -51.445 0.782 38.308 0.782 38.308 0.62 -51.445
3668.958 0.616 -51.719 0.785 38.032 0.785 38.032 0.616 -51.719
3693.917 0.612 -51.991 0.788 37.757 0.788 37.757 0.612 -51.991
3718.875 0.609 -52.263 0.791 37.483 0.791 37.483 0.609 -52.263
3743.833 0.605 -52.533 0.794 37.21 0.794 37.21 0.605 -52.533
3768.792 0.601 -52.802 0.797 36.939 0.797 36.939 0.601 -52.802
3793.75 0.597 -53.07 0.799 36.668 0.799 36.668 0.597 -53.07
3818.708 0.593 -53.337 0.802 36.399 0.802 36.399 0.593 -53.337
3843.667 0.59 -53.603 0.805 36.13 0.805 36.13 0.59 -53.603
3868.625 0.586 -53.868 0.808 35.863 0.808 35.863 0.586 -53.868
3893.583 0.582 -54.132 0.81 35.596 0.81 35.596 0.582 -54.132
3918.542 0.578 -54.394 0.813 35.331 0.813 35.331 0.578 -54.394
3943.5 0.575 -54.656 0.816 35.067 0.816 35.067 0.575 -54.656
3968.458 0.571 -54.916 0.818 34.804 0.818 34.804 0.571 -54.916
3993.417 0.567 -55.176 0.821 34.541 0.821 34.541 0.567 -55.176
4018.375 0.563 -55.434 0.823 34.28 0.823 34.28 0.563 -55.434
4043.333 0.559 -55.691 0.826 34.02 0.826 34.02 0.559 -55.691
4068.292 0.556 -55.948 0.829 33.761 0.829 33.761 0.556 -55.948
4093.25 0.552 -56.203 0.831 33.503 0.831 33.503 0.552 -56.203
4118.208 0.548 -56.457 0.833 33.246 0.833 33.246 0.548 -56.457
4143.167 0.544 -56.71 0.836 32.99 0.836 32.99 0.544 -56.71
4168.125 0.541 -56.962 0.838 32.735 0.838 32.735 0.541 -56.962
4193.083 0.537 -57.213 0.841 32.481 0.841 32.481 0.537 -57.213
4218.042 0.533 -57.463 0.843 32.228 0.843 32.228 0.533 -57.463
4243 0.53 -57.712 0.845 31.976 0.845 31.976 0.53 -57.712
4267.958 0.526 -57.96 0.848 31.725 0.848 31.725 0.526 -57.96
4292.917 0.522 -58.207 0.85 31.475 0.85 31.475 0.522 -58.207
4317.875 0.518 -58.453 0.852 31.226 0.852 31.226 0.518 -58.453
4342.833 0.515 -58.698 0.854 30.978 0.854 30.978 0.515 -58.698
4367.792 0.511 -58.942 0.857 30.73 0.857 30.73 0.511 -58.942
4392.75 0.507 -59.185 0.859 30.484 0.859 30.484 0.507 -59.185
4417.708 0.504 -59.427 0.861 30.239 0.861 30.239 0.504 -59.427
4442.667 0.5 -59.668 0.863 29.995 0.863 29.995 0.5 -59.668
4467.625 0.496 -59.908 0.865 29.752 0.865 29.752 0.496 -59.908
4492.583 0.493 -60.147 0.867 29.509 0.867 29.509 0.493 -60.147
4517.542 0.489 -60.385 0.869 29.268 0.869 29.268 0.489 -60.385
4542.5 0.485 -60.621 0.871 29.028 0.871 29.028 0.485 -60.621
4567.458 0.482 -60.857 0.873 28.788 0.873 28.788 0.482 -60.857
4592.417 0.478 -61.093 0.875 28.549 0.875 28.549 0.478 -61.093
4617.375 0.474 -61.327 0.877 28.312 0.877 28.312 0.474 -61.327
4642.333 0.471 -61.56 0.879 28.075 0.879 28.075 0.471 -61.56
4667.292 0.467 -61.792 0.881 27.839 0.881 27.839 0.467 -61.792
4692.25 0.463 -62.023 0.883 27.605 0.883 27.605 0.463 -62.023
4717.208 0.46 -62.253 0.885 27.371 0.885 27.371 0.46 -62.253
4742.167 0.456 -62.483 0.887 27.137 0.887 27.137 0.456 -62.483
4767.125 0.453 -62.711 0.889 26.905 0.889 26.905 0.453 -62.711
4792.083 0.449 -62.938 0.891 26.674 0.891 26.674 0.449 -62.938
4817.042 0.445 -63.165 0.892 26.444 0.892 26.444 0.445 -63.165
4842 0.442 -63.39 0.894 26.214 0.894 26.214 0.442 -63.39
4866.958 0.438 -63.615 0.896 25.986 0.896 25.986 0.438 -63.615
4891.917 0.435 -63.838 0.898 25.758 0.898 25.758 0.435 -63.838
4916.875 0.431 -64.061 0.899 25.531 0.899 25.531 0.431 -64.061
4941.833 0.427 -64.283 0.901 25.305 0.901 25.305 0.427 -64.283
4966.792 0.424 -64.504 0.903 25.08 0.903 25.08 0.424 -64.504
4991.75 0.42 -64.724 0.904 24.856 0.904 24.856 0.42 -64.724
5016.708 0.417 -64.943 0.906 24.632 0.906 24.632 0.417 -64.943
5041.667 0.413 -65.161 0.908 24.41 0.908 24.41 0.413 -65.161
5066.625 0.41 -65.378 0.909 24.188 0.909 24.188 0.41 -65.378
5091.583 0.406 -65.595 0.911 23.967 0.911 23.967 0.406 -65.595
5116.542 0.403 -65.81 0.912 23.747 0.912 23.747 0.403 -65.81
5141.5 0.399 -66.025 0.914 23.528 0.914 23.528 0.399 -66.025
5166.458 0.396 -66.238 0.915 23.31 0.915 23.31 0.396 -66.238
5191.417 0.392 -66.451 0.917 23.092 0.917 23.092 0.392 -66.451
5216.375 0.389 -66.663 0.918 22.875 0.918 22.875 0.389 -66.663
5241.333 0.385 -66.874 0.92 22.659 0.92 22.659 0.385 -66.874
5266.292 0.382 -67.084 0.921 22.444 0.921 22.444 0.382 -67.084
5291.25 0.378 -67.293 0.923 22.23 0.923 22.23 0.378 -67.293
5316.208 0.375 -67.502 0.924 22.017 0.924 22.017 0.375 -67.502
5341.167 0.371 -67.709 0.925 21.804 0.925 21.804 0.371 -67.709
5366.125 0.368 -67.916 0.927 21.592 0.927 21.592 0.368 -67.916
5391.083 0.365 -68.122 0.928 21.381 0.928 21.381 0.365 -68.122
5416.042 0.361 -68.326 0.929 21.171 0.929 21.171 0.361 -68.326
5441 0.358 -68.531 0.931 20.961 0.931 20.961 0.358 -68.531
5465.958 0.354 -68.734 0.932 20.752 0.932 20.752 0.354 -68.734
5490.917 0.351 -68.936 0.933 20.544 0.933 20.544 0.351 -68.936
5515.875 0.348 -69.137 0.934 20.337 0.934 20.337 0.348 -69.137
5540.833 0.344 -69.338 0.936 20.131 0.936 20.131 0.344 -69.338
5565.792 0.341 -69.538 0.937 19.925 0.937 19.925 0.341 -69.538
5590.75 0.337 -69.737 0.938 19.72 0.938 19.72 0.337 -69.737
5615.708 0.334 -69.935 0.939 19.516 0.939 19.516 0.334 -69.935
5640.667 0.331 -70.132 0.941 19.312 0.941 19.312 0.331 -70.132
5665.625 0.327 -70.328 0.942 19.11 0.942 19.11 0.327 -70.328
5690.583 0.324 -70.524 0.943 18.908 0.943 18.908 0.324 -70.524
5715.542 0.321 -70.718 0.944 18.707 0.944 18.707 0.321 -70.718
5740.5 0.317 -70.912 0.945 18.506 0.945 18.506 0.317 -70.912
5765.458 0.314 -71.105 0.946 18.306 0.946 18.306 0.314 -71.105
5790.417 0.311 -71.297 0.947 18.107 0.947 18.107 0.311 -71.297
5815.375 0.308 -71.488 0.948 17.909 0.948 17.909 0.308 -71.488
5840.333 0.304 -71.679 0.949 17.711 0.949 17.711 0.304 -71.679
5865.292 0.301 -71.868 0.95 17.515 0.95 17.515 0.301 -71.868
5890.25 0.298 -72.057 0.951 17.318 0.951 17.318 0.298 -72.057
5915.208 0.294 -72.245 0.952 17.123 0.952 17.123 0.294 -72.245
5940.167 0.291 -72.432 0.953 16.928 0.953 16.928 0.291 -72.432
5965.125 0.288 -72.618 0.954 16.734 0.954 16.734 0.288 -72.618
5990.083 0.285 -72.803 0.955 16.541 0.955 16.541 0.285 -72.803
6015.042 0.281 -72.988 0.956 16.348 0.956 16.348 0.281 -72.988
6040 0.278 -73.172 0.957 16.156 0.957 16.156 0.278 -73.172
6064.958 0.275 -73.354 0.958 15.965 0.958 15.965 0.275 -73.354
6089.917 0.272 -73.536 0.959 15.774 0.959 15.774 0.272 -73.536
6114.875 0.269 -73.718 0.96 15.584 0.96 15.584 0.269 -73.718
6139.833 0.265 -73.898 0.961 15.395 0.961 15.395 0.265 -73.898
6164.792 0.262 -74.077 0.962 15.206 0.962 15.206 0.262 -74.077
6189.75 0.259 -74.256 0.963 15.018 0.963 15.018 0.259 -74.256
6214.708 0.256 -74.433 0.963 14.831 0.963 14.831 0.256 -74.433
6239.667 0.253 -74.61 0.964 14.644 0.964 14.644 0.253 -74.61
6264.625 0.25 -74.786 0.965 14.458 0.965 14.458 0.25 -74.786
6289.583 0.247 -74.961 0.966 14.273 0.966 14.273 0.247 -74.961
6314.542 0.243 -75.136 0.967 14.088 0.967 14.088 0.243 -75.136
6339.5 0.24 -75.309 0.967 13.904 0.967 13.904 0.24 -75.309
6364.458 0.237 -75.481 0.968 13.721 0.968 13.721 0.237 -75.481
6389.417 0.234 -75.653 0.969 13.538 0.969 13.538 0.234 -75.653
6414.375 0.231 -75.824 0.97 13.356 0.97 13.356 0.231 -75.824
6439.333 0.228 -75.994 0.97 13.174 0.97 13.174 0.228 -75.994
6464.292 0.225 -76.162 0.971 12.994 0.971 12.994 0.225 -76.162
6489.25 0.222 -76.33 0.972 12.813 0.972 12.813 0.222 -76.33
6514.208 0.219 -76.498 0.972 12.634 0.972 12.634 0.219 -76.498
6539.167 0.216 -76.664 0.973 12.455 0.973 12.455 0.216 -76.664
6564.125 0.213 -76.829 0.974 12.276 0.974 12.276 0.213 -76.829
6589.083 0.21 -76.993 0.974 12.098 0.974 12.098 0.21 -76.993
6614.042 0.207 -77.156 0.975 11.921 0.975 11.921 0.207 -77.156
6639 0.204 -77.319 0.976 11.744 0.976 11.744 0.204 -77.319
6663.958 0.201 -77.48 0.976 11.568 0.976 11.568 0.201 -77.48
6688.917 0.198 -77.641 0.977 11.393 0.977 11.393 0.198 -77.641
6713.875 0.195 -77.8 0.978 11.218 0.978 11.218 0.195 -77.8
6738.833 0.192 -77.958 0.978 11.044 0.978 11.044 0.192 -77.958
6763.792 0.189 -78.116 0.979 10.87 0.979 10.87 0.189 -78.116
6788.75 0.186 -78.272 0.979 10.697 0.979 10.697 0.186 -78.272
6813.708 0.183 -78.427 0.98 10.525 0.98 10.525 0.183 -78.427
6838.667 0.18 -78.581 0.98 10.353 0.98 10.353 0.18 -78.581
6863.625 0.177 -78.734 0.981 10.182 0.981 10.182 0.177 -78.734
6888.583 0.174 -78.886 0.981 10.011 0.981 10.011 0.174 -78.886
6913.542 0.171 -79.037 0.982 9.841 0.982 9.841 0.171 -79.037
6938.5 0.168 -79.186 0.982 9.671 0.982 9.671 0.168 -79.186
6963.458 0.165 -79.335 0.983 9.502 0.983 9.502 0.165 -79.335
6988.417 0.162 -79.482 0.983 9.333 0.983 9.333 0.162 -79.482
7013.375 0.159 -79.628 0.984 9.165 0.984 9.165 0.159 -79.628
7038.333 0.156 -79.772 0.984 8.998 0.984 8.998 0.156 -79.772
7063.292 0.154 -79.916 0.985 8.831 0.985 8.831 0.154 -79.916
7088.25 0.151 -80.057 0.985 8.665 0.985 8.665 0.151 -80.057
7113.208 0.148 -80.198 0.986 8.499 0.986 8.499 0.148 -80.198
7138.167 0.145 -80.337 0.986 8.334 0.986 8.334 0.145 -80.337
7163.125 0.142 -80.474 0.986 8.169 0.986 8.169 0.142 -80.474
7188.083 0.139 -80.61 0.987 8.005 0.987 8.005 0.139 -80.61
7213.042 0.136 -80.745 0.987 7.841 0.987 7.841 0.136 -80.745
7238 0.134 -80.877 0.988 7.678 0.988 7.678 0.134 -80.877
7262.958 0.131 -81.008 0.988 7.516 0.988 7.516 0.131 -81.008
7287.917 0.128 -81.138 0.988 7.354 0.988 7.354 0.128 -81.138
7312.875 0.125 -81.265 0.989 7.192 0.989 7.192 0.125 -81.265
7337.833 0.122 -81.39 0.989 7.031 0.989 7.031 0.122 -81.39
7362.792 0.12 -81.513 0.989 6.871 0.989 6.871 0.12 -81.513
7387.75 0.117 -81.635 0.99 6.711 0.99 6.711 0.117 -81.635
7412.708 0.114 -81.753 0.99 6.551 0.99 6.551 0.114 -81.753
7437.667 0.111 -81.87 0.99 6.392 0.99 6.392 0.111 -81.87
7462.625 0.109 -81.984 0.991 6.234 0.991 6.234 0.109 -81.984
7487.583 0.106 -82.095 0.991 6.076 0.991 6.076 0.106 -82.095
7512.542 0.103 -82.204 0.991 5.918 0.991 5.918 0.103 -82.204
7537.5 0.1 -82.309 0.992 5.761 0.992 5.761 0.1 -82.309
7562.458 0.098 -82.411 0.992 5.605 0.992 5.605 0.098 -82.411
7587.417 0.095 -82.51 0.992 5.449 0.992 5.449 0.095 -82.51
7612.375 0.092 -82.605 0.992 5.294 0.992 5.294 0.092 -82.605
7637.333 0.09 -82.697 0.993 5.139 0.993 5.139 0.09 -82.697
7662.292 0.087 -82.784 0.993 4.984 0.993 4.984 0.087 -82.784
7687.25 0.084 -82.866 0.993 4.83 0.993 4.83 0.084 -82.866
7712.208 0.082 -82.944 0.993 4.677 0.993 4.677 0.082 -82.944
7737.167 0.079 -83.016 0.993 4.523 0.993 4.523 0.079 -83.016
7762.125 0.076 -83.083 0.994 4.371 0.994 4.371 0.076 -83.083
7787.083 0.074 -83.143 0.994 4.219 0.994 4.219 0.074 -83.143
7812.042 0.071 -83.196 0.994 4.067 0.994 4.067 0.071 -83.196
7837 0.068 -83.241 0.994 3.916 0.994 3.916 0.068 -83.241
7861.958 0.066 -83.278 0.994 3.765 0.994 3.765 0.066 -83.278
7886.917 0.063 -83.305 0.995 3.615 0.995 3.615 0.063 -83.305
7911.875 0.061 -83.322 0.995 3.465 0.995 3.465 0.061 -83.322
7936.833 0.058 -83.326 0.995 3.316 0.995 3.316 0.058 -83.326
7961.792 0.055 -83.317 0.995 3.167 0.995 3.167 0.055 -83.317
7986.75 0.053 -83.293 0.995 3.019 0.995 3.019 0.053 -83.293
8011.708 0.05 -83.251 0.995 2.871 0.995 2.871 0.05 -83.251
8036.667 0.048 -83.189 0.995 2.723 0.995 2.723 0.048 -83.189
8061.625 0.045 -83.103 0.996 2.576 0.996 2.576 0.045 -83.103
8086.583 0.043 -82.99 0.996 2.43 0.996 2.43 0.043 -82.99
8111.542 0.04 -82.844 0.996 2.283 0.996 2.283 0.04 -82.844
8136.5 0.037 -82.659 0.996 2.138 0.996 2.138 0.037 -82.659
8161.458 0.035 -82.427 0.996 1.992 0.996 1.992 0.035 -82.427
8186.417 0.032 -82.137 0.996 1.847 0.996 1.847 0.032 -82.137
8211.375 0.03 -81.775 0.996 1.703 0.996 1.703 0.03 -81.775
8236.333 0.027 -81.322 0.996 1.559 0.996 1.559 0.027 -81.322
8261.292 0.025 -80.752 0.996 1.416 0.996 1.416 0.025 -80.752
8286.25 0.022 -80.027 0.996 1.272 0.996 1.272 0.022 -80.027
8311.208 0.02 -79.09 0.996 1.13 0.996 1.13 0.02 -79.09
8336.167 0.018 -77.856 0.996 0.987 0.996 0.987 0.018 -77.856
8361.125 0.015 -76.185 0.996 0.846 0.996 0.846 0.015 -76.185
8386.083 0.013 -73.835 0.997 0.704 0.997 0.704 0.013 -73.835
8411.042 0.01 -70.359 0.997 0.563 0.997 0.563 0.01 -70.359
8436 8.12e-3 -64.83 0.997 0.423 0.997 0.423 8.12e-3 -64.83
8460.958 5.986e-3 -55.118 0.997 0.282 0.997 0.282 5.986e-3 -55.118
8485.917 4.212e-3 -36.059 0.997 0.143 0.997 0.143 4.212e-3 -36.059
8510.875 3.4e-3 -0.934 0.997 3.186e-3 0.997 3.186e-3 3.4e-3 -0.934
8535.833 4.144e-3 34.745 0.997 -0.136 0.997 -0.136 4.144e-3 34.745
8560.792 5.872e-3 54.352 0.997 -0.274 0.997 -0.274 5.872e-3 54.352
8585.75 7.961e-3 64.312 0.997 -0.412 0.997 -0.412 7.961e-3 64.312
8610.708 0.01 69.958 0.997 -0.55 0.997 -0.55 0.01 69.958
8635.667 0.012 73.498 0.997 -0.688 0.997 -0.688 0.012 73.498
8660.625 0.015 75.886 0.996 -0.825 0.996 -0.825 0.015 75.886
8685.583 0.017 77.584 0.996 -0.961 0.996 -0.961 0.017 77.584
8710.542 0.019 78.838 0.996 -1.097 0.996 -1.097 0.019 78.838
8735.5 0.022 79.792 0.996 -1.233 0.996 -1.233 0.022 79.792
8760.458 0.024 80.532 0.996 -1.368 0.996 -1.368 0.024 80.532
8785.417 0.026 81.117 0.996 -1.503 0.996 -1.503 0.026 81.117
8810.375 0.029 81.583 0.996 -1.638 0.996 -1.638 0.029 81.583
8835.333 0.031 81.958 0.996 -1.772 0.996 -1.772 0.031 81.958
8860.292 0.033 82.262 0.996 -1.906 0.996 -1.906 0.033 82.262
8885.25 0.036 82.508 0.996 -2.039 0.996 -2.039 0.036 82.508
8910.208 0.038 82.707 0.996 -2.172 0.996 -2.172 0.038 82.707
8935.167 0.04 82.868 0.996 -2.305 0.996 -2.305 0.04 82.868
8960.125 0.043 82.997 0.996 -2.437 0.996 -2.437 0.043 82.997
8985.083 0.045 83.099 0.996 -2.569 0.996 -2.569 0.045 83.099
9010.042 0.047 83.178 0.995 -2.701 0.995 -2.701 0.047 83.178
9035 0.05 83.237 0.995 -2.832 0.995 -2.832 0.05 83.237
9059.958 0.052 83.28 0.995 -2.963 0.995 -2.963 0.052 83.28
9084.917 0.054 83.307 0.995 -3.093 0.995 -3.093 0.054 83.307
9109.875 0.056 83.323 0.995 -3.223 0.995 -3.223 0.056 83.323
9134.833 0.059 83.326 0.995 -3.353 0.995 -3.353 0.059 83.326
9159.792 0.061 83.32 0.995 -3.483 0.995 -3.483 0.061 83.32
9184.75 0.063 83.306 0.995 -3.612 0.995 -3.612 0.063 83.306
9209.708 0.065 83.283 0.994 -3.74 0.994 -3.74 0.065 83.283
9234.667 0.068 83.254 0.994 -3.868 0.994 -3.868 0.068 83.254
9259.625 0.07 83.218 0.994 -3.996 0.994 -3.996 0.07 83.218
9284.583 0.072 83.177 0.994 -4.124 0.994 -4.124 0.072 83.177
9309.542 0.074 83.131 0.994 -4.251 0.994 -4.251 0.074 83.131
9334.5 0.076 83.08 0.994 -4.378 0.994 -4.378 0.076 83.08
9359.458 0.079 83.025 0.994 -4.504 0.994 -4.504 0.079 83.025
9384.417 0.081 82.966 0.993 -4.631 0.993 -4.631 0.081 82.966
9409.375 0.083 82.904 0.993 -4.756 0.993 -4.756 0.083 82.904
9434.333 0.085 82.839 0.993 -4.882 0.993 -4.882 0.085 82.839
9459.292 0.087 82.771 0.993 -5.007 0.993 -5.007 0.087 82.771
9484.25 0.09 82.701 0.993 -5.132 0.993 -5.132 0.09 82.701
9509.208 0.092 82.628 0.992 -5.256 0.992 -5.256 0.092 82.628
9534.167 0.094 82.553 0.992 -5.38 0.992 -5.38 0.094 82.553
9559.125 0.096 82.476 0.992 -5.504 0.992 -5.504 0.096 82.476
9584.083 0.098 82.397 0.992 -5.628 0.992 -5.628 0.098 82.397
9609.042 0.1 82.316 0.992 -5.751 0.992 -5.751 0.1 82.316
9634 0.102 82.234 0.991 -5.873 0.991 -5.873 0.102 82.234
9658.958 0.105 82.151 0.991 -5.996 0.991 -5.996 0.105 82.151
9683.917 0.107 82.066 0.991 -6.118 0.991 -6.118 0.107 82.066
9708.875 0.109 81.98 0.991 -6.24 0.991 -6.24 0.109 81.98
9733.833 0.111 81.892 0.99 -6.361 0.99 -6.361 0.111 81.892
9758.792 0.113 81.804 0.99 -6.482 0.99 -6.482 0.113 81.804
9783.75 0.115 81.715 0.99 -6.603 0.99 -6.603 0.115 81.715
9808.708 0.117 81.625 0.99 -6.723 0.99 -6.723 0.117 81.625
9833.667 0.119 81.534 0.99 -6.844 0.99 -6.844 0.119 81.534
9858.625 0.121 81.442 0.989 -6.963 0.989 -6.963 0.121 81.442
9883.583 0.123 81.35 0.989 -7.083 0.989 -7.083 0.123 81.35
9908.542 0.125 81.257 0.989 -7.202 0.989 -7.202 0.125 81.257
9933.5 0.127 81.163 0.988 -7.321 0.988 -7.321 0.127 81.163
9958.458 0.13 81.069 0.988 -7.439 0.988 -7.439 0.13 81.069
9983.417 0.132 80.975 0.988 -7.558 0.988 -7.558 0.132 80.975
10008.375 0.134 80.88 0.988 -7.676 0.988 -7.676 0.134 80.88
10033.333 0.136 80.784 0.987 -7.793 0.987 -7.793 0.136 80.784
10058.292 0.138 80.688 0.987 -7.91 0.987 -7.91 0.138 80.688
10083.25 0.14 80.592 0.987 -8.027 0.987 -8.027 0.14 80.592
10108.208 0.142 80.495 0.987 -8.144 0.987 -8.144 0.142 80.495
10133.167 0.144 80.398 0.986 -8.26 0.986 -8.26 0.144 80.398
10158.125 0.146 80.301 0.986 -8.377 0.986 -8.377 0.146 80.301
10183.083 0.148 80.204 0.986 -8.492 0.986 -8.492 0.148 80.204
10208.042 0.15 80.106 0.985 -8.608 0.985 -8.608 0.15 80.106
10233 0.152 80.008 0.985 -8.723 0.985 -8.723 0.152 80.008
10257.958 0.154 79.91 0.985 -8.838 0.985 -8.838 0.154 79.91
10282.917 0.156 79.812 0.984 -8.952 0.984 -8.952 0.156 79.812
10307.875 0.158 79.713 0.984 -9.067 0.984 -9.067 0.158 79.713
10332.833 0.16 79.615 0.984 -9.181 0.984 -9.181 0.16 79.615
10357.792 0.162 79.516 0.984 -9.294 0.984 -9.294 0.162 79.516
10382.75 0.163 79.417 0.983 -9.408 0.983 -9.408 0.163 79.417
10407.708 0.165 79.318 0.983 -9.521 0.983 -9.521 0.165 79.318
10432.667 0.167 79.219 0.983 -9.633 0.983 -9.633 0.167 79.219
10457.625 0.169 79.12 0.982 -9.746 0.982 -9.746 0.169 79.12
10482.583 0.171 79.021 0.982 -9.858 0.982 -9.858 0.171 79.021
10507.542 0.173 78.922 0.982 -9.97 0.982 -9.97 0.173 78.922
10532.5 0.175 78.823 0.981 -10.082 0.981 -10.082 0.175 78.823
10557.458 0.177 78.724 0.981 -10.193 0.981 -10.193 0.177 78.724
10582.417 0.179 78.625 0.981 -10.304 0.981 -10.304 0.179 78.625
10607.375 0.181 78.526 0.98 -10.415 0.98 -10.415 0.181 78.526
10632.333 0.183 78.426 0.98 -10.525 0.98 -10.525 0.183 78.426
10657.292 0.185 78.327 0.979 -10.636 0.979 -10.636 0.185 78.327
10682.25 0.186 78.228 0.979 -10.746 0.979 -10.746 0.186 78.228
10707.208 0.188 78.129 0.979 -10.855 0.979 -10.855 0.188 78.129
10732.167 0.19 78.03 0.978 -10.965 0.978 -10.965 0.19 78.03
10757.125 0.192 77.931 0.978 -11.074 0.978 -11.074 0.192 77.931
10782.083 0.194 77.832 0.978 -11.182 0.978 -11.182 0.194 77.832
10807.042 0.196 77.734 0.977 -11.291 0.977 -11.291 0.196 77.734
10832 0.198 77.635 0.977 -11.399 0.977 -11.399 0.198 77.635
10856.958 0.2 77.536 0.977 -11.507 0.977 -11.507 0.2 77.536
10881.917 0.201 77.438 0.976 -11.615 0.976 -11.615 0.201 77.438
10906.875 0.203 77.339 0.976 -11.722 0.976 -11.722 0.203 77.339
10931.833 0.205 77.241 0.975 -11.83 0.975 -11.83 0.205 77.241
10956.792 0.207 77.142 0.975 -11.937 0.975 -11.937 0.207 77.142
10981.75 0.209 77.044 0.975 -12.043 0.975 -12.043 0.209 77.044
11006.708 0.21 76.946 0.974 -12.15 0.974 -12.15 0.21 76.946
11031.667 0.212 76.848 0.974 -12.256 0.974 -12.256 0.212 76.848
11056.625 0.214 76.75 0.973 -12.362 0.973 -12.362 0.214 76.75
11081.583 0.216 76.652 0.973 -12.467 0.973 -12.467 0.216 76.652
11106.542 0.218 76.554 0.973 -12.573 0.973 -12.573 0.218 76.554
11131.5 0.219 76.457 0.972 -12.678 0.972 -12.678 0.219 76.457
11156.458 0.221 76.359 0.972 -12.782 0.972 -12.782 0.221 76.359
11181.417 0.223 76.262 0.971 -12.887 0.971 -12.887 0.223 76.262
11206.375 0.225 76.165 0.971 -12.991 0.971 -12.991 0.225 76.165
11231.333 0.227 76.067 0.971 -13.095 0.971 -13.095 0.227 76.067
11256.292 0.228 75.97 0.97 -13.199 0.97 -13.199 0.228 75.97
11281.25 0.23 75.874 0.97 -13.303 0.97 -13.303 0.23 75.874
11306.208 0.232 75.777 0.969 -13.406 0.969 -13.406 0.232 75.777
11331.167 0.234 75.68 0.969 -13.509 0.969 -13.509 0.234 75.68
11356.125 0.235 75.584 0.969 -13.612 0.969 -13.612 0.235 75.584
11381.083 0.237 75.488 0.968 -13.714 0.968 -13.714 0.237 75.488
11406.042 0.239 75.392 0.968 -13.816 0.968 -13.816 0.239 75.392
11431 0.241 75.296 0.967 -13.919 0.967 -13.919 0.241 75.296
11455.958 0.242 75.2 0.967 -14.02 0.967 -14.02 0.242 75.2
11480.917 0.244 75.104 0.966 -14.122 0.966 -14.122 0.244 75.104
11505.875 0.246 75.009 0.966 -14.223 0.966 -14.223 0.246 75.009
11530.833 0.247 74.913 0.966 -14.324 0.966 -14.324 0.247 74.913
11555.792 0.249 74.818 0.965 -14.425 0.965 -14.425 0.249 74.818
11580.75 0.251 74.723 0.965 -14.525 0.965 -14.525 0.251 74.723
11605.708 0.253 74.628 0.964 -14.626 0.964 -14.626 0.253 74.628
11630.667 0.254 74.533 0.964 -14.726 0.964 -14.726 0.254 74.533
11655.625 0.256 74.439 0.963 -14.826 0.963 -14.826 0.256 74.439
11680.583 0.258 74.344 0.963 -14.925 0.963 -14.925 0.258 74.344
11705.542 0.259 74.25 0.963 -15.025 0.963 -15.025 0.259 74.25
11730.5 0.261 74.156 0.962 -15.124 0.962 -15.124 0.261 74.156
11755.458 0.263 74.062 0.962 -15.222 0.962 -15.222 0.263 74.062
11780.417 0.264 73.968 0.961 -15.321 0.961 -15.321 0.264 73.968
11805.375 0.266 73.874 0.961 -15.419 0.961 -15.419 0.266 73.874
11830.333 0.268 73.781 0.96 -15.518 0.96 -15.518 0.268 73.781
11855.292 0.269 73.688 0.96 -15.616 0.96 -15.616 0.269 73.688
11880.25 0.271 73.595 0.959 -15.713 0.959 -15.713 0.271 73.595
11905.208 0.272 73.502 0.959 -15.811 0.959 -15.811 0.272 73.502
11930.167 0.274 73.409 0.958 -15.908 0.958 -15.908 0.274 73.409
11955.125 0.276 73.316 0.958 -16.005 0.958 -16.005 0.276 73.316
11980.083 0.277 73.224 0.958 -16.102 0.958 -16.102 0.277 73.224
12005.042 0.279 73.131 0.957 -16.198 0.957 -16.198 0.279 73.131
12030 0.281 73.039 0.957 -16.294 0.957 -16.294 0.281 73.039
12054.958 0.282 72.947 0.956 -16.391 0.956 -16.391 0.282 72.947
12079.917 0.284 72.856 0.956 -16.486 0.956 -16.486 0.284 72.856
12104.875 0.285 72.764 0.955 -16.582 0.955 -16.582 0.285 72.764
12129.833 0.287 72.673 0.955 -16.677 0.955 -16.677 0.287 72.673
12154.792 0.289 72.581 0.954 -16.773 0.954 -16.773 0.289 72.581
12179.75 0.29 72.49 0.954 -16.868 0.954 -16.868 0.29 72.49
12204.708 0.292 72.399 0.953 -16.962 0.953 -16.962 0.292 72.399
12229.667 0.293 72.308 0.953 -17.057 0.953 -17.057 0.293 72.308
12254.625 0.295 72.218 0.952 -17.151 0.952 -17.151 0.295 72.218
12279.583 0.296 72.128 0.952 -17.245 0.952 -17.245 0.296 72.128
12304.542 0.298 72.037 0.951 -17.339 0.951 -17.339 0.298 72.037
12329.5 0.3 71.947 0.951 -17.433 0.951 -17.433 0.3 71.947
12354.458 0.301 71.857 0.95 -17.526 0.95 -17.526 0.301 71.857
12379.417 0.303 71.768 0.95 -17.619 0.95 -17.619 0.303 71.768
12404.375 0.304 71.678 0.949 -17.712 0.949 -17.712 0.304 71.678
12429.333 0.306 71.589 0.949 -17.805 0.949 -17.805 0.306 71.589
12454.292 0.307 71.5 0.948 -17.897 0.948 -17.897 0.307 71.5
12479.25 0.309 71.411 0.948 -17.99 0.948 -17.99 0.309 71.411
12504.208 0.31 71.322 0.947 -18.082 0.947 -18.082 0.31 71.322
12529.167 0.312 71.233 0.947 -18.174 0.947 -18.174 0.312 71.233
12554.125 0.313 71.145 0.946 -18.265 0.946 -18.265 0.313 71.145
12579.083 0.315 71.056 0.946 -18.357 0.946 -18.357 0.315 71.056
12604.042 0.316 70.968 0.945 -18.448 0.945 -18.448 0.316 70.968
12629 0.318 70.88 0.945 -18.539 0.945 -18.539 0.318 70.88
12653.958 0.319 70.792 0.944 -18.63 0.944 -18.63 0.319 70.792
12678.917 0.321 70.705 0.944 -18.721 0.944 -18.721 0.321 70.705
12703.875 0.322 70.617 0.943 -18.811 0.943 -18.811 0.322 70.617
12728.833 0.324 70.53 0.943 -18.901 0.943 -18.901 0.324 70.53
12753.792 0.325 70.443 0.942 -18.991 0.942 -18.991 0.325 70.443
12778.75 0.327 70.356 0.942 -19.081 0.942 -19.081 0.327 70.356
12803.708 0.328 70.269 0.941 -19.171 0.941 -19.171 0.328 70.269
12828.667 0.33 70.182 0.941 -19.26 0.941 -19.26 0.33 70.182
12853.625 0.331 70.096 0.94 -19.349 0.94 -19.349 0.331 70.096
12878.583 0.333 70.01 0.94 -19.438 0.94 -19.438 0.333 70.01
12903.542 0.334 69.924 0.939 -19.527 0.939 -19.527 0.334 69.924
12928.5 0.336 69.838 0.939 -19.616 0.939 -19.616 0.336 69.838
12953.458 0.337 69.752 0.938 -19.704 0.938 -19.704 0.337 69.752
12978.417 0.339 69.666 0.938 -19.792 0.938 -19.792 0.339 69.666
13003.375 0.34 69.581 0.937 -19.88 0.937 -19.88 0.34 69.581
13028.333 0.342 69.496 0.937 -19.968 0.937 -19.968 0.342 69.496
13053.292 0.343 69.411 0.936 -20.056 0.936 -20.056 0.343 69.411
13078.25 0.344 69.326 0.936 -20.143 0.936 -20.143 0.344 69.326
13103.208 0.346 69.241 0.935 -20.23 0.935 -20.23 0.346 69.241
13128.167 0.347 69.157 0.935 -20.317 0.935 -20.317 0.347 69.157
13153.125 0.349 69.072 0.934 -20.404 0.934 -20.404 0.349 69.072
13178.083 0.35 68.988 0.934 -20.491 0.934 -20.491 0.35 68.988
13203.042 0.351 68.904 0.933 -20.577 0.933 -20.577 0.351 68.904
13228 0.353 68.82 0.932 -20.663 0.932 -20.663 0.353 68.82
13252.958 0.354 68.736 0.932 -20.749 0.932 -20.749 0.354 68.736
13277.917 0.356 68.653 0.931 -20.835 0.931 -20.835 0.356 68.653
13302.875 0.357 68.57 0.931 -20.921 0.931 -20.921 0.357 68.57
13327.833 0.358 68.486 0.93 -21.006 0.93 -21.006 0.358 68.486
13352.792 0.36 68.403 0.93 -21.092 0.93 -21.092 0.36 68.403
13377.75 0.361 68.321 0.929 -21.177 0.929 -21.177 0.361 68.321
13402.708 0.363 68.238 0.929 -21.262 0.929 -21.262 0.363 68.238
13427.667 0.364 68.155 0.928 -21.346 0.928 -21.346 0.364 68.155
13452.625 0.365 68.073 0.928 -21.431 0.928 -21.431 0.365 68.073
13477.583 0.367 67.991 0.927 -21.515 0.927 -21.515 0.367 67.991
13502.542 0.368 67.909 0.927 -21.599 0.927 -21.599 0.368 67.909
13527.5 0.369 67.827 0.926 -21.683 0.926 -21.683 0.369 67.827
13552.458 0.371 67.745 0.926 -21.767 0.926 -21.767 0.371 67.745
13577.417 0.372 67.664 0.925 -21.851 0.925 -21.851 0.372 67.664
13602.375 0.374 67.582 0.924 -21.934 0.924 -21.934 0.374 67.582
13627.333 0.375 67.501 0.924 -22.017 0.924 -22.017 0.375 67.501
13652.292 0.376 67.42 0.923 -22.1 0.923 -22.1 0.376 67.42
13677.25 0.378 67.339 0.923 -22.183 0.923 -22.183 0.378 67.339
13702.208 0.379 67.259 0.922 -22.266 0.922 -22.266 0.379 67.259
13727.167 0.38 67.178 0.922 -22.348 0.922 -22.348 0.38 67.178
13752.125 0.382 67.098 0.921 -22.431 0.921 -22.431 0.382 67.098
13777.083 0.383 67.017 0.921 -22.513 0.921 -22.513 0.383 67.017
13802.042 0.384 66.937 0.92 -22.595 0.92 -22.595 0.384 66.937
13827 0.386 66.857 0.92 -22.676 0.92 -22.676 0.386 66.857
13851.958 0.387 66.778 0.919 -22.758 0.919 -22.758 0.387 66.778
13876.917 0.388 66.698 0.918 -22.839 0.918 -22.839 0.388 66.698
13901.875 0.389 66.619 0.918 -22.921 0.918 -22.921 0.389 66.619
13926.833 0.391 66.539 0.917 -23.002 0.917 -23.002 0.391 66.539
13951.792 0.392 66.46 0.917 -23.083 0.917 -23.083 0.392 66.46
13976.75 0.393 66.381 0.916 -23.163 0.916 -23.163 0.393 66.381
14001.708 0.395 66.303 0.916 -23.244 0.916 -23.244 0.395 66.303
14026.667 0.396 66.224 0.915 -23.324 0.915 -23.324 0.396 66.224
14051.625 0.397 66.146 0.915 -23.404 0.915 -23.404 0.397 66.146
14076.583 0.399 66.067 0.914 -23.484 0.914 -23.484 0.399 66.067
14101.542 0.4 65.989 0.913 -23.564 0.913 -23.564 0.4 65.989
14126.5 0.401 65.911 0.913 -23.644 0.913 -23.644 0.401 65.911
14151.458 0.402 65.833 0.912 -23.723 0.912 -23.723 0.402 65.833
14176.417 0.404 65.756 0.912 -23.803 0.912 -23.803 0.404 65.756
14201.375 0.405 65.678 0.911 -23.882 0.911 -23.882 0.405 65.678
14226.333 0.406 65.601 0.911 -23.961 0.911 -23.961 0.406 65.601
14251.292 0.407 65.524 0.91 -24.04 0.91 -24.04 0.407 65.524
14276.25 0.409 65.447 0.91 -24.118 0.91 -24.118 0.409 65.447
14301.208 0.41 65.37 0.909 -24.197 0.909 -24.197 0.41 65.37
14326.167 0.411 65.293 0.908 -24.275 0.908 -24.275 0.411 65.293
14351.125 0.412 65.216 0.908 -24.353 0.908 -24.353 0.412 65.216
14376.083 0.414 65.14 0.907 -24.431 0.907 -24.431 0.414 65.14
14401.042 0.415 65.064 0.907 -24.509 0.907 -24.509 0.415 65.064
14426 0.416 64.988 0.906 -24.587 0.906 -24.587 0.416 64.988
14450.958 0.417 64.912 0.906 -24.664 0.906 -24.664 0.417 64.912
14475.917 0.419 64.836 0.905 -24.741 0.905 -24.741 0.419 64.836
14500.875 0.42 64.76 0.905 -24.819 0.905 -24.819 0.42 64.76
14525.833 0.421 64.685 0.904 -24.896 0.904 -24.896 0.421 64.685
14550.792 0.422 64.609 0.903 -24.972 0.903 -24.972 0.422 64.609
14575.75 0.423 64.534 0.903 -25.049 0.903 -25.049 0.423 64.534
14600.708 0.425 64.459 0.902 -25.126 0.902 -25.126 0.425 64.459
14625.667 0.426 64.384 0.902 -25.202 0.902 -25.202 0.426 64.384
14650.625 0.427 64.309 0.901 -25.278 0.901 -25.278 0.427 64.309
14675.583 0.428 64.235 0.901 -25.354 0.901 -25.354 0.428 64.235
14700.542 0.429 64.16 0.9 -25.43 0.9 -25.43 0.429 64.16
14725.5 0.431 64.086 0.899 -25.506 0.899 -25.506 0.431 64.086
14750.458 0.432 64.012 0.899 -25.581 0.899 -25.581 0.432 64.012
14775.417 0.433 63.938 0.898 -25.657 0.898 -25.657 0.433 63.938
14800.375 0.434 63.864 0.898 -25.732 0.898 -25.732 0.434 63.864
14825.333 0.435 63.79 0.897 -25.807 0.897 -25.807 0.435 63.79
14850.292 0.437 63.717 0.897 -25.882 0.897 -25.882 0.437 63.717
14875.25 0.438 63.643 0.896 -25.956 0.896 -25.956 0.438 63.643
14900.208 0.439 63.57 0.896 -26.031 0.896 -26.031 0.439 63.57
14925.167 0.44 63.497 0.895 -26.105 0.895 -26.105 0.44 63.497
14950.125 0.441 63.424 0.894 -26.18 0.894 -26.18 0.441 63.424
14975.083 0.442 63.351 0.894 -26.254 0.894 -26.254 0.442 63.351
15000.042 0.444 63.279 0.893 -26.328 0.893 -26.328 0.444 63.279
15025 0.445 63.206 0.893 -26.402 0.893 -26.402 0.445 63.206
15049.958 0.446 63.134 0.892 -26.475 0.892 -26.475 0.446 63.134
15074.917 0.447 63.061 0.892 -26.549 0.892 -26.549 0.447 63.061
15099.875 0.448 62.989 0.891 -26.622 0.891 -26.622 0.448 62.989
15124.833 0.449 62.917 0.89 -26.695 0.89 -26.695 0.449 62.917
15149.792 0.45 62.846 0.89 -26.768 0.89 -26.768 0.45 62.846
15174.75 0.452 62.774 0.889 -26.841 0.889 -26.841 0.452 62.774
15199.708 0.453 62.702 0.889 -26.914 0.889 -26.914 0.453 62.702
15224.667 0.454 62.631 0.888 -26.987 0.888 -26.987 0.454 62.631
15249.625 0.455 62.56 0.888 -27.059 0.888 -27.059 0.455 62.56
15274.583 0.456 62.489 0.887 -27.131 0.887 -27.131 0.456 62.489
15299.542 0.457 62.418 0.886 -27.203 0.886 -27.203 0.457 62.418
15324.5 0.458 62.347 0.886 -27.275 0.886 -27.275 0.458 62.347
15349.458 0.459 62.276 0.885 -27.347 0.885 -27.347 0.459 62.276
15374.417 0.461 62.206 0.885 -27.419 0.885 -27.419 0.461 62.206
15399.375 0.462 62.135 0.884 -27.491 0.884 -27.491 0.462 62.135
15424.333 0.463 62.065 0.883 -27.562 0.883 -27.562 0.463 62.065
15449.292 0.464 61.995 0.883 -27.633 0.883 -27.633 0.464 61.995
15474.25 0.465 61.925 0.882 -27.704 0.882 -27.704 0.465 61.925
15499.208 0.466 61.855 0.882 -27.775 0.882 -27.775 0.466 61.855
15524.167 0.467 61.785 0.881 -27.846 0.881 -27.846 0.467 61.785
15549.125 0.468 61.716 0.881 -27.917 0.881 -27.917 0.468 61.716
15574.083 0.469 61.646 0.88 -27.987 0.88 -27.987 0.469 61.646
15599.042 0.47 61.577 0.879 -28.058 0.879 -28.058 0.47 61.577
15624 0.471 61.508 0.879 -28.128 0.879 -28.128 0.471 61.508
15648.958 0.473 61.439 0.878 -28.198 0.878 -28.198 0.473 61.439
15673.917 0.474 61.37 0.878 -28.268 0.878 -28.268 0.474 61.37
15698.875 0.475 61.301 0.877 -28.338 0.877 -28.338 0.475 61.301
15723.833 0.476 61.232 0.877 -28.408 0.877 -28.408 0.476 61.232
15748.792 0.477 61.164 0.876 -28.477 0.876 -28.477 0.477 61.164
15773.75 0.478 61.096 0.875 -28.546 0.875 -28.546 0.478 61.096
15798.708 0.479 61.027 0.875 -28.616 0.875 -28.616 0.479 61.027
15823.667 0.48 60.959 0.874 -28.685 0.874 -28.685 0.48 60.959
15848.625 0.481 60.891 0.874 -28.754 0.874 -28.754 0.481 60.891
15873.583 0.482 60.823 0.873 -28.823 0.873 -28.823 0.482 60.823
15898.542 0.483 60.756 0.873 -28.891 0.873 -28.891 0.483 60.756
15923.5 0.484 60.688 0.872 -28.96 0.872 -28.96 0.484 60.688
15948.458 0.485 60.621 0.871 -29.028 0.871 -29.028 0.485 60.621
15973.417 0.486 60.554 0.871 -29.097 0.871 -29.097 0.486 60.554
15998.375 0.487 60.486 0.87 -29.165 0.87 -29.165 0.487 60.486
16023.333 0.488 60.419 0.87 -29.233 0.87 -29.233 0.488 60.419
16048.292 0.489 60.352 0.869 -29.301 0.869 -29.301 0.489 60.352
16073.25 0.49 60.286 0.869 -29.368 0.869 -29.368 0.49 60.286
16098.208 0.491 60.219 0.868 -29.436 0.868 -29.436 0.491 60.219
16123.167 0.492 60.153 0.867 -29.503 0.867 -29.503 0.492 60.153
16148.125 0.494 60.086 0.867 -29.571 0.867 -29.571 0.494 60.086
16173.083 0.495 60.02 0.866 -29.638 0.866 -29.638 0.495 60.02
16198.042 0.496 59.954 0.866 -29.705 0.866 -29.705 0.496 59.954
16223 0.497 59.888 0.865 -29.772 0.865 -29.772 0.497 59.888
16247.958 0.498 59.822 0.864 -29.839 0.864 -29.839 0.498 59.822
16272.917 0.499 59.756 0.864 -29.905 0.864 -29.905 0.499 59.756
16297.875 0.5 59.691 0.863 -29.972 0.863 -29.972 0.5 59.691
16322.833 0.501 59.625 0.863 -30.038 0.863 -30.038 0.501 59.625
16347.792 0.502 59.56 0.862 -30.104 0.862 -30.104 0.502 59.56
16372.75 0.503 59.494 0.862 -30.17 0.862 -30.17 0.503 59.494
16397.708 0.504 59.429 0.861 -30.236 0.861 -30.236 0.504 59.429
16422.667 0.505 59.364 0.86 -30.302 0.86 -30.302 0.505 59.364
16447.625 0.506 59.3 0.86 -30.368 0.86 -30.368 0.506 59.3
16472.583 0.507 59.235 0.859 -30.434 0.859 -30.434 0.507 59.235
16497.542 0.508 59.17 0.859 -30.499 0.859 -30.499 0.508 59.17
16522.5 0.509 59.106 0.858 -30.564 0.858 -30.564 0.509 59.106
16547.458 0.509 59.041 0.858 -30.63 0.858 -30.63 0.509 59.041
16572.417 0.51 58.977 0.857 -30.695 0.857 -30.695 0.51 58.977
16597.375 0.511 58.913 0.856 -30.76 0.856 -30.76 0.511 58.913
16622.333 0.512 58.849 0.856 -30.825 0.856 -30.825 0.512 58.849
16647.292 0.513 58.785 0.855 -30.889 0.855 -30.889 0.513 58.785
16672.25 0.514 58.721 0.855 -30.954 0.855 -30.954 0.514 58.721
16697.208 0.515 58.658 0.854 -31.018 0.854 -31.018 0.515 58.658
16722.167 0.516 58.594 0.854 -31.083 0.854 -31.083 0.516 58.594
16747.125 0.517 58.531 0.853 -31.147 0.853 -31.147 0.517 58.531
16772.083 0.518 58.468 0.852 -31.211 0.852 -31.211 0.518 58.468
16797.042 0.519 58.405 0.852 -31.275 0.852 -31.275 0.519 58.405
16822 0.52 58.342 0.851 -31.339 0.851 -31.339 0.52 58.342
16846.958 0.521 58.279 0.851 -31.402 0.851 -31.402 0.521 58.279
16871.917 0.522 58.216 0.85 -31.466 0.85 -31.466 0.522 58.216
16896.875 0.523 58.153 0.849 -31.529 0.849 -31.529 0.523 58.153
16921.833 0.524 58.091 0.849 -31.593 0.849 -31.593 0.524 58.091
16946.792 0.525 58.028 0.848 -31.656 0.848 -31.656 0.525 58.028
16971.75 0.526 57.966 0.848 -31.719 0.848 -31.719 0.526 57.966
16996.708 0.527 57.904 0.847 -31.782 0.847 -31.782 0.527 57.904
17021.667 0.528 57.842 0.847 -31.845 0.847 -31.845 0.528 57.842
17046.625 0.529 57.78 0.846 -31.907 0.846 -31.907 0.529 57.78
17071.583 0.529 57.718 0.845 -31.97 0.845 -31.97 0.529 57.718
17096.542 0.53 57.656 0.845 -32.032 0.845 -32.032 0.53 57.656
17121.5 0.531 57.595 0.844 -32.095 0.844 -32.095 0.531 57.595
17146.458 0.532 57.533 0.844 -32.157 0.844 -32.157 0.532 57.533
17171.417 0.533 57.472 0.843 -32.219 0.843 -32.219 0.533 57.472
17196.375 0.534 57.411 0.843 -32.281 0.843 -32.281 0.534 57.411
17221.333 0.535 57.35 0.842 -32.343 0.842 -32.343 0.535 57.35
17246.292 0.536 57.289 0.841 -32.405 0.841 -32.405 0.536 57.289
17271.25 0.537 57.228 0.841 -32.466 0.841 -32.466 0.537 57.228
17296.208 0.538 57.167 0.84 -32.528 0.84 -32.528 0.538 57.167
17321.167 0.539 57.106 0.84 -32.589 0.84 -32.589 0.539 57.106
17346.125 0.54 57.046 0.839 -32.65 0.839 -32.65 0.54 57.046
17371.083 0.54 56.985 0.839 -32.711 0.839 -32.711 0.54 56.985
17396.042 0.541 56.925 0.838 -32.772 0.838 -32.772 0.541 56.925
17421 0.542 56.865 0.837 -32.833 0.837 -32.833 0.542 56.865
17445.958 0.543 56.805 0.837 -32.894 0.837 -32.894 0.543 56.805
17470.917 0.544 56.745 0.836 -32.955 0.836 -32.955 0.544 56.745
17495.875 0.545 56.685 0.836 -33.015 0.836 -33.015 0.545 56.685
17520.833 0.546 56.625 0.835 -33.076 0.835 -33.076 0.546 56.625
17545.792 0.547 56.565 0.835 -33.136 0.835 -33.136 0.547 56.565
17570.75 0.548 56.506 0.834 -33.196 0.834 -33.196 0.548 56.506
17595.708 0.548 56.447 0.833 -33.256 0.833 -33.256 0.548 56.447
17620.667 0.549 56.387 0.833 -33.316 0.833 -33.316 0.549 56.387
17645.625 0.55 56.328 0.832 -33.376 0.832 -33.376 0.55 56.328
17670.583 0.551 56.269 0.832 -33.436 0.832 -33.436 0.551 56.269
17695.542 0.552 56.21 0.831 -33.496 0.831 -33.496 0.552 56.21
17720.5 0.553 56.151 0.831 -33.555 0.831 -33.555 0.553 56.151
17745.458 0.554 56.092 0.83 -33.615 0.83 -33.615 0.554 56.092
17770.417 0.554 56.034 0.829 -33.674 0.829 -33.674 0.554 56.034
17795.375 0.555 55.975 0.829 -33.733 0.829 -33.733 0.555 55.975
17820.333 0.556 55.917 0.828 -33.792 0.828 -33.792 0.556 55.917
17845.292 0.557 55.858 0.828 -33.851 0.828 -33.851 0.557 55.858
17870.25 0.558 55.8 0.827 -33.91 0.827 -33.91 0.558 55.8
17895.208 0.559 55.742 0.827 -33.969 0.827 -33.969 0.559 55.742
17920.167 0.56 55.684 0.826 -34.027 0.826 -34.027 0.56 55.684
17945.125 0.56 55.626 0.825 -34.086 0.825 -34.086 0.56 55.626
17970.083 0.561 55.569 0.825 -34.144 0.825 -34.144 0.561 55.569
17995.042 0.562 55.511 0.824 -34.203 0.824 -34.203 0.562 55.511
18020 0.563 55.453 0.824 -34.261 0.824 -34.261 0.563 55.453
18044.958 0.564 55.396 0.823 -34.319 0.823 -34.319 0.564 55.396
18069.917 0.565 55.339 0.823 -34.377 0.823 -34.377 0.565 55.339
18094.875 0.565 55.281 0.822 -34.435 0.822 -34.435 0.565 55.281
18119.833 0.566 55.224 0.821 -34.492 0.821 -34.492 0.566 55.224
18144.792 0.567 55.167 0.821 -34.55 0.821 -34.55 0.567 55.167
18169.75 0.568 55.11 0.82 -34.608 0.82 -34.608 0.568 55.11
18194.708 0.569 55.053 0.82 -34.665 0.82 -34.665 0.569 55.053
18219.667 0.57 54.997 0.819 -34.722 0.819 -34.722 0.57 54.997
18244.625 0.57 54.94 0.819 -34.779 0.819 -34.779 0.57 54.94
18269.583 0.571 54.884 0.818 -34.837 0.818 -34.837 0.571 54.884
18294.542 0.572 54.827 0.817 -34.894 0.817 -34.894 0.572 54.827
18319.5 0.573 54.771 0.817 -34.95 0.817 -34.95 0.573 54.771
18344.458 0.574 54.715 0.816 -35.007 0.816 -35.007 0.574 54.715
18369.417 0.574 54.659 0.816 -35.064 0.816 -35.064 0.574 54.659
18394.375 0.575 54.603 0.815 -35.12 0.815 -35.12 0.575 54.603
18419.333 0.576 54.547 0.815 -35.177 0.815 -35.177 0.576 54.547
18444.292 0.577 54.491 0.814 -35.233 0.814 -35.233 0.577 54.491
18469.25 0.578 54.435 0.813 -35.29 0.813 -35.29 0.578 54.435
18494.208 0.579 54.38 0.813 -35.346 0.813 -35.346 0.579 54.38
18519.167 0.579 54.324 0.812 -35.402 0.812 -35.402 0.579 54.324
18544.125 0.58 54.269 0.812 -35.458 0.812 -35.458 0.58 54.269
18569.083 0.581 54.214 0.811 -35.514 0.811 -35.514 0.581 54.214
18594.042 0.582 54.158 0.811 -35.569 0.811 -35.569 0.582 54.158
18619 0.582 54.103 0.81 -35.625 0.81 -35.625 0.582 54.103
18643.958 0.583 54.048 0.81 -35.68 0.81 -35.68 0.583 54.048
18668.917 0.584 53.993 0.809 -35.736 0.809 -35.736 0.584 53.993
18693.875 0.585 53.939 0.808 -35.791 0.808 -35.791 0.585 53.939
18718.833 0.586 53.884 0.808 -35.846 0.808 -35.846 0.586 53.884
18743.792 0.586 53.829 0.807 -35.901 0.807 -35.901 0.586 53.829
18768.75 0.587 53.775 0.807 -35.956 0.807 -35.956 0.587 53.775
18793.708 0.588 53.721 0.806 -36.011 0.806 -36.011 0.588 53.721
18818.667 0.589 53.666 0.806 -36.066 0.806 -36.066 0.589 53.666
18843.625 0.589 53.612 0.805 -36.121 0.805 -36.121 0.589 53.612
18868.583 0.59 53.558 0.804 -36.176 0.804 -36.176 0.59 53.558
18893.542 0.591 53.504 0.804 -36.23 0.804 -36.23 0.591 53.504
18918.5 0.592 53.45 0.803 -36.284 0.803 -36.284 0.592 53.45
18943.458 0.593 53.396 0.803 -36.339 0.803 -36.339 0.593 53.396
18968.417 0.593 53.343 0.802 -36.393 0.802 -36.393 0.593 53.343
18993.375 0.594 53.289 0.802 -36.447 0.802 -36.447 0.594 53.289
19018.333 0.595 53.236 0.801 -36.501 0.801 -36.501 0.595 53.236
19043.292 0.596 53.182 0.801 -36.555 0.801 -36.555 0.596 53.182
19068.25 0.596 53.129 0.8 -36.609 0.8 -36.609 0.596 53.129
19093.208 0.597 53.076 0.799 -36.663 0.799 -36.663 0.597 53.076
19118.167 0.598 53.023 0.799 -36.716 0.799 -36.716 0.598 53.023
19143.125 0.599 52.97 0.798 -36.77 0.798 -36.77 0.599 52.97
19168.083 0.599 52.917 0.798 -36.823 0.798 -36.823 0.599 52.917
19193.042 0.6 52.864 0.797 -36.876 0.797 -36.876 0.6 52.864
19218 0.601 52.811 0.797 -36.93 0.797 -36.93 0.601 52.811
19242.958 0.602 52.759 0.796 -36.983 0.796 -36.983 0.602 52.759
19267.917 0.602 52.706 0.796 -37.036 0.796 -37.036 0.602 52.706
19292.875 0.603 52.654 0.795 -37.089 0.795 -37.089 0.603 52.654
19317.833 0.604 52.601 0.794 -37.142 0.794 -37.142 0.604 52.601
19342.792 0.605 52.549 0.794 -37.194 0.794 -37.194 0.605 52.549
19367.75 0.605 52.497 0.793 -37.247 0.793 -37.247 0.605 52.497
19392.708 0.606 52.445 0.793 -37.3 0.793 -37.3 0.606 52.445
19417.667 0.607 52.393 0.792 -37.352 0.792 -37.352 0.607 52.393
19442.625 0.607 52.341 0.792 -37.404 0.792 -37.404 0.607 52.341
19467.583 0.608 52.289 0.791 -37.457 0.791 -37.457 0.608 52.289
19492.542 0.609 52.237 0.791 -37.509 0.791 -37.509 0.609 52.237
19517.5 0.61 52.186 0.79 -37.561 0.79 -37.561 0.61 52.186
19542.458 0.61 52.134 0.789 -37.613 0.789 -37.613 0.61 52.134
19567.417 0.611 52.083 0.789 -37.665 0.789 -37.665 0.611 52.083
19592.375 0.612 52.032 0.788 -37.717 0.788 -37.717 0.612 52.032
19617.333 0.612 51.98 0.788 -37.768 0.788 -37.768 0.612 51.98
19642.292 0.613 51.929 0.787 -37.82 0.787 -37.82 0.613 51.929
19667.25 0.614 51.878 0.787 -37.871 0.787 -37.871 0.614 51.878
19692.208 0.615 51.827 0.786 -37.923 0.786 -37.923 0.615 51.827
19717.167 0.615 51.776 0.786 -37.974 0.786 -37.974 0.615 51.776
19742.125 0.616 51.725 0.785 -38.025 0.785 -38.025 0.616 51.725
19767.083 0.617 51.675 0.785 -38.077 0.785 -38.077 0.617 51.675
19792.042 0.617 51.624 0.784 -38.128 0.784 -38.128 0.617 51.624
19817 0.618 51.574 0.783 -38.179 0.783 -38.179 0.618 51.574
19841.958 0.619 51.523 0.783 -38.23 0.783 -38.23 0.619 51.523
19866.917 0.62 51.473 0.782 -38.28 0.782 -38.28 0.62 51.473
19891.875 0.62 51.423 0.782 -38.331 0.782 -38.331 0.62 51.423
19916.833 0.621 51.372 0.781 -38.382 0.781 -38.382 0.621 51.372
19941.792 0.622 51.322 0.781 -38.432 0.781 -38.432 0.622 51.322
19966.75 0.622 51.272 0.78 -38.483 0.78 -38.483 0.622 51.272
19991.708 0.623 51.223 0.78 -38.533 0.78 -38.533 0.623 51.223
20016.667 0.624 51.173 0.779 -38.583 0.779 -38.583 0.624 51.173
20041.625 0.624 51.123 0.779 -38.633 0.779 -38.633 0.624 51.123
20066.583 0.625 51.073 0.778 -38.683 0.778 -38.683 0.625 51.073
20091.542 0.626 51.024 0.777 -38.733 0.777 -38.733 0.626 51.024
20116.5 0.626 50.974 0.777 -38.783 0.777 -38.783 0.626 50.974
20141.458 0.627 50.925 0.776 -38.833 0.776 -38.833 0.627 50.925
20166.417 0.628 50.876 0.776 -38.883 0.776 -38.883 0.628 50.876
20191.375 0.628 50.827 0.775 -38.932 0.775 -38.932 0.628 50.827
20216.333 0.629 50.777 0.775 -38.982 0.775 -38.982 0.629 50.777
20241.292 0.63 50.728 0.774 -39.031 0.774 -39.031 0.63 50.728
20266.25 0.63 50.679 0.774 -39.081 0.774 -39.081 0.63 50.679
20291.208 0.631 50.631 0.773 -39.13 0.773 -39.13 0.631 50.631
20316.167 0.632 50.582 0.773 -39.179 0.773 -39.179 0.632 50.582
20341.125 0.632 50.533 0.772 -39.228 0.772 -39.228 0.632 50.533
20366.083 0.633 50.485 0.771 -39.277 0.771 -39.277 0.633 50.485
20391.042 0.634 50.436 0.771 -39.326 0.771 -39.326 0.634 50.436
20416 0.634 50.388 0.77 -39.375 0.77 -39.375 0.634 50.388
20440.958 0.635 50.339 0.77 -39.424 0.77 -39.424 0.635 50.339
20465.917 0.636 50.291 0.769 -39.473 0.769 -39.473 0.636 50.291
20490.875 0.636 50.243 0.769 -39.521 0.769 -39.521 0.636 50.243
20515.833 0.637 50.195 0.768 -39.57 0.768 -39.57 0.637 50.195
20540.792 0.638 50.147 0.768 -39.618 0.768 -39.618 0.638 50.147
20565.75 0.638 50.099 0.767 -39.666 0.767 -39.666 0.638 50.099
20590.708 0.639 50.051 0.767 -39.715 0.767 -39.715 0.639 50.051
20615.667 0.64 50.003 0.766 -39.763 0.766 -39.763 0.64 50.003
20640.625 0.64 49.955 0.766 -39.811 0.766 -39.811 0.64 49.955
20665.583 0.641 49.908 0.765 -39.859 0.765 -39.859 0.641 49.908
20690.542 0.642 49.86 0.764 -39.907 0.764 -39.907 0.642 49.86
20715.5 0.642 49.813 0.764 -39.955 0.764 -39.955 0.642 49.813
20740.458 0.643 49.766 0.763 -40.002 0.763 -40.002 0.643 49.766
20765.417 0.643 49.718 0.763 -40.05 0.763 -40.05 0.643 49.718
20790.375 0.644 49.671 0.762 -40.098 0.762 -40.098 0.644 49.671
20815.333 0.645 49.624 0.762 -40.145 0.762 -40.145 0.645 49.624
20840.292 0.645 49.577 0.761 -40.192 0.761 -40.192 0.645 49.577
20865.25 0.646 49.53 0.761 -40.24 0.761 -40.24 0.646 49.53
20890.208 0.647 49.483 0.76 -40.287 0.76 -40.287 0.647 49.483
20915.167 0.647 49.436 0.76 -40.334 0.76 -40.334 0.647 49.436
20940.125 0.648 49.39 0.759 -40.381 0.759 -40.381 0.648 49.39
20965.083 0.649 49.343 0.759 -40.428 0.759 -40.428 0.649 49.343
20990.042 0.649 49.297 0.758 -40.475 0.758 -40.475 0.649 49.297
21015 0.65 49.25 0.758 -40.522 0.758 -40.522 0.65 49.25
21039.958 0.65 49.204 0.757 -40.569 0.757 -40.569 0.65 49.204
21064.917 0.651 49.157 0.757 -40.615 0.757 -40.615 0.651 49.157
21089.875 0.652 49.111 0.756 -40.662 0.756 -40.662 0.652 49.111
21114.833 0.652 49.065 0.755 -40.709 0.755 -40.709 0.652 49.065
21139.792 0.653 49.019 0.755 -40.755 0.755 -40.755 0.653 49.019
21164.75 0.653 48.973 0.754 -40.801 0.754 -40.801 0.653 48.973
21189.708 0.654 48.927 0.754 -40.848 0.754 -40.848 0.654 48.927
21214.667 0.655 48.881 0.753 -40.894 0.753 -40.894 0.655 48.881
21239.625 0.655 48.835 0.753 -40.94 0.753 -40.94 0.655 48.835
21264.583 0.656 48.79 0.752 -40.986 0.752 -40.986 0.656 48.79
21289.542 0.656 48.744 0.752 -41.032 0.752 -41.032 0.656 48.744
21314.5 0.657 48.699 0.751 -41.078 0.751 -41.078 0.657 48.699
21339.458 0.658 48.653 0.751 -41.124 0.751 -41.124 0.658 48.653
21364.417 0.658 48.608 0.75 -41.169 0.75 -41.169 0.658 48.608
21389.375 0.659 48.563 0.75 -41.215 0.75 -41.215 0.659 48.563
21414.333 0.659 48.517 0.749 -41.261 0.749 -41.261 0.659 48.517
21439.292 0.66 48.472 0.749 -41.306 0.749 -41.306 0.66 48.472
21464.25 0.661 48.427 0.748 -41.351 0.748 -41.351 0.661 48.427
21489.208 0.661 48.382 0.748 -41.397 0.748 -41.397 0.661 48.382
21514.167 0.662 48.337 0.747 -41.442 0.747 -41.442 0.662 48.337
21539.125 0.662 48.292 0.747 -41.487 0.747 -41.487 0.662 48.292
21564.083 0.663 48.248 0.746 -41.532 0.746 -41.532 0.663 48.248
21589.042 0.664 48.203 0.746 -41.577 0.746 -41.577 0.664 48.203
21614 0.664 48.158 0.745 -41.622 0.745 -41.622 0.664 48.158
21638.958 0.665 48.114 0.744 -41.667 0.744 -41.667 0.665 48.114
21663.917 0.665 48.069 0.744 -41.712 0.744 -41.712 0.665 48.069
21688.875 0.666 48.025 0.743 -41.757 0.743 -41.757 0.666 48.025
21713.833 0.667 47.981 0.743 -41.801 0.743 -41.801 0.667 47.981
21738.792 0.667 47.937 0.742 -41.846 0.742 -41.846 0.667 47.937
21763.75 0.668 47.892 0.742 -41.89 0.742 -41.89 0.668 47.892
21788.708 0.668 47.848 0.741 -41.935 0.741 -41.935 0.668 47.848
21813.667 0.669 47.804 0.741 -41.979 0.741 -41.979 0.669 47.804
21838.625 0.669 47.76 0.74 -42.023 0.74 -42.023 0.669 47.76
21863.583 0.67 47.717 0.74 -42.068 0.74 -42.068 0.67 47.717
21888.542 0.671 47.673 0.739 -42.112 0.739 -42.112 0.671 47.673
21913.5 0.671 47.629 0.739 -42.156 0.739 -42.156 0.671 47.629
21938.458 0.672 47.585 0.738 -42.2 0.738 -42.2 0.672 47.585
21963.417 0.672 47.542 0.738 -42.244 0.738 -42.244 0.672 47.542
21988.375 0.673 47.498 0.737 -42.287 0.737 -42.287 0.673 47.498
22013.333 0.673 47.455 0.737 -42.331 0.737 -42.331 0.673 47.455
22038.292 0.674 47.412 0.736 -42.375 0.736 -42.375 0.674 47.412
22063.25 0.675 47.368 0.736 -42.418 0.736 -42.418 0.675 47.368
22088.208 0.675 47.325 0.735 -42.462 0.735 -42.462 0.675 47.325
22113.167 0.676 47.282 0.735 -42.505 0.735 -42.505 0.676 47.282
22138.125 0.676 47.239 0.734 -42.549 0.734 -42.549 0.676 47.239
22163.083 0.677 47.196 0.734 -42.592 0.734 -42.592 0.677 47.196
22188.042 0.677 47.153 0.733 -42.635 0.733 -42.635 0.677 47.153
22213 0.678 47.11 0.733 -42.679 0.733 -42.679 0.678 47.11
22237.958 0.678 47.067 0.732 -42.722 0.732 -42.722 0.678 47.067
22262.917 0.679 47.025 0.732 -42.765 0.732 -42.765 0.679 47.025
22287.875 0.68 46.982 0.731 -42.808 0.731 -42.808 0.68 46.982
22312.833 0.68 46.94 0.731 -42.85 0.731 -42.85 0.68 46.94
22337.792 0.681 46.897 0.73 -42.893 0.73 -42.893 0.681 46.897
22362.75 0.681 46.855 0.73 -42.936 0.73 -42.936 0.681 46.855
22387.708 0.682 46.812 0.729 -42.979 0.729 -42.979 0.682 46.812
22412.667 0.682 46.77 0.729 -43.021 0.729 -43.021 0.682 46.77
22437.625 0.683 46.728 0.728 -43.064 0.728 -43.064 0.683 46.728
22462.583 0.683 46.686 0.728 -43.106 0.728 -43.106 0.683 46.686
22487.542 0.684 46.644 0.727 -43.149 0.727 -43.149 0.684 46.644
22512.5 0.684 46.602 0.727 -43.191 0.727 -43.191 0.684 46.602
22537.458 0.685 46.56 0.726 -43.233 0.726 -43.233 0.685 46.56
22562.417 0.686 46.518 0.726 -43.275 0.726 -43.275 0.686 46.518
22587.375 0.686 46.476 0.725 -43.317 0.725 -43.317 0.686 46.476
22612.333 0.687 46.434 0.725 -43.359 0.725 -43.359 0.687 46.434
22637.292 0.687 46.393 0.724 -43.401 0.724 -43.401 0.687 46.393
22662.25 0.688 46.351 0.724 -43.443 0.724 -43.443 0.688 46.351
22687.208 0.688 46.31 0.723 -43.485 0.723 -43.485 0.688 46.31
22712.167 0.689 46.268 0.723 -43.527 0.723 -43.527 0.689 46.268
22737.125 0.689 46.227 0.722 -43.568 0.722 -43.568 0.689 46.227
22762.083 0.69 46.185 0.722 -43.61 0.722 -43.61 0.69 46.185
22787.042 0.69 46.144 0.721 -43.652 0.721 -43.652 0.69 46.144
22812 0.691 46.103 0.721 -43.693 0.721 -43.693 0.691 46.103
22836.958 0.691 46.062 0.72 -43.735 0.72 -43.735 0.691 46.062
22861.917 0.692 46.021 0.72 -43.776 0.72 -43.776 0.692 46.021
22886.875 0.692 45.98 0.719 -43.817 0.719 -43.817 0.692 45.98
22911.833 0.693 45.939 0.719 -43.858 0.719 -43.858 0.693 45.939
22936.792 0.693 45.898 0.718 -43.899 0.718 -43.899 0.693 45.898
22961.75 0.694 45.857 0.718 -43.941 0.718 -43.941 0.694 45.857
22986.708 0.694 45.817 0.717 -43.982 0.717 -43.982 0.694 45.817
23011.667 0.695 45.776 0.717 -44.022 0.717 -44.022 0.695 45.776
23036.625 0.695 45.735 0.716 -44.063 0.716 -44.063 0.695 45.735
23061.583 0.696 45.695 0.716 -44.104 0.716 -44.104 0.696 45.695
23086.542 0.696 45.654 0.715 -44.145 0.715 -44.145 0.696 45.654
23111.5 0.697 45.614 0.715 -44.185 0.715 -44.185 0.697 45.614
23136.458 0.697 45.574 0.714 -44.226 0.714 -44.226 0.697 45.574
23161.417 0.698 45.534 0.714 -44.267 0.714 -44.267 0.698 45.534
23186.375 0.699 45.493 0.713 -44.307 0.713 -44.307 0.699 45.493
23211.333 0.699 45.453 0.713 -44.347 0.713 -44.347 0.699 45.453
23236.292 0.7 45.413 0.712 -44.388 0.712 -44.388 0.7 45.413
23261.25 0.7 45.373 0.712 -44.428 0.712 -44.428 0.7 45.373
23286.208 0.701 45.333 0.711 -44.468 0.711 -44.468 0.701 45.333
23311.167 0.701 45.293 0.711 -44.508 0.711 -44.508 0.701 45.293
23336.125 0.702 45.254 0.71 -44.548 0.71 -44.548 0.702 45.254
23361.083 0.702 45.214 0.71 -44.588 0.71 -44.588 0.702 45.214
23386.042 0.703 45.174 0.709 -44.628 0.709 -44.628 0.703 45.174
23411 0.703 45.135 0.709 -44.668 0.709 -44.668 0.703 45.135
23435.958 0.703 45.095 0.708 -44.708 0.708 -44.708 0.703 45.095
23460.917 0.704 45.056 0.708 -44.748 0.708 -44.748 0.704 45.056
23485.875 0.704 45.016 0.707 -44.788 0.707 -44.788 0.704 45.016
23510.833 0.705 44.977 0.707 -44.827 0.707 -44.827 0.705 44.977
23535.792 0.705 44.938 0.706 -44.867 0.706 -44.867 0.705 44.938
23560.75 0.706 44.898 0.706 -44.906 0.706 -44.906 0.706 44.898
23585.708 0.706 44.859 0.705 -44.946 0.705 -44.946 0.706 44.859
23610.667 0.707 44.82 0.705 -44.985 0.705 -44.985 0.707 44.82
23635.625 0.707 44.781 0.704 -45.024 0.704 -45.024 0.707 44.781
23660.583 0.708 44.742 0.704 -45.064 0.704 -45.064 0.708 44.742
23685.542 0.708 44.703 0.703 -45.103 0.703 -45.103 0.708 44.703
23710.5 0.709 44.664 0.703 -45.142 0.703 -45.142 0.709 44.664
23735.458 0.709 44.626 0.702 -45.181 0.702 -45.181 0.709 44.626
23760.417 0.71 44.587 0.702 -45.22 0.702 -45.22 0.71 44.587
23785.375 0.71 44.548 0.702 -45.259 0.702 -45.259 0.71 44.548
23810.333 0.711 44.51 0.701 -45.298 0.701 -45.298 0.711 44.51
23835.292 0.711 44.471 0.701 -45.336 0.701 -45.336 0.711 44.471
23860.25 0.712 44.433 0.7 -45.375 0.7 -45.375 0.712 44.433
23885.208 0.712 44.394 0.7 -45.414 0.7 -45.414 0.712 44.394
23910.167 0.713 44.356 0.699 -45.452 0.699 -45.452 0.713 44.356
23935.125 0.713 44.318 0.699 -45.491 0.699 -45.491 0.713 44.318
23960.083 0.714 44.279 0.698 -45.529 0.698 -45.529 0.714 44.279
23985.042 0.714 44.241 0.698 -45.568 0.698 -45.568 0.714 44.241
24010 0.715 44.203 0.697 -45.606 0.697 -45.606 0.715 44.203
24034.958 0.715 44.165 0.697 -45.645 0.697 -45.645 0.715 44.165
24059.917 0.715 44.127 0.696 -45.683 0.696 -45.683 0.715 44.127
24084.875 0.716 44.089 0.696 -45.721 0.696 -45.721 0.716 44.089
24109.833 0.716 44.051 0.695 -45.759 0.695 -45.759 0.716 44.051
24134.792 0.717 44.013 0.695 -45.797 0.695 -45.797 0.717 44.013
24159.75 0.717 43.976 0.694 -45.835 0.694 -45.835 0.717 43.976
24184.708 0.718 43.938 0.694 -45.873 0.694 -45.873 0.718 43.938
24209.667 0.718 43.9 0.693 -45.911 0.693 -45.911 0.718 43.9
24234.625 0.719 43.863 0.693 -45.949 0.693 -45.949 0.719 43.863
24259.583 0.719 43.825 0.692 -45.986 0.692 -45.986 0.719 43.825
24284.542 0.72 43.788 0.692 -46.024 0.692 -46.024 0.72 43.788
24309.5 0.72 43.75 0.692 -46.062 0.692 -46.062 0.72 43.75
24334.458 0.721 43.713 0.691 -46.099 0.691 -46.099 0.721 43.713
24359.417 0.721 43.676 0.691 -46.137 0.691 -46.137 0.721 43.676
24384.375 0.721 43.639 0.69 -46.174 0.69 -46.174 0.721 43.639
24409.333 0.722 43.602 0.69 -46.212 0.69 -46.212 0.722 43.602
24434.292 0.722 43.564 0.689 -46.249 0.689 -46.249 0.722 43.564
24459.25 0.723 43.527 0.689 -46.286 0.689 -46.286 0.723 43.527
24484.208 0.723 43.49 0.688 -46.324 0.688 -46.324 0.723 43.49
24509.167 0.724 43.453 0.688 -46.361 0.688 -46.361 0.724 43.453
24534.125 0.724 43.417 0.687 -46.398 0.687 -46.398 0.724 43.417
24559.083 0.725 43.38 0.687 -46.435 0.687 -46.435 0.725 43.38
24584.042 0.725 43.343 0.686 -46.472 0.686 -46.472 0.725 43.343
24609 0.725 43.306 0.686 -46.509 0.686 -46.509 0.725 43.306
24633.958 0.726 43.27 0.685 -46.546 0.685 -46.546 0.726 43.27
24658.917 0.726 43.233 0.685 -46.583 0.685 -46.583 0.726 43.233
24683.875 0.727 43.197 0.685 -46.619 0.685 -46.619 0.727 43.197
24708.833 0.727 43.16 0.684 -46.656 0.684 -46.656 0.727 43.16
24733.792 0.728 43.124 0.684 -46.693 0.684 -46.693 0.728 43.124
24758.75 0.728 43.087 0.683 -46.729 0.683 -46.729 0.728 43.087
24783.708 0.729 43.051 0.683 -46.766 0.683 -46.766 0.729 43.051
24808.667 0.729 43.015 0.682 -46.802 0.682 -46.802 0.729 43.015
24833.625 0.729 42.979 0.682 -46.839 0.682 -46.839 0.729 42.979
24858.583 0.73 42.943 0.681 -46.875 0.681 -46.875 0.73 42.943
24883.542 0.73 42.907 0.681 -46.911 0.681 -46.911 0.73 42.907
24908.5 0.731 42.871 0.68 -46.947 0.68 -46.947 0.731 42.871
24933.458 0.731 42.835 0.68 -46.984 0.68 -46.984 0.731 42.835
24958.417 0.732 42.799 0.679 -47.02 0.679 -47.02 0.732 42.799
24983.375 0.732 42.763 0.679 -47.056 0.679 -47.056 0.732 42.763
25008.333 0.732 42.727 0.679 -47.092 0.679 -47.092 0.732 42.727
25033.292 0.733 42.691 0.678 -47.128 0.678 -47.128 0.733 42.691
25058.25 0.733 42.656 0.678 -47.164 0.678 -47.164 0.733 42.656
25083.208 0.734 42.62 0.677 -47.2 0.677 -47.2 0.734 42.62
25108.167 0.734 42.584 0.677 -47.235 0.677 -47.235 0.734 42.584
25133.125 0.735 42.549 0.676 -47.271 0.676 -47.271 0.735 42.549
25158.083 0.735 42.514 0.676 -47.307 0.676 -47.307 0.735 42.514
25183.042 0.735 42.478 0.675 -47.342 0.675 -47.342 0.735 42.478
25208 0.736 42.443 0.675 -47.378 0.675 -47.378 0.736 42.443
25232.958 0.736 42.407 0.674 -47.413 0.674 -47.413 0.736 42.407
25257.917 0.737 42.372 0.674 -47.449 0.674 -47.449 0.737 42.372
25282.875 0.737 42.337 0.673 -47.484 0.673 -47.484 0.737 42.337
25307.833 0.738 42.302 0.673 -47.52 0.673 -47.52 0.738 42.302
25332.792 0.738 42.267 0.673 -47.555 0.673 -47.555 0.738 42.267
25357.75 0.738 42.232 0.672 -47.59 0.672 -47.59 0.738 42.232
25382.708 0.739 42.197 0.672 -47.625 0.672 -47.625 0.739 42.197
25407.667 0.739 42.162 0.671 -47.661 0.671 -47.661 0.739 42.162
25432.625 0.74 42.127 0.671 -47.696 0.671 -47.696 0.74 42.127
25457.583 0.74 42.092 0.67 -47.731 0.67 -47.731 0.74 42.092
25482.542 0.74 42.058 0.67 -47.766 0.67 -47.766 0.74 42.058
25507.5 0.741 42.023 0.669 -47.801 0.669 -47.801 0.741 42.023
25532.458 0.741 41.988 0.669 -47.835 0.669 -47.835 0.741 41.988
25557.417 0.742 41.954 0.669 -47.87 0.669 -47.87 0.742 41.954
25582.375 0.742 41.919 0.668 -47.905 0.668 -47.905 0.742 41.919
25607.333 0.742 41.885 0.668 -47.94 0.668 -47.94 0.742 41.885
25632.292 0.743 41.85 0.667 -47.974 0.667 -47.974 0.743 41.85
25657.25 0.743 41.816 0.667 -48.009 0.667 -48.009 0.743 41.816
25682.208 0.744 41.781 0.666 -48.043 0.666 -48.043 0.744 41.781
25707.167 0.744 41.747 0.666 -48.078 0.666 -48.078 0.744 41.747
25732.125 0.744 41.713 0.665 -48.112 0.665 -48.112 0.744 41.713
25757.083 0.745 41.679 0.665 -48.147 0.665 -48.147 0.745 41.679
25782.042 0.745 41.645 0.665 -48.181 0.665 -48.181 0.745 41.645
25807 0.746 41.611 0.664 -48.215 0.664 -48.215 0.746 41.611
25831.958 0.746 41.577 0.664 -48.25 0.664 -48.25 0.746 41.577
25856.917 0.746 41.543 0.663 -48.284 0.663 -48.284 0.746 41.543
25881.875 0.747 41.509 0.663 -48.318 0.663 -48.318 0.747 41.509
25906.833 0.747 41.475 0.662 -48.352 0.662 -48.352 0.747 41.475
25931.792 0.748 41.441 0.662 -48.386 0.662 -48.386 0.748 41.441
25956.75 0.748 41.407 0.661 -48.42 0.661 -48.42 0.748 41.407
25981.708 0.748 41.374 0.661 -48.454 0.661 -48.454 0.748 41.374
26006.667 0.749 41.34 0.661 -48.488 0.661 -48.488 0.749 41.34
26031.625 0.749 41.306 0.66 -48.522 0.66 -48.522 0.749 41.306
26056.583 0.75 41.273 0.66 -48.555 0.66 -48.555 0.75 41.273
26081.542 0.75 41.239 0.659 -48.589 0.659 -48.589 0.75 41.239
26106.5 0.75 41.206 0.659 -48.623 0.659 -48.623 0.75 41.206
26131.458 0.751 41.172 0.658 -48.656 0.658 -48.656 0.751 41.172
26156.417 0.751 41.139 0.658 -48.69 0.658 -48.69 0.751 41.139
26181.375 0.752 41.106 0.657 -48.723 0.657 -48.723 0.752 41.106
26206.333 0.752 41.072 0.657 -48.757 0.657 -48.757 0.752 41.072
26231.292 0.752 41.039 0.657 -48.79 0.657 -48.79 0.752 41.039
26256.25 0.753 41.006 0.656 -48.824 0.656 -48.824 0.753 41.006
26281.208 0.753 40.973 0.656 -48.857 0.656 -48.857 0.753 40.973
26306.167 0.753 40.94 0.655 -48.89 0.655 -48.89 0.753 40.94
26331.125 0.754 40.907 0.655 -48.923 0.655 -48.923 0.754 40.907
26356.083 0.754 40.874 0.654 -48.956 0.654 -48.956 0.754 40.874
26381.042 0.755 40.841 0.654 -48.99 0.654 -48.99 0.755 40.841
26406 0.755 40.808 0.654 -49.023 0.654 -49.023 0.755 40.808
26430.958 0.755 40.775 0.653 -49.056 0.653 -49.056 0.755 40.775
26455.917 0.756 40.743 0.653 -49.089 0.653 -49.089 0.756 40.743
26480.875 0.756 40.71 0.652 -49.121 0.652 -49.121 0.756 40.71
26505.833 0.756 40.677 0.652 -49.154 0.652 -49.154 0.756 40.677
26530.792 0.757 40.645 0.651 -49.187 0.651 -49.187 0.757 40.645
26555.75 0.757 40.612 0.651 -49.22 0.651 -49.22 0.757 40.612
26580.708 0.758 40.58 0.651 -49.253 0.651 -49.253 0.758 40.58
26605.667 0.758 40.547 0.65 -49.285 0.65 -49.285 0.758 40.547
26630.625 0.758 40.515 0.65 -49.318 0.65 -49.318 0.758 40.515
26655.583 0.759 40.482 0.649 -49.35 0.649 -49.35 0.759 40.482
26680.542 0.759 40.45 0.649 -49.383 0.649 -49.383 0.759 40.45
26705.5 0.759 40.418 0.648 -49.415 0.648 -49.415 0.759 40.418
26730.458 0.76 40.386 0.648 -49.448 0.648 -49.448 0.76 40.386
26755.417 0.76 40.353 0.648 -49.48 0.648 -49.48 0.76 40.353
26780.375 0.761 40.321 0.647 -49.512 0.647 -49.512 0.761 40.321
26805.333 0.761 40.289 0.647 -49.545 0.647 -49.545 0.761 40.289
26830.292 0.761 40.257 0.646 -49.577 0.646 -49.577 0.761 40.257
26855.25 0.762 40.225 0.646 -49.609 0.646 -49.609 0.762 40.225
26880.208 0.762 40.193 0.645 -49.641 0.645 -49.641 0.762 40.193
26905.167 0.762 40.161 0.645 -49.673 0.645 -49.673 0.762 40.161
26930.125 0.763 40.129 0.645 -49.705 0.645 -49.705 0.763 40.129
26955.083 0.763 40.098 0.644 -49.737 0.644 -49.737 0.763 40.098
26980.042 0.763 40.066 0.644 -49.769 0.644 -49.769 0.763 40.066
27005 0.764 40.034 0.643 -49.801 0.643 -49.801 0.764 40.034
27029.958 0.764 40.003 0.643 -49.833 0.643 -49.833 0.764 40.003
27054.917 0.765 39.971 0.642 -49.865 0.642 -49.865 0.765 39.971
27079.875 0.765 39.939 0.642 -49.897 0.642 -49.897 0.765 39.939
27104.833 0.765 39.908 0.642 -49.928 0.642 -49.928 0.765 39.908
27129.792 0.766 39.876 0.641 -49.96 0.641 -49.96 0.766 39.876
27154.75 0.766 39.845 0.641 -49.992 0.641 -49.992 0.766 39.845
27179.708 0.766 39.814 0.64 -50.023 0.64 -50.023 0.766 39.814
27204.667 0.767 39.782 0.64 -50.055 0.64 -50.055 0.767 39.782
27229.625 0.767 39.751 0.639 -50.086 0.639 -50.086 0.767 39.751
27254.583 0.767 39.72 0.639 -50.117 0.639 -50.117 0.767 39.72
27279.542 0.768 39.689 0.639 -50.149 0.639 -50.149 0.768 39.689
27304.5 0.768 39.657 0.638 -50.18 0.638 -50.18 0.768 39.657
27329.458 0.768 39.626 0.638 -50.211 0.638 -50.211 0.768 39.626
27354.417 0.769 39.595 0.637 -50.243 0.637 -50.243 0.769 39.595
27379.375 0.769 39.564 0.637 -50.274 0.637 -50.274 0.769 39.564
27404.333 0.769 39.533 0.637 -50.305 0.637 -50.305 0.769 39.533
27429.292 0.77 39.502 0.636 -50.336 0.636 -50.336 0.77 39.502
27454.25 0.77 39.471 0.636 -50.367 0.636 -50.367 0.77 39.471
27479.208 0.77 39.441 0.635 -50.398 0.635 -50.398 0.77 39.441
27504.167 0.771 39.41 0.635 -50.429 0.635 -50.429 0.771 39.41
27529.125 0.771 39.379 0.634 -50.46 0.634 -50.46 0.771 39.379
27554.083 0.772 39.348 0.634 -50.491 0.634 -50.491 0.772 39.348
27579.042 0.772 39.318 0.634 -50.522 0.634 -50.522 0.772 39.318
27604 0.772 39.287 0.633 -50.553 0.633 -50.553 0.772 39.287
27628.958 0.773 39.257 0.633 -50.583 0.633 -50.583 0.773 39.257
27653.917 0.773 39.226 0.632 -50.614 0.632 -50.614 0.773 39.226
27678.875 0.773 39.196 0.632 -50.645 0.632 -50.645 0.773 39.196
27703.833 0.774 39.165 0.632 -50.675 0.632 -50.675 0.774 39.165
27728.792 0.774 39.135 0.631 -50.706 0.631 -50.706 0.774 39.135
27753.75 0.774 39.105 0.631 -50.736 0.631 -50.736 0.774 39.105
27778.708 0.775 39.074 0.63 -50.767 0.63 -50.767 0.775 39.074
27803.667 0.775 39.044 0.63 -50.797 0.63 -50.797 0.775 39.044
27828.625 0.775 39.014 0.63 -50.828 0.63 -50.828 0.775 39.014
27853.583 0.776 38.984 0.629 -50.858 0.629 -50.858 0.776 38.984
27878.542 0.776 38.953 0.629 -50.888 0.629 -50.888 0.776 38.953
27903.5 0.776 38.923 0.628 -50.918 0.628 -50.918 0.776 38.923
27928.458 0.777 38.893 0.628 -50.949 0.628 -50.949 0.777 38.893
27953.417 0.777 38.863 0.627 -50.979 0.627 -50.979 0.777 38.863
27978.375 0.777 38.833 0.627 -51.009 0.627 -51.009 0.777 38.833
28003.333 0.778 38.804 0.627 -51.039 0.627 -51.039 0.778 38.804
28028.292 0.778 38.774 0.626 -51.069 0.626 -51.069 0.778 38.774
28053.25 0.778 38.744 0.626 -51.099 0.626 -51.099 0.778 38.744
28078.208 0.779 38.714 0.625 -51.129 0.625 -51.129 0.779 38.714
28103.167 0.779 38.684 0.625 -51.159 0.625 -51.159 0.779 38.684
28128.125 0.779 38.655 0.625 -51.189 0.625 -51.189 0.779 38.655
28153.083 0.78 38.625 0.624 -51.218 0.624 -51.218 0.78 38.625
28178.042 0.78 38.595 0.624 -51.248 0.624 -51.248 0.78 38.595
28203 0.78 38.566 0.623 -51.278 0.623 -51.278 0.78 38.566
28227.958 0.781 38.536 0.623 -51.308 0.623 -51.308 0.781 38.536
28252.917 0.781 38.507 0.623 -51.337 0.623 -51.337 0.781 38.507
28277.875 0.781 38.477 0.622 -51.367 0.622 -51.367 0.781 38.477
28302.833 0.781 38.448 0.622 -51.396 0.622 -51.396 0.781 38.448
28327.792 0.782 38.419 0.621 -51.426 0.621 -51.426 0.782 38.419
28352.75 0.782 38.389 0.621 -51.455 0.621 -51.455 0.782 38.389
28377.708 0.782 38.36 0.621 -51.485 0.621 -51.485 0.782 38.36
28402.667 0.783 38.331 0.62 -51.514 0.62 -51.514 0.783 38.331
28427.625 0.783 38.302 0.62 -51.544 0.62 -51.544 0.783 38.302
28452.583 0.783 38.273 0.619 -51.573 0.619 -51.573 0.783 38.273
28477.542 0.784 38.243 0.619 -51.602 0.619 -51.602 0.784 38.243
28502.5 0.784 38.214 0.619 -51.631 0.619 -51.631 0.784 38.214
28527.458 0.784 38.185 0.618 -51.661 0.618 -51.661 0.784 38.185
28552.417 0.785 38.156 0.618 -51.69 0.618 -51.69 0.785 38.156
28577.375 0.785 38.127 0.617 -51.719 0.617 -51.719 0.785 38.127
28602.333 0.785 38.099 0.617 -51.748 0.617 -51.748 0.785 38.099
28627.292 0.786 38.07 0.617 -51.777 0.617 -51.777 0.786 38.07
28652.25 0.786 38.041 0.616 -51.806 0.616 -51.806 0.786 38.041
28677.208 0.786 38.012 0.616 -51.835 0.616 -51.835 0.786 38.012
28702.167 0.787 37.983 0.615 -51.864 0.615 -51.864 0.787 37.983
28727.125 0.787 37.955 0.615 -51.892 0.615 -51.892 0.787 37.955
28752.083 0.787 37.926 0.615 -51.921 0.615 -51.921 0.787 37.926
28777.042 0.787 37.897 0.614 -51.95 0.614 -51.95 0.787 37.897
28802 0.788 37.869 0.614 -51.979 0.614 -51.979 0.788 37.869
28826.958 0.788 37.84 0.613 -52.007 0.613 -52.007 0.788 37.84
28851.917 0.788 37.812 0.613 -52.036 0.613 -52.036 0.788 37.812
28876.875 0.789 37.783 0.613 -52.065 0.613 -52.065 0.789 37.783
28901.833 0.789 37.755 0.612 -52.093 0.612 -52.093 0.789 37.755
28926.792 0.789 37.727 0.612 -52.122 0.612 -52.122 0.789 37.727
28951.75 0.79 37.698 0.612 -52.15 0.612 -52.15 0.79 37.698
28976.708 0.79 37.67 0.611 -52.179 0.611 -52.179 0.79 37.67
29001.667 0.79 37.642 0.611 -52.207 0.611 -52.207 0.79 37.642
29026.625 0.791 37.614 0.61 -52.235 0.61 -52.235 0.791 37.614
29051.583 0.791 37.585 0.61 -52.264 0.61 -52.264 0.791 37.585
29076.542 0.791 37.557 0.61 -52.292 0.61 -52.292 0.791 37.557
29101.5 0.791 37.529 0.609 -52.32 0.609 -52.32 0.791 37.529
29126.458 0.792 37.501 0.609 -52.348 0.609 -52.348 0.792 37.501
29151.417 0.792 37.473 0.608 -52.377 0.608 -52.377 0.792 37.473
29176.375 0.792 37.445 0.608 -52.405 0.608 -52.405 0.792 37.445
29201.333 0.793 37.417 0.608 -52.433 0.608 -52.433 0.793 37.417
29226.292 0.793 37.389 0.607 -52.461 0.607 -52.461 0.793 37.389
29251.25 0.793 37.362 0.607 -52.489 0.607 -52.489 0.793 37.362
29276.208 0.794 37.334 0.606 -52.517 0.606 -52.517 0.794 37.334
29301.167 0.794 37.306 0.606 -52.545 0.606 -52.545 0.794 37.306
29326.125 0.794 37.278 0.606 -52.573 0.606 -52.573 0.794 37.278
29351.083 0.794 37.251 0.605 -52.6 0.605 -52.6 0.794 37.251
29376.042 0.795 37.223 0.605 -52.628 0.605 -52.628 0.795 37.223
29401 0.795 37.195 0.605 -52.656 0.605 -52.656 0.795 37.195
29425.958 0.795 37.168 0.604 -52.684 0.604 -52.684 0.795 37.168
29450.917 0.796 37.14 0.604 -52.711 0.604 -52.711 0.796 37.14
29475.875 0.796 37.113 0.603 -52.739 0.603 -52.739 0.796 37.113
29500.833 0.796 37.085 0.603 -52.767 0.603 -52.767 0.796 37.085
29525.792 0.796 37.058 0.603 -52.794 0.603 -52.794 0.796 37.058
29550.75 0.797 37.03 0.602 -52.822 0.602 -52.822 0.797 37.03
29575.708 0.797 37.003 0.602 -52.849 0.602 -52.849 0.797 37.003
29600.667 0.797 36.976 0.601 -52.877 0.601 -52.877 0.797 36.976
29625.625 0.798 36.948 0.601 -52.904 0.601 -52.904 0.798 36.948
29650.583 0.798 36.921 0.601 -52.932 0.601 -52.932 0.798 36.921
29675.542 0.798 36.894 0.6 -52.959 0.6 -52.959 0.798 36.894
29700.5 0.798 36.867 0.6 -52.986 0.6 -52.986 0.798 36.867
29725.458 0.799 36.84 0.6 -53.014 0.6 -53.014 0.799 36.84
29750.417 0.799 36.813 0.599 -53.041 0.599 -53.041 0.799 36.813
29775.375 0.799 36.786 0.599 -53.068 0.599 -53.068 0.799 36.786
29800.333 0.8 36.759 0.598 -53.095 0.598 -53.095 0.8 36.759
29825.292 0.8 36.732 0.598 -53.122 0.598 -53.122 0.8 36.732
29850.25 0.8 36.705 0.598 -53.149 0.598 -53.149 0.8 36.705
29875.208 0.8 36.678 0.597 -53.176 0.597 -53.176 0.8 36.678
29900.167 0.801 36.651 0.597 -53.203 0.597 -53.203 0.801 36.651
29925.125 0.801 36.624 0.597 -53.23 0.597 -53.23 0.801 36.624
29950.083 0.801 36.597 0.596 -53.257 0.596 -53.257 0.801 36.597
29975.042 0.802 36.571 0.596 -53.284 0.596 -53.284 0.802 36.571
30000 0.802 36.544 0.595 -53.311 0.595 -53.311 0.802 36.544
