!	AVX Thin Film Operation 	Date: April 2014		
!	Description: Accu-P® Series, Thin Film  SMD RF Capacitor
!	Part Number: 06031J0R8PBSTR					
!								
# MHZ S MA R 50

50 1 -1.44 0.025 88.556 0.025 88.556 1 -1.44
74.958 0.999 -2.158 0.038 87.836 0.038 87.836 0.999 -2.158
99.917 0.999 -2.876 0.05 87.116 0.05 87.116 0.999 -2.876
124.875 0.998 -3.593 0.063 86.397 0.063 86.397 0.998 -3.593
149.833 0.997 -4.309 0.075 85.679 0.075 85.679 0.997 -4.309
174.792 0.996 -5.025 0.088 84.962 0.088 84.962 0.996 -5.025
199.75 0.995 -5.739 0.1 84.245 0.1 84.245 0.995 -5.739
224.708 0.994 -6.452 0.112 83.531 0.112 83.531 0.994 -6.452
249.667 0.992 -7.163 0.125 82.817 0.125 82.817 0.992 -7.163
274.625 0.991 -7.873 0.137 82.105 0.137 82.105 0.991 -7.873
299.583 0.989 -8.581 0.149 81.395 0.149 81.395 0.989 -8.581
324.542 0.987 -9.288 0.161 80.687 0.161 80.687 0.987 -9.288
349.5 0.985 -9.992 0.174 79.981 0.174 79.981 0.985 -9.992
374.458 0.983 -10.694 0.186 79.277 0.186 79.277 0.983 -10.694
399.417 0.98 -11.394 0.198 78.575 0.198 78.575 0.98 -11.394
424.375 0.978 -12.091 0.209 77.876 0.209 77.876 0.978 -12.091
449.333 0.975 -12.786 0.221 77.179 0.221 77.179 0.975 -12.786
474.292 0.972 -13.478 0.233 76.485 0.233 76.485 0.972 -13.478
499.25 0.969 -14.167 0.245 75.794 0.245 75.794 0.969 -14.167
524.208 0.966 -14.853 0.256 75.106 0.256 75.106 0.966 -14.853
549.167 0.963 -15.537 0.268 74.42 0.268 74.42 0.963 -15.537
574.125 0.96 -16.217 0.279 73.738 0.279 73.738 0.96 -16.217
599.083 0.957 -16.893 0.291 73.06 0.291 73.06 0.957 -16.893
624.042 0.953 -17.566 0.302 72.384 0.302 72.384 0.953 -17.566
649 0.949 -18.236 0.313 71.713 0.313 71.713 0.949 -18.236
673.958 0.946 -18.902 0.324 71.045 0.324 71.045 0.946 -18.902
698.917 0.942 -19.565 0.335 70.38 0.335 70.38 0.942 -19.565
723.875 0.938 -20.224 0.346 69.719 0.346 69.719 0.938 -20.224
748.833 0.934 -20.878 0.356 69.063 0.356 69.063 0.934 -20.878
773.792 0.93 -21.529 0.367 68.41 0.367 68.41 0.93 -21.529
798.75 0.926 -22.176 0.377 67.761 0.377 67.761 0.926 -22.176
823.708 0.921 -22.819 0.388 67.116 0.388 67.116 0.921 -22.819
848.667 0.917 -23.457 0.398 66.475 0.398 66.475 0.917 -23.457
873.625 0.912 -24.092 0.408 65.839 0.408 65.839 0.912 -24.092
898.583 0.908 -24.722 0.418 65.207 0.418 65.207 0.908 -24.722
923.542 0.903 -25.348 0.428 64.579 0.428 64.579 0.903 -25.348
948.5 0.898 -25.969 0.438 63.956 0.438 63.956 0.898 -25.969
973.458 0.894 -26.586 0.448 63.337 0.448 63.337 0.894 -26.586
998.417 0.889 -27.198 0.457 62.722 0.457 62.722 0.889 -27.198
1023.375 0.884 -27.806 0.466 62.112 0.466 62.112 0.884 -27.806
1048.333 0.879 -28.41 0.476 61.507 0.476 61.507 0.879 -28.41
1073.292 0.874 -29.008 0.485 60.906 0.485 60.906 0.874 -29.008
1098.25 0.869 -29.602 0.494 60.31 0.494 60.31 0.869 -29.602
1123.208 0.864 -30.192 0.503 59.718 0.503 59.718 0.864 -30.192
1148.167 0.858 -30.777 0.512 59.131 0.512 59.131 0.858 -30.777
1173.125 0.853 -31.357 0.52 58.549 0.52 58.549 0.853 -31.357
1198.083 0.848 -31.932 0.529 57.971 0.529 57.971 0.848 -31.932
1223.042 0.842 -32.503 0.537 57.398 0.537 57.398 0.842 -32.503
1248 0.837 -33.069 0.546 56.83 0.546 56.83 0.837 -33.069
1272.958 0.832 -33.631 0.554 56.266 0.554 56.266 0.832 -33.631
1297.917 0.826 -34.187 0.562 55.708 0.562 55.708 0.826 -34.187
1322.875 0.821 -34.739 0.57 55.154 0.57 55.154 0.821 -34.739
1347.833 0.815 -35.286 0.578 54.604 0.578 54.604 0.815 -35.286
1372.792 0.81 -35.829 0.585 54.06 0.585 54.06 0.81 -35.829
1397.75 0.804 -36.366 0.593 53.52 0.593 53.52 0.804 -36.366
1422.708 0.798 -36.899 0.6 52.984 0.6 52.984 0.798 -36.899
1447.667 0.793 -37.428 0.608 52.454 0.608 52.454 0.793 -37.428
1472.625 0.787 -37.951 0.615 51.928 0.615 51.928 0.787 -37.951
1497.583 0.782 -38.47 0.622 51.406 0.622 51.406 0.782 -38.47
1522.542 0.776 -38.985 0.629 50.89 0.629 50.89 0.776 -38.985
1547.5 0.77 -39.494 0.636 50.378 0.636 50.378 0.77 -39.494
1572.458 0.765 -40 0.643 49.87 0.643 49.87 0.765 -40
1597.417 0.759 -40.5 0.649 49.367 0.649 49.367 0.759 -40.5
1622.375 0.753 -40.996 0.656 48.869 0.656 48.869 0.753 -40.996
1647.333 0.748 -41.488 0.662 48.375 0.662 48.375 0.748 -41.488
1672.292 0.742 -41.975 0.669 47.886 0.669 47.886 0.742 -41.975
1697.25 0.736 -42.457 0.675 47.401 0.675 47.401 0.736 -42.457
1722.208 0.73 -42.935 0.681 46.92 0.681 46.92 0.73 -42.935
1747.167 0.725 -43.409 0.687 46.444 0.687 46.444 0.725 -43.409
1772.125 0.719 -43.878 0.693 45.973 0.693 45.973 0.719 -43.878
1797.083 0.713 -44.343 0.699 45.505 0.699 45.505 0.713 -44.343
1822.042 0.708 -44.804 0.705 45.042 0.705 45.042 0.708 -44.804
1847 0.702 -45.26 0.71 44.583 0.71 44.583 0.702 -45.26
1871.958 0.696 -45.712 0.716 44.129 0.716 44.129 0.696 -45.712
1896.917 0.691 -46.16 0.721 43.678 0.721 43.678 0.691 -46.16
1921.875 0.685 -46.604 0.727 43.232 0.727 43.232 0.685 -46.604
1946.833 0.679 -47.043 0.732 42.79 0.732 42.79 0.679 -47.043
1971.792 0.674 -47.479 0.737 42.352 0.737 42.352 0.674 -47.479
1996.75 0.668 -47.91 0.742 41.918 0.742 41.918 0.668 -47.91
2021.708 0.662 -48.338 0.747 41.488 0.747 41.488 0.662 -48.338
2046.667 0.657 -48.761 0.752 41.062 0.752 41.062 0.657 -48.761
2071.625 0.651 -49.181 0.757 40.64 0.757 40.64 0.651 -49.181
2096.583 0.646 -49.596 0.761 40.221 0.761 40.221 0.646 -49.596
2121.542 0.64 -50.008 0.766 39.807 0.766 39.807 0.64 -50.008
2146.5 0.635 -50.416 0.771 39.396 0.771 39.396 0.635 -50.416
2171.458 0.629 -50.82 0.775 38.989 0.775 38.989 0.629 -50.82
2196.417 0.624 -51.22 0.78 38.586 0.78 38.586 0.624 -51.22
2221.375 0.618 -51.617 0.784 38.187 0.784 38.187 0.618 -51.617
2246.333 0.613 -52.01 0.788 37.791 0.788 37.791 0.613 -52.01
2271.292 0.607 -52.399 0.792 37.399 0.792 37.399 0.607 -52.399
2296.25 0.602 -52.785 0.796 37.01 0.796 37.01 0.602 -52.785
2321.208 0.597 -53.167 0.8 36.625 0.8 36.625 0.597 -53.167
2346.167 0.591 -53.546 0.804 36.243 0.804 36.243 0.591 -53.546
2371.125 0.586 -53.921 0.808 35.865 0.808 35.865 0.586 -53.921
2396.083 0.581 -54.293 0.812 35.49 0.812 35.49 0.581 -54.293
2421.042 0.575 -54.662 0.816 35.119 0.816 35.119 0.575 -54.662
2446 0.57 -55.027 0.819 34.751 0.819 34.751 0.57 -55.027
2470.958 0.565 -55.389 0.823 34.386 0.823 34.386 0.565 -55.389
2495.917 0.56 -55.747 0.827 34.024 0.827 34.024 0.56 -55.747
2520.875 0.554 -56.102 0.83 33.666 0.83 33.666 0.554 -56.102
2545.833 0.549 -56.454 0.833 33.311 0.833 33.311 0.549 -56.454
2570.792 0.544 -56.803 0.837 32.959 0.837 32.959 0.544 -56.803
2595.75 0.539 -57.149 0.84 32.61 0.84 32.61 0.539 -57.149
2620.708 0.534 -57.492 0.843 32.264 0.843 32.264 0.534 -57.492
2645.667 0.529 -57.832 0.846 31.921 0.846 31.921 0.529 -57.832
2670.625 0.524 -58.168 0.85 31.581 0.85 31.581 0.524 -58.168
2695.583 0.519 -58.502 0.853 31.244 0.853 31.244 0.519 -58.502
2720.542 0.514 -58.833 0.856 30.909 0.856 30.909 0.514 -58.833
2745.5 0.509 -59.161 0.859 30.578 0.859 30.578 0.509 -59.161
2770.458 0.504 -59.486 0.862 30.25 0.862 30.25 0.504 -59.486
2795.417 0.499 -59.808 0.864 29.924 0.864 29.924 0.499 -59.808
2820.375 0.494 -60.127 0.867 29.601 0.867 29.601 0.494 -60.127
2845.333 0.489 -60.444 0.87 29.281 0.87 29.281 0.489 -60.444
2870.292 0.484 -60.758 0.873 28.963 0.873 28.963 0.484 -60.758
2895.25 0.479 -61.069 0.875 28.649 0.875 28.649 0.479 -61.069
2920.208 0.475 -61.378 0.878 28.336 0.878 28.336 0.475 -61.378
2945.167 0.47 -61.683 0.88 28.027 0.88 28.027 0.47 -61.683
2970.125 0.465 -61.987 0.883 27.72 0.883 27.72 0.465 -61.987
2995.083 0.46 -62.287 0.885 27.415 0.885 27.415 0.46 -62.287
3020.042 0.456 -62.586 0.888 27.113 0.888 27.113 0.456 -62.586
3045 0.451 -62.881 0.89 26.813 0.89 26.813 0.451 -62.881
3069.958 0.446 -63.175 0.892 26.516 0.892 26.516 0.446 -63.175
3094.917 0.442 -63.465 0.895 26.221 0.895 26.221 0.442 -63.465
3119.875 0.437 -63.754 0.897 25.929 0.897 25.929 0.437 -63.754
3144.833 0.433 -64.04 0.899 25.639 0.899 25.639 0.433 -64.04
3169.792 0.428 -64.323 0.901 25.351 0.901 25.351 0.428 -64.323
3194.75 0.424 -64.605 0.903 25.065 0.903 25.065 0.424 -64.605
3219.708 0.419 -64.884 0.905 24.782 0.905 24.782 0.419 -64.884
3244.667 0.415 -65.16 0.908 24.501 0.908 24.501 0.415 -65.16
3269.625 0.41 -65.435 0.91 24.222 0.91 24.222 0.41 -65.435
3294.583 0.406 -65.707 0.911 23.945 0.911 23.945 0.406 -65.707
3319.542 0.401 -65.977 0.913 23.671 0.913 23.671 0.401 -65.977
3344.5 0.397 -66.245 0.915 23.398 0.915 23.398 0.397 -66.245
3369.458 0.393 -66.511 0.917 23.128 0.917 23.128 0.393 -66.511
3394.417 0.388 -66.775 0.919 22.859 0.919 22.859 0.388 -66.775
3419.375 0.384 -67.036 0.921 22.593 0.921 22.593 0.384 -67.036
3444.333 0.38 -67.296 0.923 22.329 0.923 22.329 0.38 -67.296
3469.292 0.376 -67.553 0.924 22.066 0.924 22.066 0.376 -67.553
3494.25 0.371 -67.808 0.926 21.806 0.926 21.806 0.371 -67.808
3519.208 0.367 -68.062 0.928 21.547 0.928 21.547 0.367 -68.062
3544.167 0.363 -68.313 0.929 21.291 0.929 21.291 0.363 -68.313
3569.125 0.359 -68.563 0.931 21.036 0.931 21.036 0.359 -68.563
3594.083 0.355 -68.81 0.932 20.783 0.932 20.783 0.355 -68.81
3619.042 0.351 -69.056 0.934 20.532 0.934 20.532 0.351 -69.056
3644 0.347 -69.3 0.935 20.283 0.935 20.283 0.347 -69.3
3668.958 0.343 -69.542 0.937 20.035 0.937 20.035 0.343 -69.542
3693.917 0.339 -69.782 0.938 19.789 0.938 19.789 0.339 -69.782
3718.875 0.335 -70.02 0.94 19.545 0.94 19.545 0.335 -70.02
3743.833 0.331 -70.256 0.941 19.303 0.941 19.303 0.331 -70.256
3768.792 0.327 -70.491 0.943 19.063 0.943 19.063 0.327 -70.491
3793.75 0.323 -70.724 0.944 18.824 0.944 18.824 0.323 -70.724
3818.708 0.319 -70.955 0.945 18.586 0.945 18.586 0.319 -70.955
3843.667 0.315 -71.184 0.947 18.351 0.947 18.351 0.315 -71.184
3868.625 0.311 -71.412 0.948 18.117 0.948 18.117 0.311 -71.412
3893.583 0.307 -71.638 0.949 17.884 0.949 17.884 0.307 -71.638
3918.542 0.303 -71.862 0.95 17.653 0.95 17.653 0.303 -71.862
3943.5 0.299 -72.084 0.952 17.424 0.952 17.424 0.299 -72.084
3968.458 0.296 -72.305 0.953 17.196 0.953 17.196 0.296 -72.305
3993.417 0.292 -72.524 0.954 16.97 0.954 16.97 0.292 -72.524
4018.375 0.288 -72.742 0.955 16.745 0.955 16.745 0.288 -72.742
4043.333 0.284 -72.958 0.956 16.522 0.956 16.522 0.284 -72.958
4068.292 0.281 -73.172 0.957 16.3 0.957 16.3 0.281 -73.172
4093.25 0.277 -73.385 0.958 16.079 0.958 16.079 0.277 -73.385
4118.208 0.273 -73.596 0.959 15.86 0.959 15.86 0.273 -73.596
4143.167 0.27 -73.806 0.96 15.643 0.96 15.643 0.27 -73.806
4168.125 0.266 -74.014 0.961 15.427 0.961 15.427 0.266 -74.014
4193.083 0.262 -74.221 0.962 15.212 0.962 15.212 0.262 -74.221
4218.042 0.259 -74.426 0.963 14.998 0.963 14.998 0.259 -74.426
4243 0.255 -74.629 0.964 14.786 0.964 14.786 0.255 -74.629
4267.958 0.252 -74.831 0.965 14.575 0.965 14.575 0.252 -74.831
4292.917 0.248 -75.032 0.966 14.366 0.966 14.366 0.248 -75.032
4317.875 0.245 -75.231 0.967 14.157 0.967 14.157 0.245 -75.231
4342.833 0.241 -75.428 0.968 13.95 0.968 13.95 0.241 -75.428
4367.792 0.238 -75.624 0.969 13.745 0.969 13.745 0.238 -75.624
4392.75 0.234 -75.819 0.97 13.54 0.97 13.54 0.234 -75.819
4417.708 0.231 -76.012 0.97 13.337 0.97 13.337 0.231 -76.012
4442.667 0.227 -76.204 0.971 13.135 0.971 13.135 0.227 -76.204
4467.625 0.224 -76.394 0.972 12.934 0.972 12.934 0.224 -76.394
4492.583 0.22 -76.583 0.973 12.734 0.973 12.734 0.22 -76.583
4517.542 0.217 -76.77 0.974 12.536 0.974 12.536 0.217 -76.77
4542.5 0.214 -76.956 0.974 12.339 0.974 12.339 0.214 -76.956
4567.458 0.21 -77.14 0.975 12.143 0.975 12.143 0.21 -77.14
4592.417 0.207 -77.323 0.976 11.948 0.976 11.948 0.207 -77.323
4617.375 0.204 -77.505 0.976 11.754 0.976 11.754 0.204 -77.505
4642.333 0.2 -77.685 0.977 11.561 0.977 11.561 0.2 -77.685
4667.292 0.197 -77.863 0.978 11.369 0.978 11.369 0.197 -77.863
4692.25 0.194 -78.041 0.978 11.179 0.978 11.179 0.194 -78.041
4717.208 0.191 -78.216 0.979 10.989 0.979 10.989 0.191 -78.216
4742.167 0.187 -78.391 0.98 10.8 0.98 10.8 0.187 -78.391
4767.125 0.184 -78.563 0.98 10.613 0.98 10.613 0.184 -78.563
4792.083 0.181 -78.735 0.981 10.427 0.981 10.427 0.181 -78.735
4817.042 0.178 -78.905 0.981 10.241 0.981 10.241 0.178 -78.905
4842 0.175 -79.073 0.982 10.057 0.982 10.057 0.175 -79.073
4866.958 0.171 -79.24 0.983 9.873 0.983 9.873 0.171 -79.24
4891.917 0.168 -79.405 0.983 9.691 0.983 9.691 0.168 -79.405
4916.875 0.165 -79.569 0.984 9.51 0.984 9.51 0.165 -79.569
4941.833 0.162 -79.731 0.984 9.329 0.984 9.329 0.162 -79.731
4966.792 0.159 -79.892 0.985 9.15 0.985 9.15 0.159 -79.892
4991.75 0.156 -80.051 0.985 8.971 0.985 8.971 0.156 -80.051
5016.708 0.153 -80.209 0.986 8.794 0.986 8.794 0.153 -80.209
5041.667 0.15 -80.365 0.986 8.617 0.986 8.617 0.15 -80.365
5066.625 0.147 -80.519 0.987 8.441 0.987 8.441 0.147 -80.519
5091.583 0.144 -80.672 0.987 8.266 0.987 8.266 0.144 -80.672
5116.542 0.141 -80.822 0.987 8.092 0.987 8.092 0.141 -80.822
5141.5 0.138 -80.971 0.988 7.919 0.988 7.919 0.138 -80.971
5166.458 0.135 -81.119 0.988 7.747 0.988 7.747 0.135 -81.119
5191.417 0.132 -81.264 0.989 7.576 0.989 7.576 0.132 -81.264
5216.375 0.129 -81.408 0.989 7.405 0.989 7.405 0.129 -81.408
5241.333 0.126 -81.549 0.989 7.236 0.989 7.236 0.126 -81.549
5266.292 0.123 -81.688 0.99 7.067 0.99 7.067 0.123 -81.688
5291.25 0.12 -81.826 0.99 6.899 0.99 6.899 0.12 -81.826
5316.208 0.117 -81.961 0.99 6.732 0.99 6.732 0.117 -81.961
5341.167 0.114 -82.094 0.991 6.566 0.991 6.566 0.114 -82.094
5366.125 0.112 -82.224 0.991 6.4 0.991 6.4 0.112 -82.224
5391.083 0.109 -82.352 0.991 6.235 0.991 6.235 0.109 -82.352
5416.042 0.106 -82.478 0.992 6.071 0.992 6.071 0.106 -82.478
5441 0.103 -82.601 0.992 5.908 0.992 5.908 0.103 -82.601
5465.958 0.1 -82.721 0.992 5.746 0.992 5.746 0.1 -82.721
5490.917 0.097 -82.838 0.993 5.584 0.993 5.584 0.097 -82.838
5515.875 0.095 -82.951 0.993 5.424 0.993 5.424 0.095 -82.951
5540.833 0.092 -83.062 0.993 5.264 0.993 5.264 0.092 -83.062
5565.792 0.089 -83.169 0.993 5.104 0.993 5.104 0.089 -83.169
5590.75 0.086 -83.272 0.994 4.946 0.994 4.946 0.086 -83.272
5615.708 0.084 -83.37 0.994 4.788 0.994 4.788 0.084 -83.37
5640.667 0.081 -83.465 0.994 4.631 0.994 4.631 0.081 -83.465
5665.625 0.078 -83.554 0.994 4.474 0.994 4.474 0.078 -83.554
5690.583 0.075 -83.639 0.994 4.318 0.994 4.318 0.075 -83.639
5715.542 0.073 -83.718 0.995 4.163 0.995 4.163 0.073 -83.718
5740.5 0.07 -83.79 0.995 4.009 0.995 4.009 0.07 -83.79
5765.458 0.067 -83.856 0.995 3.855 0.995 3.855 0.067 -83.856
5790.417 0.065 -83.914 0.995 3.703 0.995 3.703 0.065 -83.914
5815.375 0.062 -83.964 0.995 3.55 0.995 3.55 0.062 -83.964
5840.333 0.059 -84.005 0.996 3.399 0.996 3.399 0.059 -84.005
5865.292 0.057 -84.035 0.996 3.248 0.996 3.248 0.057 -84.035
5890.25 0.054 -84.053 0.996 3.097 0.996 3.097 0.054 -84.053
5915.208 0.051 -84.058 0.996 2.948 0.996 2.948 0.051 -84.058
5940.167 0.049 -84.048 0.996 2.799 0.996 2.799 0.049 -84.048
5965.125 0.046 -84.02 0.996 2.65 0.996 2.65 0.046 -84.02
5990.083 0.044 -83.971 0.996 2.503 0.996 2.503 0.044 -83.971
6015.042 0.041 -83.898 0.996 2.355 0.996 2.355 0.041 -83.898
6040 0.039 -83.797 0.997 2.209 0.997 2.209 0.039 -83.797
6064.958 0.036 -83.661 0.997 2.063 0.997 2.063 0.036 -83.661
6089.917 0.034 -83.483 0.997 1.918 0.997 1.918 0.034 -83.483
6114.875 0.031 -83.254 0.997 1.773 0.997 1.773 0.031 -83.254
6139.833 0.029 -82.961 0.997 1.629 0.997 1.629 0.029 -82.961
6164.792 0.026 -82.585 0.997 1.486 0.997 1.486 0.026 -82.585
6189.75 0.024 -82.102 0.997 1.343 0.997 1.343 0.024 -82.102
6214.708 0.021 -81.475 0.997 1.2 0.997 1.2 0.021 -81.475
6239.667 0.019 -80.648 0.997 1.059 0.997 1.059 0.019 -80.648
6264.625 0.016 -79.535 0.997 0.917 0.997 0.917 0.016 -79.535
6289.583 0.014 -77.987 0.997 0.777 0.997 0.777 0.014 -77.987
6314.542 0.011 -75.739 0.997 0.637 0.997 0.637 0.011 -75.739
6339.5 9.086e-3 -72.259 0.997 0.497 0.997 0.497 9.086e-3 -72.259
6364.458 6.808e-3 -66.336 0.997 0.358 0.997 0.358 6.808e-3 -66.336
6389.417 4.687e-3 -54.71 0.997 0.22 0.997 0.22 4.687e-3 -54.71
6414.375 3.05e-3 -27.888 0.997 0.082 0.997 0.082 3.05e-3 -27.888
6439.333 2.862e-3 19.687 0.997 -0.055 0.997 -0.055 2.862e-3 19.687
6464.292 4.302e-3 51.044 0.997 -0.192 0.997 -0.192 4.302e-3 51.044
6489.25 6.334e-3 64.506 0.997 -0.328 0.997 -0.328 6.334e-3 64.506
6514.208 8.538e-3 71.148 0.997 -0.464 0.997 -0.464 8.538e-3 71.148
6539.167 0.011 74.965 0.997 -0.599 0.997 -0.599 0.011 74.965
6564.125 0.013 77.396 0.997 -0.734 0.997 -0.734 0.013 77.396
6589.083 0.015 79.056 0.997 -0.868 0.997 -0.868 0.015 79.056
6614.042 0.018 80.244 0.997 -1.002 0.997 -1.002 0.018 80.244
6639 0.02 81.125 0.997 -1.135 0.997 -1.135 0.02 81.125
6663.958 0.022 81.794 0.997 -1.268 0.997 -1.268 0.022 81.794
6688.917 0.025 82.312 0.997 -1.4 0.997 -1.4 0.025 82.312
6713.875 0.027 82.717 0.997 -1.532 0.997 -1.532 0.027 82.717
6738.833 0.029 83.037 0.997 -1.663 0.997 -1.663 0.029 83.037
6763.792 0.031 83.291 0.997 -1.794 0.997 -1.794 0.031 83.291
6788.75 0.034 83.492 0.997 -1.924 0.997 -1.924 0.034 83.492
6813.708 0.036 83.651 0.997 -2.054 0.997 -2.054 0.036 83.651
6838.667 0.038 83.776 0.997 -2.183 0.997 -2.183 0.038 83.776
6863.625 0.04 83.872 0.996 -2.312 0.996 -2.312 0.04 83.872
6888.583 0.043 83.944 0.996 -2.441 0.996 -2.441 0.043 83.944
6913.542 0.045 83.996 0.996 -2.569 0.996 -2.569 0.045 83.996
6938.5 0.047 84.03 0.996 -2.696 0.996 -2.696 0.047 84.03
6963.458 0.049 84.051 0.996 -2.823 0.996 -2.823 0.049 84.051
6988.417 0.052 84.058 0.996 -2.95 0.996 -2.95 0.052 84.058
7013.375 0.054 84.055 0.996 -3.076 0.996 -3.076 0.054 84.055
7038.333 0.056 84.042 0.996 -3.202 0.996 -3.202 0.056 84.042
7063.292 0.058 84.02 0.996 -3.327 0.996 -3.327 0.058 84.02
7088.25 0.06 83.991 0.995 -3.452 0.995 -3.452 0.06 83.991
7113.208 0.062 83.956 0.995 -3.576 0.995 -3.576 0.062 83.956
7138.167 0.065 83.915 0.995 -3.7 0.995 -3.7 0.065 83.915
7163.125 0.067 83.868 0.995 -3.824 0.995 -3.824 0.067 83.868
7188.083 0.069 83.817 0.995 -3.947 0.995 -3.947 0.069 83.817
7213.042 0.071 83.762 0.995 -4.07 0.995 -4.07 0.071 83.762
7238 0.073 83.703 0.995 -4.192 0.995 -4.192 0.073 83.703
7262.958 0.075 83.641 0.994 -4.314 0.994 -4.314 0.075 83.641
7287.917 0.077 83.576 0.994 -4.436 0.994 -4.436 0.077 83.576
7312.875 0.079 83.508 0.994 -4.557 0.994 -4.557 0.079 83.508
7337.833 0.082 83.437 0.994 -4.678 0.994 -4.678 0.082 83.437
7362.792 0.084 83.364 0.994 -4.798 0.994 -4.798 0.084 83.364
7387.75 0.086 83.289 0.994 -4.918 0.994 -4.918 0.086 83.289
7412.708 0.088 83.212 0.993 -5.037 0.993 -5.037 0.088 83.212
7437.667 0.09 83.134 0.993 -5.157 0.993 -5.157 0.09 83.134
7462.625 0.092 83.054 0.993 -5.275 0.993 -5.275 0.092 83.054
7487.583 0.094 82.972 0.993 -5.394 0.993 -5.394 0.094 82.972
7512.542 0.096 82.889 0.993 -5.512 0.993 -5.512 0.096 82.889
7537.5 0.098 82.805 0.992 -5.629 0.992 -5.629 0.098 82.805
7562.458 0.1 82.72 0.992 -5.747 0.992 -5.747 0.1 82.72
7587.417 0.102 82.634 0.992 -5.864 0.992 -5.864 0.102 82.634
7612.375 0.104 82.547 0.992 -5.98 0.992 -5.98 0.104 82.547
7637.333 0.106 82.459 0.992 -6.096 0.992 -6.096 0.106 82.459
7662.292 0.108 82.371 0.991 -6.212 0.991 -6.212 0.108 82.371
7687.25 0.11 82.281 0.991 -6.327 0.991 -6.327 0.11 82.281
7712.208 0.112 82.191 0.991 -6.442 0.991 -6.442 0.112 82.191
7737.167 0.114 82.101 0.991 -6.557 0.991 -6.557 0.114 82.101
7762.125 0.116 82.009 0.991 -6.671 0.991 -6.671 0.116 82.009
7787.083 0.118 81.918 0.99 -6.785 0.99 -6.785 0.118 81.918
7812.042 0.12 81.826 0.99 -6.899 0.99 -6.899 0.12 81.826
7837 0.122 81.733 0.99 -7.012 0.99 -7.012 0.122 81.733
7861.958 0.124 81.64 0.99 -7.125 0.99 -7.125 0.124 81.64
7886.917 0.126 81.547 0.989 -7.238 0.989 -7.238 0.126 81.547
7911.875 0.128 81.454 0.989 -7.35 0.989 -7.35 0.128 81.454
7936.833 0.13 81.36 0.989 -7.462 0.989 -7.462 0.13 81.36
7961.792 0.132 81.266 0.989 -7.574 0.989 -7.574 0.132 81.266
7986.75 0.134 81.172 0.988 -7.685 0.988 -7.685 0.134 81.172
8011.708 0.136 81.077 0.988 -7.796 0.988 -7.796 0.136 81.077
8036.667 0.138 80.982 0.988 -7.907 0.988 -7.907 0.138 80.982
8061.625 0.139 80.888 0.988 -8.017 0.988 -8.017 0.139 80.888
8086.583 0.141 80.793 0.987 -8.127 0.987 -8.127 0.141 80.793
8111.542 0.143 80.698 0.987 -8.236 0.987 -8.236 0.143 80.698
8136.5 0.145 80.602 0.987 -8.346 0.987 -8.346 0.145 80.602
8161.458 0.147 80.507 0.986 -8.455 0.986 -8.455 0.147 80.507
8186.417 0.149 80.412 0.986 -8.563 0.986 -8.563 0.149 80.412
8211.375 0.151 80.317 0.986 -8.672 0.986 -8.672 0.151 80.317
8236.333 0.153 80.221 0.986 -8.78 0.986 -8.78 0.153 80.221
8261.292 0.155 80.126 0.985 -8.888 0.985 -8.888 0.155 80.126
8286.25 0.156 80.03 0.985 -8.995 0.985 -8.995 0.156 80.03
8311.208 0.158 79.935 0.985 -9.102 0.985 -9.102 0.158 79.935
8336.167 0.16 79.839 0.984 -9.209 0.984 -9.209 0.16 79.839
8361.125 0.162 79.744 0.984 -9.315 0.984 -9.315 0.162 79.744
8386.083 0.164 79.648 0.984 -9.422 0.984 -9.422 0.164 79.648
8411.042 0.166 79.553 0.984 -9.528 0.984 -9.528 0.166 79.553
8436 0.167 79.458 0.983 -9.633 0.983 -9.633 0.167 79.458
8460.958 0.169 79.362 0.983 -9.738 0.983 -9.738 0.169 79.362
8485.917 0.171 79.267 0.983 -9.843 0.983 -9.843 0.171 79.267
8510.875 0.173 79.172 0.982 -9.948 0.982 -9.948 0.173 79.172
8535.833 0.175 79.077 0.982 -10.053 0.982 -10.053 0.175 79.077
8560.792 0.176 78.982 0.982 -10.157 0.982 -10.157 0.176 78.982
8585.75 0.178 78.887 0.981 -10.261 0.981 -10.261 0.178 78.887
8610.708 0.18 78.792 0.981 -10.364 0.981 -10.364 0.18 78.792
8635.667 0.182 78.697 0.981 -10.468 0.981 -10.468 0.182 78.697
8660.625 0.183 78.602 0.98 -10.571 0.98 -10.571 0.183 78.602
8685.583 0.185 78.508 0.98 -10.673 0.98 -10.673 0.185 78.508
8710.542 0.187 78.413 0.98 -10.776 0.98 -10.776 0.187 78.413
8735.5 0.189 78.319 0.979 -10.878 0.979 -10.878 0.189 78.319
8760.458 0.19 78.225 0.979 -10.98 0.979 -10.98 0.19 78.225
8785.417 0.192 78.131 0.979 -11.082 0.979 -11.082 0.192 78.131
8810.375 0.194 78.037 0.978 -11.183 0.978 -11.183 0.194 78.037
8835.333 0.196 77.943 0.978 -11.284 0.978 -11.284 0.196 77.943
8860.292 0.197 77.849 0.978 -11.385 0.978 -11.385 0.197 77.849
8885.25 0.199 77.755 0.977 -11.485 0.977 -11.485 0.199 77.755
8910.208 0.201 77.662 0.977 -11.586 0.977 -11.586 0.201 77.662
8935.167 0.203 77.568 0.977 -11.686 0.977 -11.686 0.203 77.568
8960.125 0.204 77.475 0.976 -11.786 0.976 -11.786 0.204 77.475
8985.083 0.206 77.382 0.976 -11.885 0.976 -11.885 0.206 77.382
9010.042 0.208 77.289 0.976 -11.984 0.976 -11.984 0.208 77.289
9035 0.209 77.196 0.975 -12.083 0.975 -12.083 0.209 77.196
9059.958 0.211 77.103 0.975 -12.182 0.975 -12.182 0.211 77.103
9084.917 0.213 77.011 0.974 -12.281 0.974 -12.281 0.213 77.011
9109.875 0.214 76.918 0.974 -12.379 0.974 -12.379 0.214 76.918
9134.833 0.216 76.826 0.974 -12.477 0.974 -12.477 0.216 76.826
9159.792 0.218 76.734 0.973 -12.574 0.973 -12.574 0.218 76.734
9184.75 0.219 76.642 0.973 -12.672 0.973 -12.672 0.219 76.642
9209.708 0.221 76.55 0.973 -12.769 0.973 -12.769 0.221 76.55
9234.667 0.223 76.458 0.972 -12.866 0.972 -12.866 0.223 76.458
9259.625 0.224 76.367 0.972 -12.963 0.972 -12.963 0.224 76.367
9284.583 0.226 76.275 0.972 -13.059 0.972 -13.059 0.226 76.275
9309.542 0.228 76.184 0.971 -13.156 0.971 -13.156 0.228 76.184
9334.5 0.229 76.093 0.971 -13.252 0.971 -13.252 0.229 76.093
9359.458 0.231 76.002 0.97 -13.347 0.97 -13.347 0.231 76.002
9384.417 0.232 75.911 0.97 -13.443 0.97 -13.443 0.232 75.911
9409.375 0.234 75.821 0.97 -13.538 0.97 -13.538 0.234 75.821
9434.333 0.236 75.731 0.969 -13.633 0.969 -13.633 0.236 75.731
9459.292 0.237 75.64 0.969 -13.728 0.969 -13.728 0.237 75.64
9484.25 0.239 75.55 0.968 -13.823 0.968 -13.823 0.239 75.55
9509.208 0.241 75.46 0.968 -13.917 0.968 -13.917 0.241 75.46
9534.167 0.242 75.37 0.968 -14.011 0.968 -14.011 0.242 75.37
9559.125 0.244 75.281 0.967 -14.105 0.967 -14.105 0.244 75.281
9584.083 0.245 75.191 0.967 -14.199 0.967 -14.199 0.245 75.191
9609.042 0.247 75.102 0.966 -14.292 0.966 -14.292 0.247 75.102
9634 0.248 75.013 0.966 -14.385 0.966 -14.385 0.248 75.013
9658.958 0.25 74.924 0.966 -14.478 0.966 -14.478 0.25 74.924
9683.917 0.252 74.835 0.965 -14.571 0.965 -14.571 0.252 74.835
9708.875 0.253 74.747 0.965 -14.664 0.965 -14.664 0.253 74.747
9733.833 0.255 74.658 0.964 -14.756 0.964 -14.756 0.255 74.658
9758.792 0.256 74.57 0.964 -14.848 0.964 -14.848 0.256 74.57
9783.75 0.258 74.482 0.964 -14.94 0.964 -14.94 0.258 74.482
9808.708 0.259 74.394 0.963 -15.031 0.963 -15.031 0.259 74.394
9833.667 0.261 74.306 0.963 -15.123 0.963 -15.123 0.261 74.306
9858.625 0.262 74.219 0.962 -15.214 0.962 -15.214 0.262 74.219
9883.583 0.264 74.131 0.962 -15.305 0.962 -15.305 0.264 74.131
9908.542 0.265 74.044 0.962 -15.396 0.962 -15.396 0.265 74.044
9933.5 0.267 73.957 0.961 -15.486 0.961 -15.486 0.267 73.957
9958.458 0.269 73.87 0.961 -15.577 0.961 -15.577 0.269 73.87
9983.417 0.27 73.783 0.96 -15.667 0.96 -15.667 0.27 73.783
10008.375 0.272 73.696 0.96 -15.757 0.96 -15.757 0.272 73.696
10033.333 0.273 73.61 0.959 -15.846 0.959 -15.846 0.273 73.61
10058.292 0.275 73.524 0.959 -15.936 0.959 -15.936 0.275 73.524
10083.25 0.276 73.438 0.959 -16.025 0.959 -16.025 0.276 73.438
10108.208 0.278 73.352 0.958 -16.114 0.958 -16.114 0.278 73.352
10133.167 0.279 73.266 0.958 -16.203 0.958 -16.203 0.279 73.266
10158.125 0.281 73.18 0.957 -16.292 0.957 -16.292 0.281 73.18
10183.083 0.282 73.095 0.957 -16.38 0.957 -16.38 0.282 73.095
10208.042 0.284 73.009 0.956 -16.469 0.956 -16.469 0.284 73.009
10233 0.285 72.924 0.956 -16.557 0.956 -16.557 0.285 72.924
10257.958 0.286 72.839 0.956 -16.645 0.956 -16.645 0.286 72.839
10282.917 0.288 72.755 0.955 -16.732 0.955 -16.732 0.288 72.755
10307.875 0.289 72.67 0.955 -16.82 0.955 -16.82 0.289 72.67
10332.833 0.291 72.585 0.954 -16.907 0.954 -16.907 0.291 72.585
10357.792 0.292 72.501 0.954 -16.994 0.954 -16.994 0.292 72.501
10382.75 0.294 72.417 0.953 -17.081 0.953 -17.081 0.294 72.417
10407.708 0.295 72.333 0.953 -17.167 0.953 -17.167 0.295 72.333
10432.667 0.297 72.249 0.952 -17.254 0.952 -17.254 0.297 72.249
10457.625 0.298 72.166 0.952 -17.34 0.952 -17.34 0.298 72.166
10482.583 0.299 72.082 0.952 -17.426 0.952 -17.426 0.299 72.082
10507.542 0.301 71.999 0.951 -17.512 0.951 -17.512 0.301 71.999
10532.5 0.302 71.916 0.951 -17.598 0.951 -17.598 0.302 71.916
10557.458 0.304 71.833 0.95 -17.683 0.95 -17.683 0.304 71.833
10582.417 0.305 71.75 0.95 -17.769 0.95 -17.769 0.305 71.75
10607.375 0.307 71.667 0.949 -17.854 0.949 -17.854 0.307 71.667
10632.333 0.308 71.585 0.949 -17.939 0.949 -17.939 0.308 71.585
10657.292 0.309 71.502 0.948 -18.024 0.948 -18.024 0.309 71.502
10682.25 0.311 71.42 0.948 -18.108 0.948 -18.108 0.311 71.42
10707.208 0.312 71.338 0.947 -18.193 0.947 -18.193 0.312 71.338
10732.167 0.314 71.256 0.947 -18.277 0.947 -18.277 0.314 71.256
10757.125 0.315 71.174 0.947 -18.361 0.947 -18.361 0.315 71.174
10782.083 0.316 71.093 0.946 -18.445 0.946 -18.445 0.316 71.093
10807.042 0.318 71.011 0.946 -18.528 0.946 -18.528 0.318 71.011
10832 0.319 70.93 0.945 -18.612 0.945 -18.612 0.319 70.93
10856.958 0.321 70.849 0.945 -18.695 0.945 -18.695 0.321 70.849
10881.917 0.322 70.768 0.944 -18.778 0.944 -18.778 0.322 70.768
10906.875 0.323 70.687 0.944 -18.861 0.944 -18.861 0.323 70.687
10931.833 0.325 70.607 0.943 -18.944 0.943 -18.944 0.325 70.607
10956.792 0.326 70.526 0.943 -19.026 0.943 -19.026 0.326 70.526
10981.75 0.327 70.446 0.942 -19.109 0.942 -19.109 0.327 70.446
11006.708 0.329 70.366 0.942 -19.191 0.942 -19.191 0.329 70.366
11031.667 0.33 70.286 0.941 -19.273 0.941 -19.273 0.33 70.286
11056.625 0.331 70.206 0.941 -19.355 0.941 -19.355 0.331 70.206
11081.583 0.333 70.126 0.94 -19.436 0.94 -19.436 0.333 70.126
11106.542 0.334 70.047 0.94 -19.518 0.94 -19.518 0.334 70.047
11131.5 0.335 69.967 0.94 -19.599 0.94 -19.599 0.335 69.967
11156.458 0.337 69.888 0.939 -19.68 0.939 -19.68 0.337 69.888
11181.417 0.338 69.809 0.939 -19.761 0.939 -19.761 0.338 69.809
11206.375 0.339 69.73 0.938 -19.842 0.938 -19.842 0.339 69.73
11231.333 0.341 69.652 0.938 -19.923 0.938 -19.923 0.341 69.652
11256.292 0.342 69.573 0.937 -20.003 0.937 -20.003 0.342 69.573
11281.25 0.343 69.494 0.937 -20.083 0.937 -20.083 0.343 69.494
11306.208 0.345 69.416 0.936 -20.164 0.936 -20.164 0.345 69.416
11331.167 0.346 69.338 0.936 -20.244 0.936 -20.244 0.346 69.338
11356.125 0.347 69.26 0.935 -20.323 0.935 -20.323 0.347 69.26
11381.083 0.349 69.182 0.935 -20.403 0.935 -20.403 0.349 69.182
11406.042 0.35 69.104 0.934 -20.482 0.934 -20.482 0.35 69.104
11431 0.351 69.027 0.934 -20.562 0.934 -20.562 0.351 69.027
11455.958 0.353 68.949 0.933 -20.641 0.933 -20.641 0.353 68.949
11480.917 0.354 68.872 0.933 -20.72 0.933 -20.72 0.354 68.872
11505.875 0.355 68.795 0.932 -20.799 0.932 -20.799 0.355 68.795
11530.833 0.356 68.718 0.932 -20.877 0.932 -20.877 0.356 68.718
11555.792 0.358 68.641 0.931 -20.956 0.931 -20.956 0.358 68.641
11580.75 0.359 68.565 0.931 -21.034 0.931 -21.034 0.359 68.565
11605.708 0.36 68.488 0.93 -21.112 0.93 -21.112 0.36 68.488
11630.667 0.361 68.412 0.93 -21.19 0.93 -21.19 0.361 68.412
11655.625 0.363 68.336 0.929 -21.268 0.929 -21.268 0.363 68.336
11680.583 0.364 68.259 0.929 -21.346 0.929 -21.346 0.364 68.259
11705.542 0.365 68.184 0.928 -21.423 0.928 -21.423 0.365 68.184
11730.5 0.367 68.108 0.928 -21.5 0.928 -21.5 0.367 68.108
11755.458 0.368 68.032 0.927 -21.578 0.927 -21.578 0.368 68.032
11780.417 0.369 67.957 0.927 -21.655 0.927 -21.655 0.369 67.957
11805.375 0.37 67.881 0.926 -21.732 0.926 -21.732 0.37 67.881
11830.333 0.372 67.806 0.926 -21.808 0.926 -21.808 0.372 67.806
11855.292 0.373 67.731 0.925 -21.885 0.925 -21.885 0.373 67.731
11880.25 0.374 67.656 0.925 -21.961 0.925 -21.961 0.374 67.656
11905.208 0.375 67.581 0.924 -22.038 0.924 -22.038 0.375 67.581
11930.167 0.376 67.507 0.924 -22.114 0.924 -22.114 0.376 67.507
11955.125 0.378 67.432 0.923 -22.19 0.923 -22.19 0.378 67.432
11980.083 0.379 67.358 0.923 -22.265 0.923 -22.265 0.379 67.358
12005.042 0.38 67.283 0.922 -22.341 0.922 -22.341 0.38 67.283
12030 0.381 67.209 0.922 -22.417 0.922 -22.417 0.381 67.209
12054.958 0.383 67.135 0.921 -22.492 0.921 -22.492 0.383 67.135
12079.917 0.384 67.062 0.921 -22.567 0.921 -22.567 0.384 67.062
12104.875 0.385 66.988 0.92 -22.642 0.92 -22.642 0.385 66.988
12129.833 0.386 66.914 0.92 -22.717 0.92 -22.717 0.386 66.914
12154.792 0.387 66.841 0.919 -22.792 0.919 -22.792 0.387 66.841
12179.75 0.389 66.768 0.919 -22.866 0.919 -22.866 0.389 66.768
12204.708 0.39 66.695 0.918 -22.941 0.918 -22.941 0.39 66.695
12229.667 0.391 66.622 0.918 -23.015 0.918 -23.015 0.391 66.622
12254.625 0.392 66.549 0.917 -23.089 0.917 -23.089 0.392 66.549
12279.583 0.393 66.476 0.917 -23.163 0.917 -23.163 0.393 66.476
12304.542 0.395 66.404 0.916 -23.237 0.916 -23.237 0.395 66.404
12329.5 0.396 66.331 0.916 -23.311 0.916 -23.311 0.396 66.331
12354.458 0.397 66.259 0.915 -23.384 0.915 -23.384 0.397 66.259
12379.417 0.398 66.187 0.915 -23.458 0.915 -23.458 0.398 66.187
12404.375 0.399 66.115 0.914 -23.531 0.914 -23.531 0.399 66.115
12429.333 0.4 66.043 0.914 -23.604 0.914 -23.604 0.4 66.043
12454.292 0.402 65.971 0.913 -23.677 0.913 -23.677 0.402 65.971
12479.25 0.403 65.899 0.913 -23.75 0.913 -23.75 0.403 65.899
12504.208 0.404 65.828 0.912 -23.823 0.912 -23.823 0.404 65.828
12529.167 0.405 65.757 0.912 -23.895 0.912 -23.895 0.405 65.757
12554.125 0.406 65.685 0.911 -23.968 0.911 -23.968 0.406 65.685
12579.083 0.407 65.614 0.911 -24.04 0.911 -24.04 0.407 65.614
12604.042 0.409 65.543 0.91 -24.112 0.91 -24.112 0.409 65.543
12629 0.41 65.472 0.91 -24.184 0.91 -24.184 0.41 65.472
12653.958 0.411 65.402 0.909 -24.256 0.909 -24.256 0.411 65.402
12678.917 0.412 65.331 0.909 -24.328 0.909 -24.328 0.412 65.331
12703.875 0.413 65.261 0.908 -24.399 0.908 -24.399 0.413 65.261
12728.833 0.414 65.19 0.908 -24.471 0.908 -24.471 0.414 65.19
12753.792 0.415 65.12 0.907 -24.542 0.907 -24.542 0.415 65.12
12778.75 0.416 65.05 0.907 -24.613 0.907 -24.613 0.416 65.05
12803.708 0.418 64.98 0.906 -24.684 0.906 -24.684 0.418 64.98
12828.667 0.419 64.91 0.906 -24.755 0.906 -24.755 0.419 64.91
12853.625 0.42 64.841 0.905 -24.826 0.905 -24.826 0.42 64.841
12878.583 0.421 64.771 0.905 -24.896 0.905 -24.896 0.421 64.771
12903.542 0.422 64.702 0.904 -24.967 0.904 -24.967 0.422 64.702
12928.5 0.423 64.632 0.904 -25.037 0.904 -25.037 0.423 64.632
12953.458 0.424 64.563 0.903 -25.107 0.903 -25.107 0.424 64.563
12978.417 0.425 64.494 0.903 -25.177 0.903 -25.177 0.425 64.494
13003.375 0.427 64.425 0.902 -25.247 0.902 -25.247 0.427 64.425
13028.333 0.428 64.357 0.902 -25.317 0.902 -25.317 0.428 64.357
13053.292 0.429 64.288 0.901 -25.387 0.901 -25.387 0.429 64.288
13078.25 0.43 64.219 0.9 -25.456 0.9 -25.456 0.43 64.219
13103.208 0.431 64.151 0.9 -25.526 0.9 -25.526 0.431 64.151
13128.167 0.432 64.083 0.899 -25.595 0.899 -25.595 0.432 64.083
13153.125 0.433 64.015 0.899 -25.664 0.899 -25.664 0.433 64.015
13178.083 0.434 63.947 0.898 -25.733 0.898 -25.733 0.434 63.947
13203.042 0.435 63.879 0.898 -25.802 0.898 -25.802 0.435 63.879
13228 0.436 63.811 0.897 -25.871 0.897 -25.871 0.436 63.811
13252.958 0.437 63.743 0.897 -25.94 0.897 -25.94 0.437 63.743
13277.917 0.439 63.676 0.896 -26.008 0.896 -26.008 0.439 63.676
13302.875 0.44 63.608 0.896 -26.076 0.896 -26.076 0.44 63.608
13327.833 0.441 63.541 0.895 -26.145 0.895 -26.145 0.441 63.541
13352.792 0.442 63.474 0.895 -26.213 0.895 -26.213 0.442 63.474
13377.75 0.443 63.407 0.894 -26.281 0.894 -26.281 0.443 63.407
13402.708 0.444 63.34 0.894 -26.349 0.894 -26.349 0.444 63.34
13427.667 0.445 63.273 0.893 -26.416 0.893 -26.416 0.445 63.273
13452.625 0.446 63.206 0.893 -26.484 0.893 -26.484 0.446 63.206
13477.583 0.447 63.14 0.892 -26.552 0.892 -26.552 0.447 63.14
13502.542 0.448 63.073 0.892 -26.619 0.892 -26.619 0.448 63.073
13527.5 0.449 63.007 0.891 -26.686 0.891 -26.686 0.449 63.007
13552.458 0.45 62.941 0.891 -26.753 0.891 -26.753 0.45 62.941
13577.417 0.451 62.875 0.89 -26.82 0.89 -26.82 0.451 62.875
13602.375 0.452 62.809 0.889 -26.887 0.889 -26.887 0.452 62.809
13627.333 0.453 62.743 0.889 -26.954 0.889 -26.954 0.453 62.743
13652.292 0.454 62.677 0.888 -27.02 0.888 -27.02 0.454 62.677
13677.25 0.455 62.611 0.888 -27.087 0.888 -27.087 0.455 62.611
13702.208 0.456 62.546 0.887 -27.153 0.887 -27.153 0.456 62.546
13727.167 0.457 62.48 0.887 -27.22 0.887 -27.22 0.457 62.48
13752.125 0.458 62.415 0.886 -27.286 0.886 -27.286 0.458 62.415
13777.083 0.459 62.35 0.886 -27.352 0.886 -27.352 0.459 62.35
13802.042 0.46 62.285 0.885 -27.418 0.885 -27.418 0.46 62.285
13827 0.461 62.22 0.885 -27.483 0.885 -27.483 0.461 62.22
13851.958 0.463 62.155 0.884 -27.549 0.884 -27.549 0.463 62.155
13876.917 0.464 62.091 0.884 -27.614 0.884 -27.614 0.464 62.091
13901.875 0.465 62.026 0.883 -27.68 0.883 -27.68 0.465 62.026
13926.833 0.466 61.961 0.883 -27.745 0.883 -27.745 0.466 61.961
13951.792 0.467 61.897 0.882 -27.81 0.882 -27.81 0.467 61.897
13976.75 0.468 61.833 0.882 -27.875 0.882 -27.875 0.468 61.833
14001.708 0.469 61.769 0.881 -27.94 0.881 -27.94 0.469 61.769
14026.667 0.47 61.705 0.881 -28.005 0.881 -28.005 0.47 61.705
14051.625 0.471 61.641 0.88 -28.07 0.88 -28.07 0.471 61.641
14076.583 0.472 61.577 0.879 -28.134 0.879 -28.134 0.472 61.577
14101.542 0.473 61.513 0.879 -28.199 0.879 -28.199 0.473 61.513
14126.5 0.474 61.45 0.878 -28.263 0.878 -28.263 0.474 61.45
14151.458 0.475 61.386 0.878 -28.327 0.878 -28.327 0.475 61.386
14176.417 0.475 61.323 0.877 -28.391 0.877 -28.391 0.475 61.323
14201.375 0.476 61.26 0.877 -28.455 0.877 -28.455 0.476 61.26
14226.333 0.477 61.197 0.876 -28.519 0.876 -28.519 0.477 61.197
14251.292 0.478 61.134 0.876 -28.583 0.876 -28.583 0.478 61.134
14276.25 0.479 61.071 0.875 -28.647 0.875 -28.647 0.479 61.071
14301.208 0.48 61.008 0.875 -28.71 0.875 -28.71 0.48 61.008
14326.167 0.481 60.945 0.874 -28.774 0.874 -28.774 0.481 60.945
14351.125 0.482 60.883 0.874 -28.837 0.874 -28.837 0.482 60.883
14376.083 0.483 60.82 0.873 -28.9 0.873 -28.9 0.483 60.82
14401.042 0.484 60.758 0.873 -28.963 0.873 -28.963 0.484 60.758
14426 0.485 60.696 0.872 -29.026 0.872 -29.026 0.485 60.696
14450.958 0.486 60.634 0.872 -29.089 0.872 -29.089 0.486 60.634
14475.917 0.487 60.572 0.871 -29.152 0.871 -29.152 0.487 60.572
14500.875 0.488 60.51 0.87 -29.214 0.87 -29.214 0.488 60.51
14525.833 0.489 60.448 0.87 -29.277 0.87 -29.277 0.489 60.448
14550.792 0.49 60.386 0.869 -29.339 0.869 -29.339 0.49 60.386
14575.75 0.491 60.325 0.869 -29.402 0.869 -29.402 0.491 60.325
14600.708 0.492 60.263 0.868 -29.464 0.868 -29.464 0.492 60.263
14625.667 0.493 60.202 0.868 -29.526 0.868 -29.526 0.493 60.202
14650.625 0.494 60.14 0.867 -29.588 0.867 -29.588 0.494 60.14
14675.583 0.495 60.079 0.867 -29.65 0.867 -29.65 0.495 60.079
14700.542 0.496 60.018 0.866 -29.711 0.866 -29.711 0.496 60.018
14725.5 0.497 59.957 0.866 -29.773 0.866 -29.773 0.497 59.957
14750.458 0.498 59.896 0.865 -29.835 0.865 -29.835 0.498 59.896
14775.417 0.498 59.836 0.865 -29.896 0.865 -29.896 0.498 59.836
14800.375 0.499 59.775 0.864 -29.957 0.864 -29.957 0.499 59.775
14825.333 0.5 59.714 0.864 -30.018 0.864 -30.018 0.5 59.714
14850.292 0.501 59.654 0.863 -30.08 0.863 -30.08 0.501 59.654
14875.25 0.502 59.594 0.862 -30.14 0.862 -30.14 0.502 59.594
14900.208 0.503 59.533 0.862 -30.201 0.862 -30.201 0.503 59.533
14925.167 0.504 59.473 0.861 -30.262 0.861 -30.262 0.504 59.473
14950.125 0.505 59.413 0.861 -30.323 0.861 -30.323 0.505 59.413
14975.083 0.506 59.353 0.86 -30.383 0.86 -30.383 0.506 59.353
15000.042 0.507 59.294 0.86 -30.444 0.86 -30.444 0.507 59.294
15025 0.508 59.234 0.859 -30.504 0.859 -30.504 0.508 59.234
15049.958 0.509 59.174 0.859 -30.564 0.859 -30.564 0.509 59.174
15074.917 0.509 59.115 0.858 -30.624 0.858 -30.624 0.509 59.115
15099.875 0.51 59.055 0.858 -30.684 0.858 -30.684 0.51 59.055
15124.833 0.511 58.996 0.857 -30.744 0.857 -30.744 0.511 58.996
15149.792 0.512 58.937 0.857 -30.804 0.857 -30.804 0.512 58.937
15174.75 0.513 58.878 0.856 -30.864 0.856 -30.864 0.513 58.878
15199.708 0.514 58.819 0.856 -30.924 0.856 -30.924 0.514 58.819
15224.667 0.515 58.76 0.855 -30.983 0.855 -30.983 0.515 58.76
15249.625 0.516 58.701 0.854 -31.042 0.854 -31.042 0.516 58.701
15274.583 0.517 58.642 0.854 -31.102 0.854 -31.102 0.517 58.642
15299.542 0.517 58.584 0.853 -31.161 0.853 -31.161 0.517 58.584
15324.5 0.518 58.525 0.853 -31.22 0.853 -31.22 0.518 58.525
15349.458 0.519 58.467 0.852 -31.279 0.852 -31.279 0.519 58.467
15374.417 0.52 58.409 0.852 -31.338 0.852 -31.338 0.52 58.409
15399.375 0.521 58.351 0.851 -31.397 0.851 -31.397 0.521 58.351
15424.333 0.522 58.292 0.851 -31.455 0.851 -31.455 0.522 58.292
15449.292 0.523 58.234 0.85 -31.514 0.85 -31.514 0.523 58.234
15474.25 0.524 58.177 0.85 -31.572 0.85 -31.572 0.524 58.177
15499.208 0.524 58.119 0.849 -31.631 0.849 -31.631 0.524 58.119
15524.167 0.525 58.061 0.849 -31.689 0.849 -31.689 0.525 58.061
15549.125 0.526 58.003 0.848 -31.747 0.848 -31.747 0.526 58.003
15574.083 0.527 57.946 0.848 -31.805 0.848 -31.805 0.527 57.946
15599.042 0.528 57.888 0.847 -31.863 0.847 -31.863 0.528 57.888
15624 0.529 57.831 0.846 -31.921 0.846 -31.921 0.529 57.831
15648.958 0.53 57.774 0.846 -31.979 0.846 -31.979 0.53 57.774
15673.917 0.53 57.717 0.845 -32.037 0.845 -32.037 0.53 57.717
15698.875 0.531 57.66 0.845 -32.094 0.845 -32.094 0.531 57.66
15723.833 0.532 57.603 0.844 -32.152 0.844 -32.152 0.532 57.603
15748.792 0.533 57.546 0.844 -32.209 0.844 -32.209 0.533 57.546
15773.75 0.534 57.489 0.843 -32.266 0.843 -32.266 0.534 57.489
15798.708 0.535 57.433 0.843 -32.323 0.843 -32.323 0.535 57.433
15823.667 0.536 57.376 0.842 -32.381 0.842 -32.381 0.536 57.376
15848.625 0.536 57.32 0.842 -32.437 0.842 -32.437 0.536 57.32
15873.583 0.537 57.263 0.841 -32.494 0.841 -32.494 0.537 57.263
15898.542 0.538 57.207 0.841 -32.551 0.841 -32.551 0.538 57.207
15923.5 0.539 57.151 0.84 -32.608 0.84 -32.608 0.539 57.151
15948.458 0.54 57.095 0.84 -32.664 0.84 -32.664 0.54 57.095
15973.417 0.541 57.039 0.839 -32.721 0.839 -32.721 0.541 57.039
15998.375 0.541 56.983 0.839 -32.777 0.839 -32.777 0.541 56.983
16023.333 0.542 56.927 0.838 -32.834 0.838 -32.834 0.542 56.927
16048.292 0.543 56.871 0.837 -32.89 0.837 -32.89 0.543 56.871
16073.25 0.544 56.816 0.837 -32.946 0.837 -32.946 0.544 56.816
16098.208 0.545 56.76 0.836 -33.002 0.836 -33.002 0.545 56.76
16123.167 0.545 56.705 0.836 -33.058 0.836 -33.058 0.545 56.705
16148.125 0.546 56.65 0.835 -33.114 0.835 -33.114 0.546 56.65
16173.083 0.547 56.594 0.835 -33.17 0.835 -33.17 0.547 56.594
16198.042 0.548 56.539 0.834 -33.225 0.834 -33.225 0.548 56.539
16223 0.549 56.484 0.834 -33.281 0.834 -33.281 0.549 56.484
16247.958 0.55 56.429 0.833 -33.336 0.833 -33.336 0.55 56.429
16272.917 0.55 56.374 0.833 -33.392 0.833 -33.392 0.55 56.374
16297.875 0.551 56.32 0.832 -33.447 0.832 -33.447 0.551 56.32
16322.833 0.552 56.265 0.832 -33.502 0.832 -33.502 0.552 56.265
16347.792 0.553 56.21 0.831 -33.557 0.831 -33.557 0.553 56.21
16372.75 0.554 56.156 0.831 -33.612 0.831 -33.612 0.554 56.156
16397.708 0.554 56.101 0.83 -33.667 0.83 -33.667 0.554 56.101
16422.667 0.555 56.047 0.83 -33.722 0.83 -33.722 0.555 56.047
16447.625 0.556 55.993 0.829 -33.777 0.829 -33.777 0.556 55.993
16472.583 0.557 55.939 0.828 -33.831 0.828 -33.831 0.557 55.939
16497.542 0.558 55.885 0.828 -33.886 0.828 -33.886 0.558 55.885
16522.5 0.558 55.831 0.827 -33.94 0.827 -33.94 0.558 55.831
16547.458 0.559 55.777 0.827 -33.994 0.827 -33.994 0.559 55.777
16572.417 0.56 55.723 0.826 -34.049 0.826 -34.049 0.56 55.723
16597.375 0.561 55.669 0.826 -34.103 0.826 -34.103 0.561 55.669
16622.333 0.561 55.616 0.825 -34.157 0.825 -34.157 0.561 55.616
16647.292 0.562 55.562 0.825 -34.211 0.825 -34.211 0.562 55.562
16672.25 0.563 55.509 0.824 -34.265 0.824 -34.265 0.563 55.509
16697.208 0.564 55.455 0.824 -34.319 0.824 -34.319 0.564 55.455
16722.167 0.565 55.402 0.823 -34.372 0.823 -34.372 0.565 55.402
16747.125 0.565 55.349 0.823 -34.426 0.823 -34.426 0.565 55.349
16772.083 0.566 55.296 0.822 -34.48 0.822 -34.48 0.566 55.296
16797.042 0.567 55.243 0.822 -34.533 0.822 -34.533 0.567 55.243
16822 0.568 55.19 0.821 -34.586 0.821 -34.586 0.568 55.19
16846.958 0.568 55.137 0.821 -34.64 0.821 -34.64 0.568 55.137
16871.917 0.569 55.084 0.82 -34.693 0.82 -34.693 0.569 55.084
16896.875 0.57 55.032 0.819 -34.746 0.819 -34.746 0.57 55.032
16921.833 0.571 54.979 0.819 -34.799 0.819 -34.799 0.571 54.979
16946.792 0.571 54.926 0.818 -34.852 0.818 -34.852 0.571 54.926
16971.75 0.572 54.874 0.818 -34.905 0.818 -34.905 0.572 54.874
16996.708 0.573 54.822 0.817 -34.957 0.817 -34.957 0.573 54.822
17021.667 0.574 54.77 0.817 -35.01 0.817 -35.01 0.574 54.77
17046.625 0.574 54.717 0.816 -35.063 0.816 -35.063 0.574 54.717
17071.583 0.575 54.665 0.816 -35.115 0.816 -35.115 0.575 54.665
17096.542 0.576 54.613 0.815 -35.168 0.815 -35.168 0.576 54.613
17121.5 0.577 54.561 0.815 -35.22 0.815 -35.22 0.577 54.561
17146.458 0.577 54.51 0.814 -35.272 0.814 -35.272 0.577 54.51
17171.417 0.578 54.458 0.814 -35.324 0.814 -35.324 0.578 54.458
17196.375 0.579 54.406 0.813 -35.376 0.813 -35.376 0.579 54.406
17221.333 0.58 54.355 0.813 -35.428 0.813 -35.428 0.58 54.355
17246.292 0.58 54.303 0.812 -35.48 0.812 -35.48 0.58 54.303
17271.25 0.581 54.252 0.812 -35.532 0.812 -35.532 0.581 54.252
17296.208 0.582 54.201 0.811 -35.584 0.811 -35.584 0.582 54.201
17321.167 0.583 54.149 0.811 -35.635 0.811 -35.635 0.583 54.149
17346.125 0.583 54.098 0.81 -35.687 0.81 -35.687 0.583 54.098
17371.083 0.584 54.047 0.81 -35.738 0.81 -35.738 0.584 54.047
17396.042 0.585 53.996 0.809 -35.79 0.809 -35.79 0.585 53.996
17421 0.586 53.945 0.808 -35.841 0.808 -35.841 0.586 53.945
17445.958 0.586 53.895 0.808 -35.892 0.808 -35.892 0.586 53.895
17470.917 0.587 53.844 0.807 -35.943 0.807 -35.943 0.587 53.844
17495.875 0.588 53.793 0.807 -35.994 0.807 -35.994 0.588 53.793
17520.833 0.588 53.743 0.806 -36.045 0.806 -36.045 0.588 53.743
17545.792 0.589 53.692 0.806 -36.096 0.806 -36.096 0.589 53.692
17570.75 0.59 53.642 0.805 -36.147 0.805 -36.147 0.59 53.642
17595.708 0.591 53.591 0.805 -36.198 0.805 -36.198 0.591 53.591
17620.667 0.591 53.541 0.804 -36.248 0.804 -36.248 0.591 53.541
17645.625 0.592 53.491 0.804 -36.299 0.804 -36.299 0.592 53.491
17670.583 0.593 53.441 0.803 -36.349 0.803 -36.349 0.593 53.441
17695.542 0.593 53.391 0.803 -36.4 0.803 -36.4 0.593 53.391
17720.5 0.594 53.341 0.802 -36.45 0.802 -36.45 0.594 53.341
17745.458 0.595 53.291 0.802 -36.5 0.802 -36.5 0.595 53.291
17770.417 0.596 53.241 0.801 -36.55 0.801 -36.55 0.596 53.241
17795.375 0.596 53.192 0.801 -36.6 0.801 -36.6 0.596 53.192
17820.333 0.597 53.142 0.8 -36.65 0.8 -36.65 0.597 53.142
17845.292 0.598 53.093 0.8 -36.7 0.8 -36.7 0.598 53.093
17870.25 0.598 53.043 0.799 -36.75 0.799 -36.75 0.598 53.043
17895.208 0.599 52.994 0.799 -36.8 0.799 -36.8 0.599 52.994
17920.167 0.6 52.945 0.798 -36.849 0.798 -36.849 0.6 52.945
17945.125 0.6 52.895 0.798 -36.899 0.798 -36.899 0.6 52.895
17970.083 0.601 52.846 0.797 -36.949 0.797 -36.949 0.601 52.846
17995.042 0.602 52.797 0.797 -36.998 0.797 -36.998 0.602 52.797
18020 0.602 52.748 0.796 -37.047 0.796 -37.047 0.602 52.748
18044.958 0.603 52.699 0.795 -37.096 0.795 -37.096 0.603 52.699
18069.917 0.604 52.651 0.795 -37.146 0.795 -37.146 0.604 52.651
18094.875 0.605 52.602 0.794 -37.195 0.794 -37.195 0.605 52.602
18119.833 0.605 52.553 0.794 -37.244 0.794 -37.244 0.605 52.553
18144.792 0.606 52.505 0.793 -37.293 0.793 -37.293 0.606 52.505
18169.75 0.607 52.456 0.793 -37.342 0.793 -37.342 0.607 52.456
18194.708 0.607 52.408 0.792 -37.39 0.792 -37.39 0.607 52.408
18219.667 0.608 52.359 0.792 -37.439 0.792 -37.439 0.608 52.359
18244.625 0.609 52.311 0.791 -37.488 0.791 -37.488 0.609 52.311
18269.583 0.609 52.263 0.791 -37.536 0.791 -37.536 0.609 52.263
18294.542 0.61 52.215 0.79 -37.585 0.79 -37.585 0.61 52.215
18319.5 0.611 52.167 0.79 -37.633 0.79 -37.633 0.611 52.167
18344.458 0.611 52.119 0.789 -37.681 0.789 -37.681 0.611 52.119
18369.417 0.612 52.071 0.789 -37.73 0.789 -37.73 0.612 52.071
18394.375 0.613 52.023 0.788 -37.778 0.788 -37.778 0.613 52.023
18419.333 0.613 51.975 0.788 -37.826 0.788 -37.826 0.613 51.975
18444.292 0.614 51.928 0.787 -37.874 0.787 -37.874 0.614 51.928
18469.25 0.615 51.88 0.787 -37.922 0.787 -37.922 0.615 51.88
18494.208 0.615 51.833 0.786 -37.97 0.786 -37.97 0.615 51.833
18519.167 0.616 51.785 0.786 -38.017 0.786 -38.017 0.616 51.785
18544.125 0.617 51.738 0.785 -38.065 0.785 -38.065 0.617 51.738
18569.083 0.617 51.691 0.785 -38.113 0.785 -38.113 0.617 51.691
18594.042 0.618 51.643 0.784 -38.16 0.784 -38.16 0.618 51.643
18619 0.619 51.596 0.784 -38.208 0.784 -38.208 0.619 51.596
18643.958 0.619 51.549 0.783 -38.255 0.783 -38.255 0.619 51.549
18668.917 0.62 51.502 0.783 -38.302 0.783 -38.302 0.62 51.502
18693.875 0.62 51.455 0.782 -38.35 0.782 -38.35 0.62 51.455
18718.833 0.621 51.408 0.782 -38.397 0.782 -38.397 0.621 51.408
18743.792 0.622 51.362 0.781 -38.444 0.781 -38.444 0.622 51.362
18768.75 0.622 51.315 0.781 -38.491 0.781 -38.491 0.622 51.315
18793.708 0.623 51.268 0.78 -38.538 0.78 -38.538 0.623 51.268
18818.667 0.624 51.222 0.78 -38.585 0.78 -38.585 0.624 51.222
18843.625 0.624 51.175 0.779 -38.632 0.779 -38.632 0.624 51.175
18868.583 0.625 51.129 0.779 -38.678 0.779 -38.678 0.625 51.129
18893.542 0.626 51.083 0.778 -38.725 0.778 -38.725 0.626 51.083
18918.5 0.626 51.036 0.778 -38.772 0.778 -38.772 0.626 51.036
18943.458 0.627 50.99 0.777 -38.818 0.777 -38.818 0.627 50.99
18968.417 0.627 50.944 0.777 -38.865 0.777 -38.865 0.627 50.944
18993.375 0.628 50.898 0.776 -38.911 0.776 -38.911 0.628 50.898
19018.333 0.629 50.852 0.776 -38.957 0.776 -38.957 0.629 50.852
19043.292 0.629 50.806 0.775 -39.003 0.775 -39.003 0.629 50.806
19068.25 0.63 50.76 0.775 -39.05 0.775 -39.05 0.63 50.76
19093.208 0.631 50.714 0.774 -39.096 0.774 -39.096 0.631 50.714
19118.167 0.631 50.669 0.773 -39.142 0.773 -39.142 0.631 50.669
19143.125 0.632 50.623 0.773 -39.188 0.773 -39.188 0.632 50.623
19168.083 0.632 50.578 0.772 -39.233 0.772 -39.233 0.632 50.578
19193.042 0.633 50.532 0.772 -39.279 0.772 -39.279 0.633 50.532
19218 0.634 50.487 0.771 -39.325 0.771 -39.325 0.634 50.487
19242.958 0.634 50.441 0.771 -39.37 0.771 -39.37 0.634 50.441
19267.917 0.635 50.396 0.77 -39.416 0.77 -39.416 0.635 50.396
19292.875 0.636 50.351 0.77 -39.462 0.77 -39.462 0.636 50.351
19317.833 0.636 50.306 0.769 -39.507 0.769 -39.507 0.636 50.306
19342.792 0.637 50.261 0.769 -39.552 0.769 -39.552 0.637 50.261
19367.75 0.637 50.216 0.768 -39.598 0.768 -39.598 0.637 50.216
19392.708 0.638 50.171 0.768 -39.643 0.768 -39.643 0.638 50.171
19417.667 0.639 50.126 0.767 -39.688 0.767 -39.688 0.639 50.126
19442.625 0.639 50.081 0.767 -39.733 0.767 -39.733 0.639 50.081
19467.583 0.64 50.037 0.766 -39.778 0.766 -39.778 0.64 50.037
19492.542 0.64 49.992 0.766 -39.823 0.766 -39.823 0.64 49.992
19517.5 0.641 49.947 0.765 -39.868 0.765 -39.868 0.641 49.947
19542.458 0.642 49.903 0.765 -39.913 0.765 -39.913 0.642 49.903
19567.417 0.642 49.858 0.764 -39.957 0.764 -39.957 0.642 49.858
19592.375 0.643 49.814 0.764 -40.002 0.764 -40.002 0.643 49.814
19617.333 0.643 49.77 0.763 -40.047 0.763 -40.047 0.643 49.77
19642.292 0.644 49.726 0.763 -40.091 0.763 -40.091 0.644 49.726
19667.25 0.645 49.681 0.762 -40.135 0.762 -40.135 0.645 49.681
19692.208 0.645 49.637 0.762 -40.18 0.762 -40.18 0.645 49.637
19717.167 0.646 49.593 0.761 -40.224 0.761 -40.224 0.646 49.593
19742.125 0.646 49.549 0.761 -40.268 0.761 -40.268 0.646 49.549
19767.083 0.647 49.506 0.76 -40.313 0.76 -40.313 0.647 49.506
19792.042 0.648 49.462 0.76 -40.357 0.76 -40.357 0.648 49.462
19817 0.648 49.418 0.759 -40.401 0.759 -40.401 0.648 49.418
19841.958 0.649 49.374 0.759 -40.445 0.759 -40.445 0.649 49.374
19866.917 0.649 49.331 0.758 -40.489 0.758 -40.489 0.649 49.331
19891.875 0.65 49.287 0.758 -40.532 0.758 -40.532 0.65 49.287
19916.833 0.65 49.244 0.757 -40.576 0.757 -40.576 0.65 49.244
19941.792 0.651 49.2 0.757 -40.62 0.757 -40.62 0.651 49.2
19966.75 0.652 49.157 0.757 -40.663 0.757 -40.663 0.652 49.157
19991.708 0.652 49.114 0.756 -40.707 0.756 -40.707 0.652 49.114
20016.667 0.653 49.07 0.756 -40.75 0.756 -40.75 0.653 49.07
20041.625 0.653 49.027 0.755 -40.794 0.755 -40.794 0.653 49.027
20066.583 0.654 48.984 0.755 -40.837 0.755 -40.837 0.654 48.984
20091.542 0.654 48.941 0.754 -40.881 0.754 -40.881 0.654 48.941
20116.5 0.655 48.898 0.754 -40.924 0.754 -40.924 0.655 48.898
20141.458 0.656 48.855 0.753 -40.967 0.753 -40.967 0.656 48.855
20166.417 0.656 48.812 0.753 -41.01 0.753 -41.01 0.656 48.812
20191.375 0.657 48.77 0.752 -41.053 0.752 -41.053 0.657 48.77
20216.333 0.657 48.727 0.752 -41.096 0.752 -41.096 0.657 48.727
20241.292 0.658 48.684 0.751 -41.139 0.751 -41.139 0.658 48.684
20266.25 0.658 48.642 0.751 -41.182 0.751 -41.182 0.658 48.642
20291.208 0.659 48.599 0.75 -41.224 0.75 -41.224 0.659 48.599
20316.167 0.66 48.557 0.75 -41.267 0.75 -41.267 0.66 48.557
20341.125 0.66 48.515 0.749 -41.31 0.749 -41.31 0.66 48.515
20366.083 0.661 48.472 0.749 -41.352 0.749 -41.352 0.661 48.472
20391.042 0.661 48.43 0.748 -41.395 0.748 -41.395 0.661 48.43
20416 0.662 48.388 0.748 -41.437 0.748 -41.437 0.662 48.388
20440.958 0.662 48.346 0.747 -41.48 0.747 -41.48 0.662 48.346
20465.917 0.663 48.304 0.747 -41.522 0.747 -41.522 0.663 48.304
20490.875 0.663 48.262 0.746 -41.564 0.746 -41.564 0.663 48.262
20515.833 0.664 48.22 0.746 -41.606 0.746 -41.606 0.664 48.22
20540.792 0.665 48.178 0.745 -41.649 0.745 -41.649 0.665 48.178
20565.75 0.665 48.136 0.745 -41.691 0.745 -41.691 0.665 48.136
20590.708 0.666 48.094 0.744 -41.733 0.744 -41.733 0.666 48.094
20615.667 0.666 48.053 0.744 -41.774 0.744 -41.774 0.666 48.053
20640.625 0.667 48.011 0.743 -41.816 0.743 -41.816 0.667 48.011
20665.583 0.667 47.97 0.743 -41.858 0.743 -41.858 0.667 47.97
20690.542 0.668 47.928 0.742 -41.9 0.742 -41.9 0.668 47.928
20715.5 0.668 47.887 0.742 -41.942 0.742 -41.942 0.668 47.887
20740.458 0.669 47.845 0.741 -41.983 0.741 -41.983 0.669 47.845
20765.417 0.669 47.804 0.741 -42.025 0.741 -42.025 0.669 47.804
20790.375 0.67 47.763 0.74 -42.066 0.74 -42.066 0.67 47.763
20815.333 0.671 47.722 0.74 -42.108 0.74 -42.108 0.671 47.722
20840.292 0.671 47.681 0.739 -42.149 0.739 -42.149 0.671 47.681
20865.25 0.672 47.64 0.739 -42.19 0.739 -42.19 0.672 47.64
20890.208 0.672 47.599 0.738 -42.231 0.738 -42.231 0.672 47.599
20915.167 0.673 47.558 0.738 -42.273 0.738 -42.273 0.673 47.558
20940.125 0.673 47.517 0.737 -42.314 0.737 -42.314 0.673 47.517
20965.083 0.674 47.476 0.737 -42.355 0.737 -42.355 0.674 47.476
20990.042 0.674 47.435 0.737 -42.396 0.737 -42.396 0.674 47.435
21015 0.675 47.395 0.736 -42.437 0.736 -42.437 0.675 47.395
21039.958 0.675 47.354 0.736 -42.477 0.736 -42.477 0.675 47.354
21064.917 0.676 47.313 0.735 -42.518 0.735 -42.518 0.676 47.313
21089.875 0.676 47.273 0.735 -42.559 0.735 -42.559 0.676 47.273
21114.833 0.677 47.232 0.734 -42.6 0.734 -42.6 0.677 47.232
21139.792 0.677 47.192 0.734 -42.64 0.734 -42.64 0.677 47.192
21164.75 0.678 47.152 0.733 -42.681 0.733 -42.681 0.678 47.152
21189.708 0.678 47.112 0.733 -42.721 0.733 -42.721 0.678 47.112
21214.667 0.679 47.071 0.732 -42.762 0.732 -42.762 0.679 47.071
21239.625 0.679 47.031 0.732 -42.802 0.732 -42.802 0.679 47.031
21264.583 0.68 46.991 0.731 -42.842 0.731 -42.842 0.68 46.991
21289.542 0.681 46.951 0.731 -42.883 0.731 -42.883 0.681 46.951
21314.5 0.681 46.911 0.73 -42.923 0.73 -42.923 0.681 46.911
21339.458 0.682 46.871 0.73 -42.963 0.73 -42.963 0.682 46.871
21364.417 0.682 46.831 0.729 -43.003 0.729 -43.003 0.682 46.831
21389.375 0.683 46.792 0.729 -43.043 0.729 -43.043 0.683 46.792
21414.333 0.683 46.752 0.728 -43.083 0.728 -43.083 0.683 46.752
21439.292 0.684 46.712 0.728 -43.123 0.728 -43.123 0.684 46.712
21464.25 0.684 46.673 0.727 -43.163 0.727 -43.163 0.684 46.673
21489.208 0.685 46.633 0.727 -43.202 0.727 -43.202 0.685 46.633
21514.167 0.685 46.594 0.727 -43.242 0.727 -43.242 0.685 46.594
21539.125 0.686 46.554 0.726 -43.282 0.726 -43.282 0.686 46.554
21564.083 0.686 46.515 0.726 -43.321 0.726 -43.321 0.686 46.515
21589.042 0.687 46.476 0.725 -43.361 0.725 -43.361 0.687 46.476
21614 0.687 46.436 0.725 -43.4 0.725 -43.4 0.687 46.436
21638.958 0.688 46.397 0.724 -43.44 0.724 -43.44 0.688 46.397
21663.917 0.688 46.358 0.724 -43.479 0.724 -43.479 0.688 46.358
21688.875 0.689 46.319 0.723 -43.518 0.723 -43.518 0.689 46.319
21713.833 0.689 46.28 0.723 -43.558 0.723 -43.558 0.689 46.28
21738.792 0.69 46.241 0.722 -43.597 0.722 -43.597 0.69 46.241
21763.75 0.69 46.202 0.722 -43.636 0.722 -43.636 0.69 46.202
21788.708 0.691 46.163 0.721 -43.675 0.721 -43.675 0.691 46.163
21813.667 0.691 46.125 0.721 -43.714 0.721 -43.714 0.691 46.125
21838.625 0.692 46.086 0.72 -43.753 0.72 -43.753 0.692 46.086
21863.583 0.692 46.047 0.72 -43.792 0.72 -43.792 0.692 46.047
21888.542 0.693 46.008 0.719 -43.831 0.719 -43.831 0.693 46.008
21913.5 0.693 45.97 0.719 -43.869 0.719 -43.869 0.693 45.97
21938.458 0.694 45.931 0.719 -43.908 0.719 -43.908 0.694 45.931
21963.417 0.694 45.893 0.718 -43.947 0.718 -43.947 0.694 45.893
21988.375 0.694 45.855 0.718 -43.985 0.718 -43.985 0.694 45.855
22013.333 0.695 45.816 0.717 -44.024 0.717 -44.024 0.695 45.816
22038.292 0.695 45.778 0.717 -44.063 0.717 -44.063 0.695 45.778
22063.25 0.696 45.74 0.716 -44.101 0.716 -44.101 0.696 45.74
22088.208 0.696 45.702 0.716 -44.139 0.716 -44.139 0.696 45.702
22113.167 0.697 45.664 0.715 -44.178 0.715 -44.178 0.697 45.664
22138.125 0.697 45.625 0.715 -44.216 0.715 -44.216 0.697 45.625
22163.083 0.698 45.587 0.714 -44.254 0.714 -44.254 0.698 45.587
22188.042 0.698 45.55 0.714 -44.292 0.714 -44.292 0.698 45.55
22213 0.699 45.512 0.713 -44.33 0.713 -44.33 0.699 45.512
22237.958 0.699 45.474 0.713 -44.368 0.713 -44.368 0.699 45.474
22262.917 0.7 45.436 0.712 -44.406 0.712 -44.406 0.7 45.436
22287.875 0.7 45.398 0.712 -44.444 0.712 -44.444 0.7 45.398
22312.833 0.701 45.361 0.712 -44.482 0.712 -44.482 0.701 45.361
22337.792 0.701 45.323 0.711 -44.52 0.711 -44.52 0.701 45.323
22362.75 0.702 45.286 0.711 -44.558 0.711 -44.558 0.702 45.286
22387.708 0.702 45.248 0.71 -44.595 0.71 -44.595 0.702 45.248
22412.667 0.703 45.211 0.71 -44.633 0.71 -44.633 0.703 45.211
22437.625 0.703 45.173 0.709 -44.671 0.709 -44.671 0.703 45.173
22462.583 0.703 45.136 0.709 -44.708 0.709 -44.708 0.703 45.136
22487.542 0.704 45.099 0.708 -44.746 0.708 -44.746 0.704 45.099
22512.5 0.704 45.061 0.708 -44.783 0.708 -44.783 0.704 45.061
22537.458 0.705 45.024 0.707 -44.82 0.707 -44.82 0.705 45.024
22562.417 0.705 44.987 0.707 -44.858 0.707 -44.858 0.705 44.987
22587.375 0.706 44.95 0.706 -44.895 0.706 -44.895 0.706 44.95
22612.333 0.706 44.913 0.706 -44.932 0.706 -44.932 0.706 44.913
22637.292 0.707 44.876 0.706 -44.969 0.706 -44.969 0.707 44.876
22662.25 0.707 44.839 0.705 -45.007 0.705 -45.007 0.707 44.839
22687.208 0.708 44.802 0.705 -45.044 0.705 -45.044 0.708 44.802
22712.167 0.708 44.766 0.704 -45.081 0.704 -45.081 0.708 44.766
22737.125 0.709 44.729 0.704 -45.118 0.704 -45.118 0.709 44.729
22762.083 0.709 44.692 0.703 -45.154 0.703 -45.154 0.709 44.692
22787.042 0.709 44.655 0.703 -45.191 0.703 -45.191 0.709 44.655
22812 0.71 44.619 0.702 -45.228 0.702 -45.228 0.71 44.619
22836.958 0.71 44.582 0.702 -45.265 0.702 -45.265 0.71 44.582
22861.917 0.711 44.546 0.701 -45.301 0.701 -45.301 0.711 44.546
22886.875 0.711 44.509 0.701 -45.338 0.701 -45.338 0.711 44.509
22911.833 0.712 44.473 0.701 -45.375 0.701 -45.375 0.712 44.473
22936.792 0.712 44.437 0.7 -45.411 0.7 -45.411 0.712 44.437
22961.75 0.713 44.4 0.7 -45.448 0.7 -45.448 0.713 44.4
22986.708 0.713 44.364 0.699 -45.484 0.699 -45.484 0.713 44.364
23011.667 0.714 44.328 0.699 -45.52 0.699 -45.52 0.714 44.328
23036.625 0.714 44.292 0.698 -45.557 0.698 -45.557 0.714 44.292
23061.583 0.714 44.256 0.698 -45.593 0.698 -45.593 0.714 44.256
23086.542 0.715 44.22 0.697 -45.629 0.697 -45.629 0.715 44.22
23111.5 0.715 44.184 0.697 -45.665 0.697 -45.665 0.715 44.184
23136.458 0.716 44.148 0.697 -45.701 0.697 -45.701 0.716 44.148
23161.417 0.716 44.112 0.696 -45.737 0.696 -45.737 0.716 44.112
23186.375 0.717 44.076 0.696 -45.773 0.696 -45.773 0.717 44.076
23211.333 0.717 44.041 0.695 -45.809 0.695 -45.809 0.717 44.041
23236.292 0.717 44.005 0.695 -45.845 0.695 -45.845 0.717 44.005
23261.25 0.718 43.969 0.694 -45.881 0.694 -45.881 0.718 43.969
23286.208 0.718 43.934 0.694 -45.917 0.694 -45.917 0.718 43.934
23311.167 0.719 43.898 0.693 -45.952 0.693 -45.952 0.719 43.898
23336.125 0.719 43.863 0.693 -45.988 0.693 -45.988 0.719 43.863
23361.083 0.72 43.827 0.692 -46.024 0.692 -46.024 0.72 43.827
23386.042 0.72 43.792 0.692 -46.059 0.692 -46.059 0.72 43.792
23411 0.72 43.757 0.692 -46.095 0.692 -46.095 0.72 43.757
23435.958 0.721 43.721 0.691 -46.13 0.691 -46.13 0.721 43.721
23460.917 0.721 43.686 0.691 -46.166 0.691 -46.166 0.721 43.686
23485.875 0.722 43.651 0.69 -46.201 0.69 -46.201 0.722 43.651
23510.833 0.722 43.616 0.69 -46.236 0.69 -46.236 0.722 43.616
23535.792 0.723 43.581 0.689 -46.272 0.689 -46.272 0.723 43.581
23560.75 0.723 43.546 0.689 -46.307 0.689 -46.307 0.723 43.546
23585.708 0.723 43.511 0.688 -46.342 0.688 -46.342 0.723 43.511
23610.667 0.724 43.476 0.688 -46.377 0.688 -46.377 0.724 43.476
23635.625 0.724 43.441 0.688 -46.412 0.688 -46.412 0.724 43.441
23660.583 0.725 43.406 0.687 -46.447 0.687 -46.447 0.725 43.406
23685.542 0.725 43.371 0.687 -46.482 0.687 -46.482 0.725 43.371
23710.5 0.726 43.336 0.686 -46.517 0.686 -46.517 0.726 43.336
23735.458 0.726 43.302 0.686 -46.552 0.686 -46.552 0.726 43.302
23760.417 0.726 43.267 0.685 -46.587 0.685 -46.587 0.726 43.267
23785.375 0.727 43.232 0.685 -46.622 0.685 -46.622 0.727 43.232
23810.333 0.727 43.198 0.685 -46.656 0.685 -46.656 0.727 43.198
23835.292 0.728 43.163 0.684 -46.691 0.684 -46.691 0.728 43.163
23860.25 0.728 43.129 0.684 -46.726 0.684 -46.726 0.728 43.129
23885.208 0.728 43.095 0.683 -46.76 0.683 -46.76 0.728 43.095
23910.167 0.729 43.06 0.683 -46.795 0.683 -46.795 0.729 43.06
23935.125 0.729 43.026 0.682 -46.829 0.682 -46.829 0.729 43.026
23960.083 0.73 42.992 0.682 -46.864 0.682 -46.864 0.73 42.992
23985.042 0.73 42.958 0.681 -46.898 0.681 -46.898 0.73 42.958
24010 0.731 42.923 0.681 -46.932 0.681 -46.932 0.731 42.923
24034.958 0.731 42.889 0.681 -46.967 0.681 -46.967 0.731 42.889
24059.917 0.731 42.855 0.68 -47.001 0.68 -47.001 0.731 42.855
24084.875 0.732 42.821 0.68 -47.035 0.68 -47.035 0.732 42.821
24109.833 0.732 42.787 0.679 -47.069 0.679 -47.069 0.732 42.787
24134.792 0.733 42.753 0.679 -47.103 0.679 -47.103 0.733 42.753
24159.75 0.733 42.719 0.678 -47.137 0.678 -47.137 0.733 42.719
24184.708 0.733 42.686 0.678 -47.171 0.678 -47.171 0.733 42.686
24209.667 0.734 42.652 0.678 -47.205 0.678 -47.205 0.734 42.652
24234.625 0.734 42.618 0.677 -47.239 0.677 -47.239 0.734 42.618
24259.583 0.735 42.584 0.677 -47.273 0.677 -47.273 0.735 42.584
24284.542 0.735 42.551 0.676 -47.307 0.676 -47.307 0.735 42.551
24309.5 0.735 42.517 0.676 -47.34 0.676 -47.34 0.735 42.517
24334.458 0.736 42.484 0.675 -47.374 0.675 -47.374 0.736 42.484
24359.417 0.736 42.45 0.675 -47.408 0.675 -47.408 0.736 42.45
24384.375 0.737 42.417 0.675 -47.441 0.675 -47.441 0.737 42.417
24409.333 0.737 42.383 0.674 -47.475 0.674 -47.475 0.737 42.383
24434.292 0.737 42.35 0.674 -47.509 0.674 -47.509 0.737 42.35
24459.25 0.738 42.317 0.673 -47.542 0.673 -47.542 0.738 42.317
24484.208 0.738 42.284 0.673 -47.575 0.673 -47.575 0.738 42.284
24509.167 0.739 42.25 0.672 -47.609 0.672 -47.609 0.739 42.25
24534.125 0.739 42.217 0.672 -47.642 0.672 -47.642 0.739 42.217
24559.083 0.739 42.184 0.672 -47.675 0.672 -47.675 0.739 42.184
24584.042 0.74 42.151 0.671 -47.709 0.671 -47.709 0.74 42.151
24609 0.74 42.118 0.671 -47.742 0.671 -47.742 0.74 42.118
24633.958 0.741 42.085 0.67 -47.775 0.67 -47.775 0.741 42.085
24658.917 0.741 42.052 0.67 -47.808 0.67 -47.808 0.741 42.052
24683.875 0.741 42.019 0.669 -47.841 0.669 -47.841 0.741 42.019
24708.833 0.742 41.986 0.669 -47.874 0.669 -47.874 0.742 41.986
24733.792 0.742 41.954 0.669 -47.907 0.669 -47.907 0.742 41.954
24758.75 0.742 41.921 0.668 -47.94 0.668 -47.94 0.742 41.921
24783.708 0.743 41.888 0.668 -47.973 0.668 -47.973 0.743 41.888
24808.667 0.743 41.855 0.667 -48.006 0.667 -48.006 0.743 41.855
24833.625 0.744 41.823 0.667 -48.038 0.667 -48.038 0.744 41.823
24858.583 0.744 41.79 0.666 -48.071 0.666 -48.071 0.744 41.79
24883.542 0.744 41.758 0.666 -48.104 0.666 -48.104 0.744 41.758
24908.5 0.745 41.725 0.666 -48.136 0.666 -48.136 0.745 41.725
24933.458 0.745 41.693 0.665 -48.169 0.665 -48.169 0.745 41.693
24958.417 0.745 41.661 0.665 -48.201 0.665 -48.201 0.745 41.661
24983.375 0.746 41.628 0.664 -48.234 0.664 -48.234 0.746 41.628
25008.333 0.746 41.596 0.664 -48.266 0.664 -48.266 0.746 41.596
25033.292 0.747 41.564 0.663 -48.299 0.663 -48.299 0.747 41.564
25058.25 0.747 41.531 0.663 -48.331 0.663 -48.331 0.747 41.531
25083.208 0.747 41.499 0.663 -48.363 0.663 -48.363 0.747 41.499
25108.167 0.748 41.467 0.662 -48.396 0.662 -48.396 0.748 41.467
25133.125 0.748 41.435 0.662 -48.428 0.662 -48.428 0.748 41.435
25158.083 0.748 41.403 0.661 -48.46 0.661 -48.46 0.748 41.403
25183.042 0.749 41.371 0.661 -48.492 0.661 -48.492 0.749 41.371
25208 0.749 41.339 0.661 -48.524 0.661 -48.524 0.749 41.339
25232.958 0.75 41.307 0.66 -48.556 0.66 -48.556 0.75 41.307
25257.917 0.75 41.275 0.66 -48.588 0.66 -48.588 0.75 41.275
25282.875 0.75 41.244 0.659 -48.62 0.659 -48.62 0.75 41.244
25307.833 0.751 41.212 0.659 -48.652 0.659 -48.652 0.751 41.212
25332.792 0.751 41.18 0.658 -48.684 0.658 -48.684 0.751 41.18
25357.75 0.751 41.148 0.658 -48.716 0.658 -48.716 0.751 41.148
25382.708 0.752 41.117 0.658 -48.748 0.658 -48.748 0.752 41.117
25407.667 0.752 41.085 0.657 -48.78 0.657 -48.78 0.752 41.085
25432.625 0.753 41.054 0.657 -48.811 0.657 -48.811 0.753 41.054
25457.583 0.753 41.022 0.656 -48.843 0.656 -48.843 0.753 41.022
25482.542 0.753 40.991 0.656 -48.874 0.656 -48.874 0.753 40.991
25507.5 0.754 40.959 0.656 -48.906 0.656 -48.906 0.754 40.959
25532.458 0.754 40.928 0.655 -48.938 0.655 -48.938 0.754 40.928
25557.417 0.754 40.897 0.655 -48.969 0.655 -48.969 0.754 40.897
25582.375 0.755 40.865 0.654 -49 0.654 -49 0.755 40.865
25607.333 0.755 40.834 0.654 -49.032 0.654 -49.032 0.755 40.834
25632.292 0.755 40.803 0.653 -49.063 0.653 -49.063 0.755 40.803
25657.25 0.756 40.772 0.653 -49.094 0.653 -49.094 0.756 40.772
25682.208 0.756 40.741 0.653 -49.126 0.653 -49.126 0.756 40.741
25707.167 0.757 40.71 0.652 -49.157 0.652 -49.157 0.757 40.71
25732.125 0.757 40.679 0.652 -49.188 0.652 -49.188 0.757 40.679
25757.083 0.757 40.648 0.651 -49.219 0.651 -49.219 0.757 40.648
25782.042 0.758 40.617 0.651 -49.25 0.651 -49.25 0.758 40.617
25807 0.758 40.586 0.651 -49.281 0.651 -49.281 0.758 40.586
25831.958 0.758 40.555 0.65 -49.312 0.65 -49.312 0.758 40.555
25856.917 0.759 40.524 0.65 -49.343 0.65 -49.343 0.759 40.524
25881.875 0.759 40.493 0.649 -49.374 0.649 -49.374 0.759 40.493
25906.833 0.759 40.463 0.649 -49.405 0.649 -49.405 0.759 40.463
25931.792 0.76 40.432 0.649 -49.436 0.649 -49.436 0.76 40.432
25956.75 0.76 40.401 0.648 -49.467 0.648 -49.467 0.76 40.401
25981.708 0.76 40.371 0.648 -49.497 0.648 -49.497 0.76 40.371
26006.667 0.761 40.34 0.647 -49.528 0.647 -49.528 0.761 40.34
26031.625 0.761 40.31 0.647 -49.559 0.647 -49.559 0.761 40.31
26056.583 0.761 40.279 0.647 -49.589 0.647 -49.589 0.761 40.279
26081.542 0.762 40.249 0.646 -49.62 0.646 -49.62 0.762 40.249
26106.5 0.762 40.218 0.646 -49.651 0.646 -49.651 0.762 40.218
26131.458 0.762 40.188 0.645 -49.681 0.645 -49.681 0.762 40.188
26156.417 0.763 40.158 0.645 -49.712 0.645 -49.712 0.763 40.158
26181.375 0.763 40.127 0.644 -49.742 0.644 -49.742 0.763 40.127
26206.333 0.763 40.097 0.644 -49.772 0.644 -49.772 0.763 40.097
26231.292 0.764 40.067 0.644 -49.803 0.644 -49.803 0.764 40.067
26256.25 0.764 40.037 0.643 -49.833 0.643 -49.833 0.764 40.037
26281.208 0.765 40.007 0.643 -49.863 0.643 -49.863 0.765 40.007
26306.167 0.765 39.977 0.642 -49.893 0.642 -49.893 0.765 39.977
26331.125 0.765 39.947 0.642 -49.924 0.642 -49.924 0.765 39.947
26356.083 0.766 39.917 0.642 -49.954 0.642 -49.954 0.766 39.917
26381.042 0.766 39.887 0.641 -49.984 0.641 -49.984 0.766 39.887
26406 0.766 39.857 0.641 -50.014 0.641 -50.014 0.766 39.857
26430.958 0.767 39.827 0.64 -50.044 0.64 -50.044 0.767 39.827
26455.917 0.767 39.797 0.64 -50.074 0.64 -50.074 0.767 39.797
26480.875 0.767 39.767 0.64 -50.104 0.64 -50.104 0.767 39.767
26505.833 0.768 39.737 0.639 -50.134 0.639 -50.134 0.768 39.737
26530.792 0.768 39.708 0.639 -50.163 0.639 -50.163 0.768 39.708
26555.75 0.768 39.678 0.638 -50.193 0.638 -50.193 0.768 39.678
26580.708 0.769 39.648 0.638 -50.223 0.638 -50.223 0.769 39.648
26605.667 0.769 39.619 0.638 -50.253 0.638 -50.253 0.769 39.619
26630.625 0.769 39.589 0.637 -50.282 0.637 -50.282 0.769 39.589
26655.583 0.77 39.56 0.637 -50.312 0.637 -50.312 0.77 39.56
26680.542 0.77 39.53 0.636 -50.342 0.636 -50.342 0.77 39.53
26705.5 0.77 39.501 0.636 -50.371 0.636 -50.371 0.77 39.501
26730.458 0.771 39.472 0.636 -50.401 0.636 -50.401 0.771 39.472
26755.417 0.771 39.442 0.635 -50.43 0.635 -50.43 0.771 39.442
26780.375 0.771 39.413 0.635 -50.46 0.635 -50.46 0.771 39.413
26805.333 0.772 39.384 0.635 -50.489 0.635 -50.489 0.772 39.384
26830.292 0.772 39.354 0.634 -50.518 0.634 -50.518 0.772 39.354
26855.25 0.772 39.325 0.634 -50.548 0.634 -50.548 0.772 39.325
26880.208 0.772 39.296 0.633 -50.577 0.633 -50.577 0.772 39.296
26905.167 0.773 39.267 0.633 -50.606 0.633 -50.606 0.773 39.267
26930.125 0.773 39.238 0.633 -50.635 0.633 -50.635 0.773 39.238
26955.083 0.773 39.209 0.632 -50.665 0.632 -50.665 0.773 39.209
26980.042 0.774 39.18 0.632 -50.694 0.632 -50.694 0.774 39.18
27005 0.774 39.151 0.631 -50.723 0.631 -50.723 0.774 39.151
27029.958 0.774 39.122 0.631 -50.752 0.631 -50.752 0.774 39.122
27054.917 0.775 39.093 0.631 -50.781 0.631 -50.781 0.775 39.093
27079.875 0.775 39.064 0.63 -50.81 0.63 -50.81 0.775 39.064
27104.833 0.775 39.035 0.63 -50.839 0.63 -50.839 0.775 39.035
27129.792 0.776 39.007 0.629 -50.868 0.629 -50.868 0.776 39.007
27154.75 0.776 38.978 0.629 -50.897 0.629 -50.897 0.776 38.978
27179.708 0.776 38.949 0.629 -50.925 0.629 -50.925 0.776 38.949
27204.667 0.777 38.921 0.628 -50.954 0.628 -50.954 0.777 38.921
27229.625 0.777 38.892 0.628 -50.983 0.628 -50.983 0.777 38.892
27254.583 0.777 38.863 0.627 -51.012 0.627 -51.012 0.777 38.863
27279.542 0.778 38.835 0.627 -51.04 0.627 -51.04 0.778 38.835
27304.5 0.778 38.806 0.627 -51.069 0.627 -51.069 0.778 38.806
27329.458 0.778 38.778 0.626 -51.097 0.626 -51.097 0.778 38.778
27354.417 0.779 38.75 0.626 -51.126 0.626 -51.126 0.779 38.75
27379.375 0.779 38.721 0.626 -51.155 0.626 -51.155 0.779 38.721
27404.333 0.779 38.693 0.625 -51.183 0.625 -51.183 0.779 38.693
27429.292 0.779 38.664 0.625 -51.211 0.625 -51.211 0.779 38.664
27454.25 0.78 38.636 0.624 -51.24 0.624 -51.24 0.78 38.636
27479.208 0.78 38.608 0.624 -51.268 0.624 -51.268 0.78 38.608
27504.167 0.78 38.58 0.624 -51.297 0.624 -51.297 0.78 38.58
27529.125 0.781 38.552 0.623 -51.325 0.623 -51.325 0.781 38.552
27554.083 0.781 38.523 0.623 -51.353 0.623 -51.353 0.781 38.523
27579.042 0.781 38.495 0.622 -51.381 0.622 -51.381 0.781 38.495
27604 0.782 38.467 0.622 -51.409 0.622 -51.409 0.782 38.467
27628.958 0.782 38.439 0.622 -51.438 0.622 -51.438 0.782 38.439
27653.917 0.782 38.411 0.621 -51.466 0.621 -51.466 0.782 38.411
27678.875 0.783 38.383 0.621 -51.494 0.621 -51.494 0.783 38.383
27703.833 0.783 38.356 0.621 -51.522 0.621 -51.522 0.783 38.356
27728.792 0.783 38.328 0.62 -51.55 0.62 -51.55 0.783 38.328
27753.75 0.783 38.3 0.62 -51.578 0.62 -51.578 0.783 38.3
27778.708 0.784 38.272 0.619 -51.606 0.619 -51.606 0.784 38.272
27803.667 0.784 38.244 0.619 -51.634 0.619 -51.634 0.784 38.244
27828.625 0.784 38.217 0.619 -51.661 0.619 -51.661 0.784 38.217
27853.583 0.785 38.189 0.618 -51.689 0.618 -51.689 0.785 38.189
27878.542 0.785 38.161 0.618 -51.717 0.618 -51.717 0.785 38.161
27903.5 0.785 38.134 0.617 -51.745 0.617 -51.745 0.785 38.134
27928.458 0.786 38.106 0.617 -51.772 0.617 -51.772 0.786 38.106
27953.417 0.786 38.079 0.617 -51.8 0.617 -51.8 0.786 38.079
27978.375 0.786 38.051 0.616 -51.828 0.616 -51.828 0.786 38.051
28003.333 0.786 38.024 0.616 -51.855 0.616 -51.855 0.786 38.024
28028.292 0.787 37.996 0.616 -51.883 0.616 -51.883 0.787 37.996
28053.25 0.787 37.969 0.615 -51.91 0.615 -51.91 0.787 37.969
28078.208 0.787 37.941 0.615 -51.938 0.615 -51.938 0.787 37.941
28103.167 0.788 37.914 0.614 -51.965 0.614 -51.965 0.788 37.914
28128.125 0.788 37.887 0.614 -51.993 0.614 -51.993 0.788 37.887
28153.083 0.788 37.86 0.614 -52.02 0.614 -52.02 0.788 37.86
28178.042 0.789 37.832 0.613 -52.047 0.613 -52.047 0.789 37.832
28203 0.789 37.805 0.613 -52.075 0.613 -52.075 0.789 37.805
28227.958 0.789 37.778 0.613 -52.102 0.613 -52.102 0.789 37.778
28252.917 0.789 37.751 0.612 -52.129 0.612 -52.129 0.789 37.751
28277.875 0.79 37.724 0.612 -52.156 0.612 -52.156 0.79 37.724
28302.833 0.79 37.697 0.611 -52.183 0.611 -52.183 0.79 37.697
28327.792 0.79 37.67 0.611 -52.211 0.611 -52.211 0.79 37.67
28352.75 0.791 37.643 0.611 -52.238 0.611 -52.238 0.791 37.643
28377.708 0.791 37.616 0.61 -52.265 0.61 -52.265 0.791 37.616
28402.667 0.791 37.589 0.61 -52.292 0.61 -52.292 0.791 37.589
28427.625 0.791 37.562 0.61 -52.319 0.61 -52.319 0.791 37.562
28452.583 0.792 37.535 0.609 -52.346 0.609 -52.346 0.792 37.535
28477.542 0.792 37.509 0.609 -52.372 0.609 -52.372 0.792 37.509
28502.5 0.792 37.482 0.609 -52.399 0.609 -52.399 0.792 37.482
28527.458 0.793 37.455 0.608 -52.426 0.608 -52.426 0.793 37.455
28552.417 0.793 37.428 0.608 -52.453 0.608 -52.453 0.793 37.428
28577.375 0.793 37.402 0.607 -52.48 0.607 -52.48 0.793 37.402
28602.333 0.793 37.375 0.607 -52.506 0.607 -52.506 0.793 37.375
28627.292 0.794 37.349 0.607 -52.533 0.607 -52.533 0.794 37.349
28652.25 0.794 37.322 0.606 -52.56 0.606 -52.56 0.794 37.322
28677.208 0.794 37.295 0.606 -52.586 0.606 -52.586 0.794 37.295
28702.167 0.795 37.269 0.606 -52.613 0.606 -52.613 0.795 37.269
28727.125 0.795 37.243 0.605 -52.64 0.605 -52.64 0.795 37.243
28752.083 0.795 37.216 0.605 -52.666 0.605 -52.666 0.795 37.216
28777.042 0.795 37.19 0.604 -52.693 0.604 -52.693 0.795 37.19
28802 0.796 37.163 0.604 -52.719 0.604 -52.719 0.796 37.163
28826.958 0.796 37.137 0.604 -52.746 0.604 -52.746 0.796 37.137
28851.917 0.796 37.111 0.603 -52.772 0.603 -52.772 0.796 37.111
28876.875 0.797 37.085 0.603 -52.798 0.603 -52.798 0.797 37.085
28901.833 0.797 37.058 0.603 -52.825 0.603 -52.825 0.797 37.058
28926.792 0.797 37.032 0.602 -52.851 0.602 -52.851 0.797 37.032
28951.75 0.797 37.006 0.602 -52.877 0.602 -52.877 0.797 37.006
28976.708 0.798 36.98 0.602 -52.903 0.602 -52.903 0.798 36.98
29001.667 0.798 36.954 0.601 -52.93 0.601 -52.93 0.798 36.954
29026.625 0.798 36.928 0.601 -52.956 0.601 -52.956 0.798 36.928
29051.583 0.798 36.902 0.6 -52.982 0.6 -52.982 0.798 36.902
29076.542 0.799 36.876 0.6 -53.008 0.6 -53.008 0.799 36.876
29101.5 0.799 36.85 0.6 -53.034 0.6 -53.034 0.799 36.85
29126.458 0.799 36.824 0.599 -53.06 0.599 -53.06 0.799 36.824
29151.417 0.8 36.798 0.599 -53.086 0.599 -53.086 0.8 36.798
29176.375 0.8 36.772 0.599 -53.112 0.599 -53.112 0.8 36.772
29201.333 0.8 36.746 0.598 -53.138 0.598 -53.138 0.8 36.746
29226.292 0.8 36.721 0.598 -53.164 0.598 -53.164 0.8 36.721
29251.25 0.801 36.695 0.598 -53.19 0.598 -53.19 0.801 36.695
29276.208 0.801 36.669 0.597 -53.215 0.597 -53.215 0.801 36.669
29301.167 0.801 36.644 0.597 -53.241 0.597 -53.241 0.801 36.644
29326.125 0.801 36.618 0.596 -53.267 0.596 -53.267 0.801 36.618
29351.083 0.802 36.592 0.596 -53.293 0.596 -53.293 0.802 36.592
29376.042 0.802 36.567 0.596 -53.318 0.596 -53.318 0.802 36.567
29401 0.802 36.541 0.595 -53.344 0.595 -53.344 0.802 36.541
29425.958 0.803 36.516 0.595 -53.37 0.595 -53.37 0.803 36.516
29450.917 0.803 36.49 0.595 -53.395 0.595 -53.395 0.803 36.49
29475.875 0.803 36.465 0.594 -53.421 0.594 -53.421 0.803 36.465
29500.833 0.803 36.439 0.594 -53.446 0.594 -53.446 0.803 36.439
29525.792 0.804 36.414 0.594 -53.472 0.594 -53.472 0.804 36.414
29550.75 0.804 36.389 0.593 -53.497 0.593 -53.497 0.804 36.389
29575.708 0.804 36.363 0.593 -53.523 0.593 -53.523 0.804 36.363
29600.667 0.804 36.338 0.593 -53.548 0.593 -53.548 0.804 36.338
29625.625 0.805 36.313 0.592 -53.573 0.592 -53.573 0.805 36.313
29650.583 0.805 36.288 0.592 -53.599 0.592 -53.599 0.805 36.288
29675.542 0.805 36.262 0.591 -53.624 0.591 -53.624 0.805 36.262
29700.5 0.805 36.237 0.591 -53.649 0.591 -53.649 0.805 36.237
29725.458 0.806 36.212 0.591 -53.674 0.591 -53.674 0.806 36.212
29750.417 0.806 36.187 0.59 -53.7 0.59 -53.7 0.806 36.187
29775.375 0.806 36.162 0.59 -53.725 0.59 -53.725 0.806 36.162
29800.333 0.806 36.137 0.59 -53.75 0.59 -53.75 0.806 36.137
29825.292 0.807 36.112 0.589 -53.775 0.589 -53.775 0.807 36.112
29850.25 0.807 36.087 0.589 -53.8 0.589 -53.8 0.807 36.087
29875.208 0.807 36.062 0.589 -53.825 0.589 -53.825 0.807 36.062
29900.167 0.807 36.037 0.588 -53.85 0.588 -53.85 0.807 36.037
29925.125 0.808 36.012 0.588 -53.875 0.588 -53.875 0.808 36.012
29950.083 0.808 35.987 0.588 -53.9 0.588 -53.9 0.808 35.987
29975.042 0.808 35.963 0.587 -53.925 0.587 -53.925 0.808 35.963
30000 0.809 35.938 0.587 -53.95 0.587 -53.95 0.809 35.938
